240
Lattice="100.0 0.0 0.0 0.0 100.0 0.0 0.0 0.0 100.0" Properties=species:S:1:pos:R:3 name=C-169395-3151-50 pressure=-117.696053821484 energy=-1725.49969739794 spacegroup=C1 times_found=1 pbc="T T T"
C       48.27710000      55.40390000      54.40180000
C       54.43460000      48.55860000      55.98270000
C       55.81410000      54.16590000      48.37650000
C       51.36340000      55.78910000      45.66750000
C       48.47480000      44.03510000      45.63290000
C       51.71320000      44.21160000      54.01480000
C       45.47310000      48.16450000      44.47700000
C       54.37920000      51.66830000      44.64430000
C       45.84540000      51.54810000      55.64820000
C       44.11450000      54.56430000      51.38500000
C       55.56040000      45.74680000      51.75060000
C       44.18160000      45.97070000      48.40010000
C       48.62000000      44.07860000      54.19770000
C       54.20400000      51.65830000      55.87960000
C       55.80440000      45.81550000      48.46890000
C       51.49360000      44.04040000      45.58640000
C       48.33030000      55.68370000      45.86910000
C       51.71080000      55.40660000      54.38490000
C       45.40820000      51.39460000      44.07630000
C       54.43680000      48.24330000      44.65850000
C       45.77720000      48.27090000      55.38510000
C       44.26400000      46.04290000      51.53620000
C       55.91860000      54.40010000      51.45720000
C       44.40620000      54.47480000      48.14220000
C       52.92480000      43.78680000      45.66580000
C       45.59020000      52.81040000      43.77690000
C       43.93790000      46.19790000      52.92220000
C       47.18530000      43.84140000      54.12400000
C       53.09760000      55.66880000      54.11160000
C       46.96690000      56.09550000      45.99040000
C       53.98910000      53.03990000      56.20020000
C       45.99090000      46.85950000      55.58490000
C       54.18300000      46.85900000      44.37980000
C       56.19280000      46.01470000      47.09930000
C       44.18370000      54.22630000      46.73720000
C       56.17830000      54.36190000      52.88620000
C       52.78170000      56.08870000      45.69210000
C       45.74590000      46.76430000      44.30140000
C       43.83930000      54.41720000      52.81070000
C       46.88920000      55.69380000      54.15750000
C       53.09940000      43.88650000      53.83830000
C       47.04920000      43.77750000      45.74440000
C       54.36800000      47.11990000      56.20220000
C       46.03130000      52.90730000      56.07460000
C       54.06480000      53.04420000      44.38110000
C       56.14190000      53.97410000      46.99340000
C       43.78970000      46.06980000      47.02550000
C       55.77810000      45.95920000      53.15550000
C       43.67820000      48.58090000      52.63720000
C       52.78540000      43.73370000      48.15540000
C       48.07970000      52.53740000      43.96390000
C       56.46450000      48.37230000      47.46930000
C       43.64610000      51.80530000      47.18230000
C       56.24600000      51.86120000      52.81660000
C       47.26950000      43.90560000      51.62270000
C       52.64130000      55.98120000      51.63990000
C       47.27340000      56.43000000      48.34730000
C       51.64050000      52.65520000      56.49420000
C       48.46310000      47.21710000      56.00640000
C       51.72380000      47.31310000      44.02900000
C       43.83430000      51.92650000      52.57490000
C       52.71090000      56.13210000      48.19260000
C       48.20140000      47.22240000      43.93730000
C       56.50870000      51.63300000      47.36280000
C       43.45070000      48.44220000      47.24530000
C       56.17610000      48.43980000      52.80570000
C       47.34520000      56.15420000      51.72660000
C       52.78610000      43.64900000      51.46510000
C       47.22030000      43.87230000      48.24270000
C       51.87250000      47.21260000      56.15520000
C       48.38560000      52.53660000      56.37750000
C       51.59460000      52.51720000      44.11230000
C       56.68070000      47.45960000      45.27380000
C       45.11220000      56.67210000      47.39720000
C       47.50530000      45.13310000      55.92410000
C       43.52210000      47.63510000      54.80780000
C       55.71270000      52.98910000      54.75910000
C       43.75040000      52.69120000      45.05600000
C       54.75860000      56.06520000      52.55610000
C       45.33000000      44.42920000      52.76910000
C       54.76160000      44.28250000      47.08490000
C       52.65180000      45.19640000      43.94540000
C       47.05160000      54.58310000      44.31690000
C       52.50630000      54.86910000      56.63460000
C       56.61400000      52.51470000      45.15260000
C       45.23320000      44.34850000      47.15820000
C       47.46850000      54.72190000      56.62030000
C       44.33630000      52.94600000      54.59670000
C       56.13990000      47.46220000      54.88400000
C       43.25240000      47.41690000      45.11340000
C       54.97400000      43.48320000      52.39660000
C       45.22180000      56.17230000      52.64200000
C       54.66200000      55.66160000      47.06340000
C       52.46360000      54.65650000      43.99350000
C       47.30690000      45.09580000      43.94500000
C       52.99880000      45.27150000      55.61230000
C       43.89090000      49.35500000      46.23720000
C       46.24530000      44.42190000      49.24450000
C       49.28150000      46.25670000      44.28450000
C       55.81020000      49.47780000      53.82900000
C       44.29650000      50.88120000      53.55960000
C       56.02010000      50.66110000      46.42360000
C       53.75990000      44.17680000      50.54510000
C       46.32210000      55.89480000      50.65030000
C       53.70160000      55.66290000      49.18520000
C       50.89000000      46.22890000      55.62230000
C       49.32820000      53.53880000      55.93370000
C       50.50600000      53.51180000      44.43880000
C       43.94630000      50.71540000      46.20320000
C       46.29800000      55.97400000      49.28660000
C       49.11460000      53.50740000      44.44200000
C       55.77710000      50.86550000      53.82000000
C       44.21110000      49.50620000      53.59370000
C       55.99710000      49.31230000      46.47570000
C       53.67640000      55.65850000      50.57440000
C       46.26700000      44.44030000      50.64480000
C       53.76550000      44.22340000      49.17090000
C       50.67720000      53.59360000      55.98360000
C       49.50540000      46.21280000      55.62580000
C       50.65710000      46.29440000      44.31140000
C       52.81100000      53.48370000      56.75990000
C       56.31520000      53.13790000      53.50850000
C       53.40000000      56.20980000      52.83940000
C       46.86730000      53.32420000      43.74400000
C       52.93050000      46.55540000      43.80210000
C       47.23710000      46.48440000      56.14680000
C       43.54980000      53.00840000      46.40590000
C       56.76740000      47.18800000      46.67110000
C       43.40790000      47.37410000      53.41960000
C       46.50300000      56.70970000      47.13730000
C       53.51630000      43.66700000      46.90380000
C       46.56820000      43.79030000      52.89070000
C       53.13550000      46.50420000      56.25920000
C       56.33860000      47.20830000      53.52750000
C       53.57950000      43.36030000      52.65680000
C       47.00550000      46.44280000      43.74330000
C       52.77770000      53.30680000      43.85230000
C       47.19440000      53.32470000      56.67930000
C       43.19260000      47.20480000      46.51410000
C       56.73480000      52.81580000      46.53930000
C       43.73900000      53.15500000      53.34770000
C       46.47580000      43.72910000      47.00070000
C       53.40130000      56.23740000      46.91710000
C       46.58260000      56.31870000      52.93260000
C       48.58310000      43.78900000      48.08010000
C       47.90730000      48.54730000      44.06290000
C       43.63360000      48.33930000      48.59120000
C       51.42880000      43.74850000      51.64850000
C       48.67210000      55.92310000      52.02060000
C       51.35280000      56.16520000      48.11480000
C       51.97820000      48.57260000      56.25840000
C       48.18130000      51.19260000      56.16460000
C       51.96380000      51.20800000      44.30390000
C       56.06350000      48.17060000      51.46890000
C       43.81210000      52.13600000      51.21080000
C       56.39670000      51.83230000      48.71170000
C       48.61730000      56.25970000      48.21780000
C       47.86310000      51.18410000      43.97520000
C       43.80060000      52.09240000      48.51230000
C       51.31220000      55.80830000      51.97080000
C       48.63630000      43.82610000      51.74580000
C       51.42070000      43.68680000      48.01840000
C       51.85380000      51.30700000      56.38610000
C       48.19540000      48.55390000      55.91480000
C       52.02200000      48.63270000      44.25350000
C       56.30540000      51.95800000      51.45450000
C       43.75970000      48.41550000      51.28480000
C       56.27630000      48.16160000      48.81680000
C       44.61460000      45.21230000      46.21230000
C       46.31690000      44.47670000      44.71250000
C       45.28060000      45.47080000      44.98620000
C       55.12640000      45.42710000      54.43520000
C       44.57800000      55.39070000      53.59810000
C       55.25580000      54.74380000      46.15220000
C       53.92690000      44.71190000      54.69340000
C       45.56760000      55.04320000      54.61880000
C       53.47690000      55.33580000      44.67840000
C       55.39850000      46.43190000      55.46450000
C       45.24750000      53.81300000      55.25160000
C       54.54160000      54.38490000      44.97230000
C       44.88530000      54.65300000      45.43560000
C       46.12920000      55.26520000      45.16440000
C       44.58070000      53.62260000      44.43920000
C       55.40720000      55.36840000      53.57660000
C       44.76480000      45.32860000      53.71910000
C       55.36410000      45.21880000      46.20730000
C       54.42800000      55.07000000      54.61600000
C       46.48720000      44.55290000      55.16980000
C       53.65110000      44.55310000      44.67750000
C       54.77320000      53.88980000      55.33280000
C       45.47460000      45.57850000      54.91880000
C       54.67680000      45.54210000      45.00310000
C       51.67270000      45.10030000      55.15540000
C       55.67390000      51.44720000      45.20690000
C       45.04900000      55.67570000      51.33820000
C       48.59780000      44.95430000      44.49410000
C       51.19540000      54.81050000      44.58970000
C       48.49950000      54.74270000      55.64480000
C       44.75750000      51.60870000      54.71460000
C       55.57380000      48.74420000      55.07890000
C       44.19830000      48.48710000      45.05570000
C       54.86100000      55.25180000      48.40560000
C       45.09830000      44.85470000      48.47370000
C       54.96090000      44.49000000      51.38210000
C       51.46500000      54.81790000      55.66600000
C       55.69860000      48.48310000      45.27420000
C       45.15220000      44.90550000      51.44890000
C       48.36420000      54.70520000      44.80810000
C       51.36830000      45.00950000      44.49120000
C       48.78800000      44.96180000      55.35610000
C       44.52130000      48.66280000      54.79530000
C       55.31710000      51.64460000      54.95690000
C       44.23630000      51.37550000      44.93090000
C       54.90470000      44.69870000      48.42690000
C       45.07180000      55.71280000      48.45540000
C       54.94870000      55.48660000      51.28490000
C       56.13980000      53.16760000      50.73290000
C       50.73790000      55.59890000      53.25430000
C       53.11230000      50.72500000      56.17090000
C       44.06580000      53.35270000      49.07910000
C       55.99730000      46.91830000      49.42160000
C       43.97490000      47.16630000      50.66970000
C       49.22270000      55.99230000      46.98000000
C       50.71310000      43.84160000      46.81200000
C       49.36070000      43.93450000      52.95850000
C       46.58810000      50.54170000      44.07140000
C       53.29840000      49.20570000      44.48450000
C       46.93110000      49.14560000      55.70110000
C       55.85910000      46.90610000      50.87220000
C       50.80480000      43.94250000      52.88930000
C       53.19910000      49.28990000      56.15820000
C       43.92210000      47.12640000      49.24130000
C       56.14230000      53.07930000      49.30040000
C       43.98100000      53.38250000      50.53840000
C       49.26920000      43.86780000      46.84330000
C       50.64470000      55.99120000      46.90320000
C       49.25530000      55.62920000      53.27290000
C       46.61160000      49.09580000      44.20870000
C       53.26930000      50.67800000      44.49570000
C       46.94200000      50.59360000      55.85420000
