240
Lattice="100.0 0.0 0.0 0.0 100.0 0.0 0.0 0.0 100.0" Properties=species:S:1:pos:R:3 name=C-169395-3151-159 pressure=-0.0431906103308468 spacegroup=C1 times_found=1 energy=-1714.19260535487 pbc="T T T"
C       50.61970000      44.61480000      44.45330000
C       44.14780000      50.22520000      44.44760000
C       44.53090000      44.29370000      50.81900000
C       48.97730000      55.03890000      44.44520000
C       48.90510000      44.62550000      55.67500000
C       50.88690000      55.43900000      55.90100000
C       55.73540000      49.43140000      44.72150000
C       55.26000000      50.51510000      54.59530000
C       44.19190000      49.52280000      55.42930000
C       55.45650000      56.04720000      50.59220000
C       54.91270000      44.74880000      49.67770000
C       45.67020000      55.07790000      49.18090000
C       50.24880000      44.46140000      55.92300000
C       44.34430000      50.88540000      55.28240000
C       44.44770000      44.13180000      49.45290000
C       49.51850000      55.54930000      56.00560000
C       49.24970000      44.58090000      44.43170000
C       50.32290000      55.01970000      44.70940000
C       55.20680000      49.15110000      54.41150000
C       55.68100000      50.80020000      44.67970000
C       44.40210000      48.88360000      44.61890000
C       55.36980000      56.12960000      49.22620000
C       54.96980000      44.46780000      51.01830000
C       45.52290000      55.03690000      50.54540000
C       53.67880000      53.61330000      55.53660000
C       54.47090000      53.85440000      54.36920000
C       54.11920000      55.08100000      53.63600000
C       45.98210000      46.39110000      54.98890000
C       46.06760000      53.24840000      44.74220000
C       53.53200000      46.23070000      45.31250000
C       44.74140000      46.49670000      54.15060000
C       45.01420000      53.13570000      45.73890000
C       55.45670000      46.80310000      46.76920000
C       45.82380000      43.54270000      53.82300000
C       47.65290000      55.73480000      46.46270000
C       54.32310000      45.93340000      46.52140000
C       53.53080000      54.55660000      45.82770000
C       54.77450000      53.80910000      46.12020000
C       53.26330000      55.71050000      46.67250000
C       46.27460000      45.82320000      43.55350000
C       46.63920000      54.15280000      55.08260000
C       53.14980000      45.75550000      55.01560000
C       45.07530000      45.95750000      46.38730000
C       43.82940000      53.81520000      53.72390000
C       55.68830000      46.48120000      52.33240000
C       45.88820000      44.69380000      46.51930000
C       46.65070000      54.99290000      53.84980000
C       53.23830000      44.75860000      53.96050000
C       43.45650000      48.79590000      54.34320000
C       53.81410000      44.20420000      48.84150000
C       48.41500000      53.87770000      43.80390000
C       55.93360000      51.42430000      53.59660000
C       56.51260000      48.95050000      45.86160000
C       43.62610000      50.93420000      45.63980000
C       46.74940000      55.95240000      48.72690000
C       45.52220000      43.35730000      51.35640000
C       54.32570000      56.45800000      51.41060000
C       51.30780000      45.80250000      44.00320000
C       51.42350000      54.25290000      56.61340000
C       48.33030000      45.92300000      56.00190000
C       44.06950000      48.30710000      45.91440000
C       53.81800000      43.82450000      51.59920000
C       48.78620000      54.38680000      56.59430000
C       56.12560000      51.59230000      45.81360000
C       56.00860000      48.72530000      53.27970000
C       43.47110000      51.39160000      54.21770000
C       46.56150000      55.71750000      51.33960000
C       45.54750000      43.37700000      48.77400000
C       54.18420000      56.85680000      48.76680000
C       50.96250000      45.65810000      56.43010000
C       51.18160000      53.94080000      44.16220000
C       48.74250000      45.57550000      43.51050000
C       47.14070000      47.94690000      42.81800000
C       43.62190000      46.98350000      48.34080000
C       48.01180000      43.49680000      47.25140000
C       52.67650000      51.73990000      42.96680000
C       52.60270000      48.00380000      55.89960000
C       47.19150000      52.01750000      56.25540000
C       56.45280000      53.23900000      48.07080000
C       56.77630000      47.78670000      50.33530000
C       43.30130000      52.78150000      51.57620000
C       51.17130000      56.90790000      47.70950000
C       51.55310000      43.14700000      53.00260000
C       48.45150000      56.73610000      53.12960000
C       47.01230000      48.37300000      56.38320000
C       43.61110000      47.14330000      52.01030000
C       47.93670000      42.80720000      52.94120000
C       52.79620000      51.65630000      56.77470000
C       52.77080000      48.19360000      43.75840000
C       47.04840000      51.57990000      43.13090000
C       57.30240000      53.11790000      51.69000000
C       56.73470000      47.79280000      48.82720000
C       44.13070000      52.56690000      47.99070000
C       52.17110000      56.68150000      53.10500000
C       51.62370000      42.91330000      47.37400000
C       49.66230000      56.87550000      47.72730000
C       50.62330000      50.61230000      42.52680000
C       42.85280000      50.62300000      50.67430000
C       50.47700000      42.45670000      50.87060000
C       49.28430000      49.07050000      42.45730000
C       49.20320000      50.77160000      57.08930000
C       50.62960000      49.26060000      56.95110000
C       58.06620000      49.79640000      50.40480000
C       57.86490000      51.31870000      49.04020000
C       42.98910000      49.15750000      49.29260000
C       49.52950000      57.90160000      51.25770000
C       49.06560000      42.48870000      49.35360000
C       50.98270000      58.11760000      49.82070000
C       50.64270000      50.71090000      57.14250000
C       43.04530000      50.60230000      49.22940000
C       50.53270000      42.48700000      49.43820000
C       49.18560000      49.32400000      56.98480000
C       49.19230000      50.53390000      42.47120000
C       50.71470000      49.14870000      42.60740000
C       57.98010000      49.87490000      48.98300000
C       58.03120000      51.23010000      50.50620000
C       42.86700000      49.18480000      50.74080000
C       49.55800000      58.05840000      49.81820000
C       49.01660000      42.37860000      50.79000000
C       50.99090000      57.95120000      51.26490000
C       54.85580000      51.90930000      44.23760000
C       44.94620000      54.55490000      51.79300000
C       51.50400000      44.02810000      55.32810000
C       45.12060000      47.68170000      44.26510000
C       44.96440000      52.20660000      55.38170000
C       54.58700000      47.79340000      54.48020000
C       55.16470000      45.19810000      52.24600000
C       55.38230000      55.38970000      47.93530000
C       44.15390000      44.71060000      48.18010000
C       48.28810000      55.88830000      55.32820000
C       47.90340000      44.37070000      44.98370000
C       51.38310000      55.44610000      45.58150000
C       54.73020000      51.68530000      55.21570000
C       45.55490000      54.53570000      47.79160000
C       51.77700000      44.22280000      45.22720000
C       44.74990000      48.25670000      55.79210000
C       44.72690000      51.48830000      44.01300000
C       54.99800000      48.13460000      44.71290000
C       55.29580000      45.64640000      48.62310000
C       55.94140000      55.24330000      51.69820000
C       44.37500000      44.87940000      52.15460000
C       47.74750000      55.21070000      45.17970000
C       47.69960000      44.27250000      54.95910000
C       52.19390000      55.56840000      55.21160000
C       51.50640000      48.13350000      43.19360000
C       43.52270000      51.32430000      48.10610000
C       47.88590000      42.59930000      51.58860000
C       48.39510000      51.61170000      42.88710000
C       48.34330000      48.27840000      56.66590000
C       51.46820000      51.81880000      57.06050000
C       57.25680000      48.98980000      48.20380000
C       57.44900000      51.76700000      51.64050000
C       43.14520000      48.44240000      51.90460000
C       52.06790000      57.28260000      51.87790000
C       51.66550000      42.85730000      48.73530000
C       48.86900000      57.28870000      48.91310000
C       51.35520000      48.12990000      56.49660000
C       42.98320000      51.46760000      51.76860000
C       47.99700000      42.94330000      48.53630000
C       48.46280000      51.93100000      56.79160000
C       48.50350000      47.92830000      42.69090000
C       51.31400000      51.75990000      42.88070000
C       57.27030000      48.93960000      51.12890000
C       57.07370000      51.99990000      48.07270000
C       43.34160000      48.31620000      48.25420000
C       51.79060000      57.46900000      48.89430000
C       51.55570000      42.89540000      51.65580000
C       48.51630000      57.13170000      51.82860000
C       47.30080000      44.16200000      46.23860000
C       46.10030000      47.23530000      43.36630000
C       44.16860000      45.98130000      47.64730000
C       51.87240000      56.15560000      46.68650000
C       52.04940000      43.82190000      54.04700000
C       47.81130000      55.98640000      54.02760000
C       53.79910000      51.85200000      43.42790000
C       53.47780000      47.20820000      55.15670000
C       46.23870000      52.76280000      55.57010000
C       55.62630000      54.12110000      47.41470000
C       56.25990000      46.90920000      51.16590000
C       43.88800000      53.79880000      52.27260000
C       47.24070000      43.37760000      53.98080000
C       46.00510000      47.68490000      55.84020000
C       44.22540000      46.14310000      52.75340000
C       52.80110000      55.85640000      53.98480000
C       51.75530000      43.37530000      46.25410000
C       48.80960000      56.34090000      46.87890000
C       53.74040000      52.23720000      56.01400000
C       53.73820000      47.57250000      44.50780000
C       45.99690000      52.05840000      43.80540000
C       56.80220000      54.22930000      51.69210000
C       55.96210000      46.77950000      48.13790000
C       44.87470000      53.44150000      47.19390000
C       43.08020000      50.73860000      53.05080000
C       52.74220000      43.32060000      50.89460000
C       50.58140000      52.87990000      43.40020000
C       56.74810000      49.47590000      52.36650000
C       56.79220000      51.10840000      46.92610000
C       43.55900000      49.00740000      47.00260000
C       47.54740000      56.56800000      50.88680000
C       46.74410000      42.97020000      49.34270000
C       53.08420000      57.23000000      49.51530000
C       49.33240000      46.76300000      43.08950000
C       49.31600000      53.14190000      56.89360000
C       50.45510000      46.93410000      56.56600000
C       43.47290000      50.42570000      46.91150000
C       52.77990000      43.41620000      49.45350000
C       50.73840000      53.09250000      56.96800000
C       56.93820000      49.66970000      46.95910000
C       56.75890000      50.91750000      52.57430000
C       43.12270000      49.31460000      53.10310000
C       47.68310000      56.68570000      49.45220000
C       46.69120000      42.87940000      50.76950000
C       53.18420000      57.08180000      50.94710000
C       49.03550000      47.02160000      56.48390000
C       49.13880000      52.81440000      43.30170000
C       50.73910000      46.88800000      43.35460000
C       55.24080000      52.68880000      45.42570000
C       46.06590000      55.09120000      52.58420000
C       52.18830000      45.20180000      55.86410000
C       44.80970000      47.06750000      45.58610000
C       43.94770000      52.74960000      54.46750000
C       55.46600000      47.40280000      53.37460000
C       54.03150000      44.55810000      52.86650000
C       54.24360000      56.16510000      47.50630000
C       45.22700000      43.99230000      47.52220000
C       47.59600000      54.75420000      55.89570000
C       47.36890000      45.20620000      43.89090000
C       52.30560000      54.42000000      45.03700000
C       55.24160000      52.59860000      54.20300000
C       46.61940000      55.46570000      47.39010000
C       52.45520000      45.47740000      44.85170000
C       44.05180000      47.55680000      54.73210000
C       44.17840000      52.16520000      45.18450000
C       55.83450000      47.68440000      45.79950000
C       54.24740000      45.10640000      47.72320000
C       54.75600000      55.58720000      52.49680000
C       45.19820000      43.79620000      52.70960000
C       47.14560000      54.06410000      44.54280000
C       47.08910000      45.59130000      55.26960000
C       52.70270000      54.46100000      55.97860000
