240
Lattice="100.0 0.0 0.0 0.0 100.0 0.0 0.0 0.0 100.0" Properties=species:S:1:pos:R:3 name=C-169395-3151-152 pressure=-9.22874993709131 spacegroup=Th times_found=1 energy=-1740.03522693323 pbc="T T T"
C       45.74340000      48.62200000      56.99860000
C       48.62010000      56.99710000      45.74160000
C       56.99820000      45.74300000      48.62120000
C       45.74070000      51.37670000      43.00280000
C       54.25700000      48.62200000      43.00170000
C       54.25890000      51.37940000      56.99690000
C       48.62380000      43.00240000      54.25890000
C       51.37760000      56.99840000      54.25710000
C       51.37850000      43.00200000      45.74250000
C       56.99730000      54.25920000      51.37650000
C       43.00310000      45.74100000      51.37960000
C       43.00130000      54.25670000      48.62270000
C       54.25930000      48.62330000      56.99720000
C       51.37620000      56.99760000      45.74110000
C       43.00270000      45.74080000      48.62350000
C       54.25660000      51.37800000      43.00140000
C       45.74110000      48.62060000      43.00310000
C       45.74300000      51.37800000      56.99830000
C       51.37990000      43.00290000      54.25840000
C       48.62150000      56.99800000      54.25750000
C       48.62240000      43.00160000      45.74290000
C       43.00180000      54.25700000      51.37880000
C       56.99870000      45.74330000      51.37730000
C       56.99690000      54.25900000      48.62040000
C       56.54990000      51.86630000      51.45920000
C       51.86590000      51.46140000      56.54950000
C       51.45970000      56.55040000      51.86420000
C       56.55000000      48.13580000      48.53860000
C       43.44950000      51.86390000      48.54040000
C       43.45060000      48.13400000      51.46170000
C       51.86430000      48.53920000      43.44980000
C       48.13360000      51.45960000      43.45020000
C       48.13620000      48.53980000      56.55040000
C       51.46130000      43.45010000      48.13530000
C       48.53810000      56.54960000      48.13450000
C       48.54090000      43.45000000      51.86600000
C       43.45000000      51.86420000      51.46140000
C       48.13570000      51.46080000      56.55020000
C       48.53870000      56.54990000      51.86470000
C       43.45010000      48.13370000      48.54080000
C       56.54940000      51.86600000      48.53830000
C       56.55050000      48.13610000      51.45960000
C       48.13410000      48.53860000      43.45050000
C       51.86380000      51.46020000      43.44960000
C       51.86640000      48.54040000      56.54980000
C       48.54030000      43.44960000      48.13580000
C       51.45910000      56.55000000      48.13400000
C       51.46190000      43.45040000      51.86550000
C       51.34870000      45.29660000      54.97550000
C       45.29540000      54.97470000      51.34740000
C       54.97430000      51.34750000      45.29500000
C       51.34560000      54.70380000      45.02400000
C       48.65280000      45.29530000      45.02540000
C       48.65290000      54.70430000      54.97510000
C       45.29650000      45.02380000      48.65410000
C       54.70300000      54.97600000      48.65160000
C       54.70510000      45.02560000      51.34680000
C       54.97630000      48.65410000      54.70340000
C       45.02520000      51.34680000      54.70470000
C       45.02410000      48.65160000      45.29690000
C       48.65440000      45.29620000      54.97600000
C       54.70350000      54.97620000      51.34590000
C       45.02370000      51.34590000      45.29660000
C       48.65130000      54.70340000      45.02450000
C       51.34710000      45.29570000      45.02490000
C       51.34720000      54.70470000      54.97460000
C       54.70460000      45.02530000      48.65260000
C       45.29490000      54.97440000      48.65320000
C       45.29700000      45.02400000      51.34840000
C       45.02570000      48.65250000      54.70500000
C       54.97590000      51.34840000      54.70310000
C       54.97480000      48.65320000      45.29530000
C       50.72260000      55.94760000      45.06230000
C       55.94890000      45.06400000      50.72390000
C       45.06380000      50.72420000      55.94870000
C       50.72620000      44.05260000      54.93750000
C       49.27550000      55.94830000      54.93660000
C       49.27580000      44.05140000      45.06360000
C       55.94710000      54.93790000      49.27420000
C       44.05270000      45.06190000      49.27710000
C       44.05130000      54.93610000      50.72490000
C       45.06210000      49.27420000      44.05290000
C       54.93590000      50.72460000      44.05110000
C       54.93810000      49.27700000      55.94730000
C       49.27380000      55.94740000      45.06250000
C       44.05290000      45.06210000      50.72580000
C       54.93790000      50.72580000      55.94710000
C       49.27740000      44.05240000      54.93770000
C       50.72420000      55.94860000      54.93640000
C       50.72450000      44.05170000      45.06340000
C       44.05110000      54.93600000      49.27610000
C       55.94870000      45.06390000      49.27510000
C       55.94730000      54.93810000      50.72290000
C       54.93620000      49.27580000      44.05130000
C       45.06190000      50.72300000      44.05270000
C       45.06410000      49.27540000      55.94890000
C       47.37640000      44.25580000      48.09360000
C       44.25630000      48.09150000      47.37690000
C       48.09220000      47.37490000      44.25700000
C       47.37520000      55.74340000      51.90720000
C       52.62540000      44.25700000      51.90750000
C       52.62290000      55.74380000      48.09170000
C       44.25650000      51.90660000      52.62490000
C       55.74430000      48.09390000      52.62340000
C       55.74290000      51.90800000      47.37470000
C       48.09320000      52.62440000      55.74370000
C       51.90870000      47.37670000      55.74350000
C       51.90600000      52.62400000      44.25580000
C       52.62480000      44.25660000      48.09280000
C       55.74350000      48.09330000      47.37510000
C       51.90680000      47.37560000      44.25630000
C       52.62360000      55.74420000      51.90640000
C       47.37710000      44.25620000      51.90830000
C       47.37460000      55.74300000      48.09250000
C       55.74370000      51.90850000      52.62310000
C       44.25710000      48.09200000      52.62530000
C       44.25570000      51.90610000      47.37660000
C       51.90780000      52.62500000      55.74300000
C       48.09400000      47.37600000      55.74420000
C       48.09130000      52.62330000      44.25650000
C       50.70900000      49.25970000      43.20060000
C       49.26150000      43.20060000      50.71070000
C       43.20040000      50.70880000      49.26130000
C       50.71090000      50.74050000      56.79910000
C       49.29130000      49.26080000      56.79950000
C       49.28880000      50.73900000      43.20070000
C       49.25900000      56.79910000      49.28950000
C       50.74070000      43.20070000      49.29060000
C       50.73880000      56.79950000      50.70920000
C       43.20090000      49.28900000      50.74090000
C       56.79930000      50.71110000      50.73860000
C       56.79930000      49.29110000      49.25920000
C       49.28910000      49.25950000      43.20090000
C       50.74100000      43.20090000      50.71050000
C       56.79910000      50.71100000      49.25910000
C       49.29100000      50.74030000      56.79940000
C       50.71120000      49.26100000      56.79930000
C       50.70870000      50.73920000      43.20050000
C       50.73850000      56.79940000      49.28930000
C       49.26130000      43.20050000      49.29080000
C       49.25930000      56.79930000      50.70940000
C       56.79960000      49.29120000      50.73870000
C       43.20070000      50.70890000      50.74080000
C       43.20070000      49.28890000      49.26140000
C       46.97700000      46.89020000      54.86310000
C       46.88890000      54.86160000      46.97580000
C       54.86230000      46.97620000      46.88970000
C       46.97440000      53.10880000      45.13780000
C       53.02400000      46.89020000      45.13740000
C       53.02460000      53.11070000      54.86160000
C       46.89150000      45.13740000      53.02520000
C       53.10950000      54.86310000      53.02330000
C       53.11010000      45.13790000      46.97570000
C       54.86240000      53.02540000      53.10870000
C       45.13860000      46.97520000      53.11090000
C       45.13660000      53.02320000      46.89070000
C       53.02560000      46.89120000      54.86220000
C       53.10850000      54.86260000      46.97480000
C       45.13760000      46.97460000      46.89130000
C       53.02300000      53.10980000      45.13690000
C       46.97540000      46.88930000      45.13840000
C       46.97600000      53.10980000      54.86250000
C       53.11110000      45.13840000      53.02420000
C       46.88990000      54.86210000      53.02430000
C       46.89050000      45.13690000      46.97670000
C       45.13770000      53.02380000      53.11030000
C       54.86340000      46.97680000      53.10930000
C       54.86140000      53.02480000      46.88910000
C       57.01980000      46.98170000      49.26410000
C       46.98190000      49.26510000      57.02000000
C       49.26330000      57.01900000      46.98010000
C       57.01900000      53.02060000      50.73360000
C       42.98120000      46.97950000      50.73650000
C       42.98000000      53.01820000      49.26580000
C       46.97930000      50.73390000      42.98100000
C       53.01840000      49.26480000      42.98020000
C       53.02040000      50.73620000      57.01880000
C       49.26660000      42.98080000      53.02020000
C       50.73440000      57.01980000      53.01860000
C       50.73570000      42.98040000      46.98120000
C       42.98100000      46.97940000      49.26640000
C       53.02070000      49.26610000      57.01900000
C       50.73340000      57.01920000      46.97980000
C       42.98020000      53.01830000      50.73590000
C       57.02000000      46.98180000      50.73420000
C       57.01880000      53.02050000      49.26350000
C       53.01810000      50.73490000      42.98000000
C       46.97960000      49.26380000      42.98120000
C       46.98160000      50.73520000      57.01980000
C       50.73670000      42.98100000      53.01990000
C       49.26430000      57.01960000      53.01880000
C       49.26560000      42.98020000      46.98140000
C       45.75030000      47.44230000      45.63700000
C       47.44340000      45.63520000      45.75140000
C       45.63630000      45.74960000      47.44450000
C       45.75090000      52.55630000      54.36440000
C       54.25050000      47.44450000      54.36350000
C       54.24830000      52.55690000      45.63510000
C       47.44340000      54.36400000      54.24940000
C       52.55800000      45.63690000      54.24940000
C       52.55520000      54.36400000      45.74980000
C       45.63580000      54.24890000      52.55690000
C       54.36510000      45.75160000      52.55630000
C       54.36290000      54.24990000      47.44230000
C       54.24910000      47.44370000      45.63560000
C       52.55660000      45.63600000      45.75060000
C       54.36420000      45.75110000      47.44310000
C       54.24970000      52.55770000      54.36300000
C       45.75170000      47.44310000      54.36490000
C       45.74950000      52.55550000      45.63650000
C       52.55660000      54.36480000      54.24860000
C       47.44480000      45.63600000      54.25020000
C       47.44200000      54.36320000      45.75060000
C       54.36370000      54.25030000      52.55550000
C       45.63710000      45.75010000      52.55770000
C       45.63490000      54.24840000      47.44370000
C       53.53380000      44.45320000      50.74140000
C       44.45300000      50.74080000      53.53360000
C       50.73990000      53.53240000      44.45210000
C       53.53180000      55.54800000      49.25750000
C       46.46800000      44.45190000      49.25970000
C       46.46640000      55.54700000      50.74150000
C       44.45210000      49.25730000      46.46820000
C       55.54680000      50.74200000      46.46620000
C       55.54820000      49.25980000      53.53200000
C       50.74290000      46.46790000      55.54770000
C       49.25890000      53.53320000      55.54720000
C       49.25830000      46.46660000      44.45300000
C       46.46820000      44.45200000      50.74250000
C       55.54790000      50.74270000      53.53180000
C       49.25710000      53.53210000      44.45230000
C       46.46620000      55.54680000      49.25860000
C       53.53360000      44.45300000      49.25850000
C       53.53200000      55.54810000      50.74030000
C       55.54700000      49.25920000      46.46640000
C       44.45180000      50.74020000      46.46800000
C       44.45320000      49.25800000      53.53380000
C       49.26010000      46.46760000      55.54790000
C       50.74170000      53.53340000      55.54700000
C       50.74110000      46.46680000      44.45280000
