240
Lattice="100.0 0.0 0.0 0.0 100.0 0.0 0.0 0.0 100.0" Properties=species:S:1:pos:R:3 name=C-169395-3151-84 pressure=0.0140667945917528 energy=-1766.90705544109 spacegroup=C1 times_found=1 pbc="T T T"
C       51.27550000      44.50900000      52.89450000
C       52.79110000      51.26010000      44.52670000
C       44.57470000      52.87020000      51.23330000
C       48.71450000      44.23680000      47.03390000
C       51.44980000      55.64360000      47.07660000
C       48.93160000      56.13190000      52.85890000
C       46.86500000      51.19860000      55.57810000
C       52.78670000      48.94550000      56.04860000
C       46.91350000      48.60140000      44.48510000
C       55.79450000      52.95270000      48.79880000
C       44.32510000      47.01540000      48.66650000
C       55.49410000      47.02020000      51.19580000
C       51.42730000      55.74020000      52.98260000
C       52.85620000      48.72630000      44.58090000
C       44.32030000      46.95850000      51.15200000
C       48.97400000      56.09640000      47.16920000
C       51.20320000      44.26780000      47.00840000
C       48.74290000      44.57900000      52.92580000
C       46.98520000      48.65810000      55.61670000
C       52.77670000      51.41830000      55.73210000
C       46.88310000      51.17360000      44.41840000
C       55.55910000      47.10000000      48.66390000
C       44.55210000      52.91190000      48.72960000
C       55.72310000      52.92310000      51.31610000
C       54.94420000      45.92110000      49.16130000
C       49.44590000      55.60940000      45.95220000
C       45.81440000      49.14900000      54.97280000
C       44.92750000      45.80670000      50.57020000
C       55.21480000      54.12490000      50.73130000
C       45.21040000      54.05660000      49.28240000
C       50.72910000      55.32990000      54.17810000
C       49.35190000      45.12050000      54.10410000
C       50.62670000      44.85250000      45.84560000
C       54.02680000      49.35770000      45.11620000
C       45.72680000      50.58990000      45.00420000
C       54.00690000      50.83130000      55.26490000
C       55.24720000      54.14020000      49.35900000
C       49.26270000      44.82960000      45.85810000
C       45.73570000      50.54760000      54.97550000
C       45.21470000      54.03570000      50.69310000
C       54.93530000      45.86470000      50.55440000
C       44.95030000      45.84180000      49.18050000
C       50.75340000      45.12850000      54.06790000
C       49.39980000      55.68240000      54.09130000
C       50.75750000      55.20780000      45.88840000
C       53.97960000      50.75920000      45.12110000
C       45.74070000      49.20800000      45.02500000
C       53.99320000      49.47810000      55.59110000
C       53.52200000      55.60040000      45.83280000
C       45.64790000      53.25990000      55.85230000
C       55.85740000      45.80980000      53.23960000
C       47.09080000      55.69690000      54.14260000
C       53.39630000      44.16480000      53.97260000
C       46.72910000      43.78510000      45.87170000
C       53.84020000      53.41280000      44.10710000
C       45.74530000      46.45280000      44.35190000
C       54.14070000      47.16000000      55.67690000
C       43.94860000      45.97160000      46.50780000
C       56.19820000      54.07440000      46.76560000
C       44.13770000      53.97080000      53.31140000
C       53.18820000      43.88050000      45.81630000
C       46.03050000      46.44360000      55.92740000
C       56.14220000      54.05640000      53.31630000
C       46.60330000      44.34010000      54.10230000
C       53.51470000      55.68950000      54.21660000
C       47.15120000      55.69910000      45.86210000
C       54.08510000      46.61240000      44.35690000
C       45.73560000      53.28000000      44.13790000
C       53.82920000      53.55600000      56.00500000
C       44.16080000      54.03300000      46.64150000
C       55.92720000      46.11360000      46.47290000
C       43.88110000      45.76550000      53.12520000
C       51.47690000      50.65900000      44.48020000
C       44.52360000      51.53340000      50.67470000
C       50.69430000      44.49360000      51.56450000
C       48.21800000      50.67910000      55.69600000
C       51.47410000      49.42510000      55.89090000
C       48.23800000      49.16440000      44.41130000
C       55.64940000      51.63110000      49.33590000
C       44.35520000      48.34250000      49.24480000
C       55.55770000      48.37200000      50.66630000
C       49.25060000      44.35330000      48.36010000
C       50.93620000      55.77760000      48.42560000
C       49.49320000      55.94960000      51.58120000
C       51.50120000      49.23940000      44.50720000
C       44.37960000      48.30680000      50.65650000
C       50.91860000      55.82970000      51.62520000
C       48.28490000      49.27590000      55.66550000
C       51.45160000      50.84200000      55.79180000
C       48.21030000      50.58200000      44.34740000
C       55.54340000      48.41050000      49.26260000
C       44.50070000      51.56630000      49.27190000
C       55.63350000      51.60770000      50.76640000
C       49.51380000      55.91950000      48.45550000
C       50.68000000      44.36510000      48.34230000
C       49.28120000      44.51930000      51.58010000
C       52.82720000      55.04400000      44.69720000
C       44.48630000      52.56930000      55.24980000
C       55.29500000      44.62250000      52.55180000
C       48.28180000      55.33130000      54.93320000
C       53.02830000      45.14000000      54.96530000
C       47.20250000      44.57170000      44.73610000
C       54.96310000      53.03670000      44.92380000
C       44.57040000      47.06880000      44.89540000
C       54.88780000      48.38300000      55.29920000
C       44.81340000      44.88460000      46.88570000
C       55.45080000      55.22710000      47.24660000
C       45.13660000      54.94850000      52.96550000
C       52.68600000      44.67700000      44.70070000
C       44.93700000      46.80120000      55.06260000
C       55.42470000      55.22130000      52.81460000
C       47.20740000      44.88110000      55.27960000
C       52.81350000      55.18790000      55.36710000
C       48.33920000      55.27280000      45.09740000
C       55.25080000      47.24620000      44.89100000
C       44.53320000      52.63000000      44.70590000
C       54.94640000      53.10010000      55.20430000
C       45.16640000      54.99150000      47.01070000
C       55.08800000      45.00400000      46.83990000
C       44.70000000      44.66200000      52.63910000
C       55.34040000      45.30770000      54.50480000
C       54.89850000      55.39350000      45.92030000
C       45.18910000      54.52340000      55.28990000
C       43.51600000      46.23610000      45.21640000
C       55.60890000      54.17470000      45.45760000
C       44.04940000      53.81420000      54.71310000
C       45.77720000      55.27700000      54.22330000
C       54.79860000      44.14760000      53.79620000
C       45.40380000      44.31270000      45.73850000
C       53.61220000      54.69110000      43.61430000
C       45.86910000      45.07250000      44.53820000
C       54.26330000      45.84170000      55.27660000
C       55.58280000      54.21640000      54.62420000
C       54.49800000      44.44670000      45.68580000
C       46.35750000      45.15620000      56.33260000
C       44.10850000      53.87810000      45.23550000
C       56.32590000      46.43070000      45.18150000
C       44.41280000      45.64210000      54.45150000
C       45.21420000      44.47570000      53.97250000
C       54.88760000      55.44280000      54.13300000
C       45.83470000      55.31030000      45.76270000
C       54.00260000      45.22180000      44.50650000
C       45.27910000      54.55510000      44.68360000
C       53.61320000      54.85470000      56.44950000
C       49.25880000      48.13010000      55.69660000
C       55.56430000      49.35820000      48.10690000
C       48.28530000      55.74470000      49.31980000
C       50.60430000      48.01380000      44.44060000
C       49.13900000      51.73500000      44.22770000
C       50.49630000      51.99140000      55.79900000
C       44.38610000      49.19010000      51.86950000
C       55.61320000      50.67340000      51.95540000
C       44.34870000      50.66660000      48.08350000
C       52.13250000      55.73410000      50.73590000
C       48.06890000      44.45330000      50.67290000
C       51.88950000      44.41070000      49.22490000
C       49.10290000      51.86240000      55.85360000
C       55.56570000      50.74750000      48.12930000
C       48.04760000      44.39500000      49.26600000
C       50.52720000      51.82340000      44.34970000
C       49.18060000      47.97820000      44.41170000
C       50.64590000      48.18470000      55.73870000
C       44.40050000      50.59810000      51.86690000
C       55.69560000      49.27600000      51.84990000
C       44.29850000      49.27040000      48.07690000
C       51.88700000      44.41810000      50.62720000
C       48.27700000      55.74830000      50.70130000
C       52.14240000      55.71460000      49.31940000
C       44.12970000      52.80930000      52.54910000
C       52.61110000      44.11800000      52.82090000
C       52.69970000      52.59480000      44.16590000
C       56.07810000      52.89040000      47.42710000
C       43.94270000      47.09260000      47.34560000
C       55.82980000      47.02580000      52.56770000
C       47.36180000      43.89830000      47.07840000
C       52.83630000      55.73570000      47.06100000
C       47.53170000      56.07920000      52.86380000
C       46.85810000      52.58130000      55.88200000
C       52.84760000      47.54810000      56.04890000
C       46.93850000      47.21200000      44.28110000
C       43.97600000      46.97880000      52.50650000
C       52.81970000      55.81370000      52.99330000
C       52.87300000      47.34210000      44.32930000
C       55.92300000      47.21070000      47.33480000
C       44.11440000      52.87360000      47.40630000
C       55.98260000      52.85210000      52.69090000
C       47.57620000      56.07920000      47.14590000
C       52.56410000      43.95950000      47.03060000
C       47.36060000      44.31930000      52.91230000
C       47.11280000      47.32160000      55.95550000
C       52.67330000      52.76700000      55.98120000
C       46.92470000      52.55680000      44.11870000
C       45.77230000      54.99290000      51.66300000
C       51.70420000      45.71660000      55.02460000
C       54.96420000      51.72970000      45.62700000
C       54.70490000      55.16380000      48.44740000
C       45.51080000      44.89680000      48.21370000
C       54.46050000      44.77740000      51.39280000
C       48.36060000      45.37150000      44.83940000
C       51.47140000      54.47750000      44.84440000
C       48.52790000      54.33770000      55.80030000
C       44.67220000      51.39120000      54.44560000
C       55.78300000      48.65130000      54.33480000
C       44.68170000      48.37180000      45.53580000
C       45.48410000      44.79150000      51.47070000
C       51.45230000      54.62480000      55.23560000
C       55.12030000      48.53470000      45.56610000
C       54.40370000      44.97820000      48.17460000
C       45.78260000      55.02220000      48.32520000
C       54.67640000      55.16280000      51.62010000
C       48.60380000      54.24770000      44.27230000
C       51.50390000      45.43650000      44.82340000
C       48.49350000      45.57400000      55.17970000
C       44.90790000      48.14420000      54.38910000
C       54.96300000      51.73120000      54.56380000
C       44.66700000      51.45370000      45.51130000
C       53.09230000      44.28760000      51.47910000
C       51.38030000      53.09400000      44.32260000
C       44.25050000      51.46720000      53.05520000
C       46.82110000      44.27560000      48.34630000
C       53.34060000      55.64120000      48.39680000
C       47.04910000      55.69520000      51.60440000
C       48.21970000      53.03540000      55.95030000
C       51.59830000      46.99830000      55.70980000
C       48.28580000      46.75090000      44.39180000
C       55.64630000      51.63560000      46.90830000
C       44.13950000      48.41320000      46.86450000
C       55.87400000      48.39050000      53.01390000
C       53.32170000      55.67220000      51.66200000
C       51.54190000      46.82910000      44.41150000
C       44.29890000      48.25330000      53.07260000
C       47.06850000      55.70630000      48.40000000
C       53.10940000      44.32850000      48.29810000
C       46.87670000      44.40510000      51.57240000
C       48.45010000      46.89090000      55.75830000
C       51.35240000      53.26250000      55.78970000
C       48.30110000      52.95020000      44.09640000
C       55.69080000      48.53430000      46.88330000
C       44.21500000      51.53510000      46.89220000
C       55.61680000      51.57940000      53.23160000
