240
Lattice="100.0 0.0 0.0 0.0 100.0 0.0 0.0 0.0 100.0" Properties=species:S:1:pos:R:3 name=C-169395-3151-43 pressure=0.00633203398317372 spacegroup=Th times_found=1 energy=-1771.05836592051 pbc="T T T"
C       57.19750000      48.57720000      47.29370000
C       47.29430000      57.19790000      48.57810000
C       48.57720000      47.29320000      57.19730000
C       42.80230000      48.57760000      52.70600000
C       57.19770000      51.42180000      52.70630000
C       42.80250000      51.42340000      47.29400000
C       52.70660000      57.19720000      51.42340000
C       47.29340000      42.80250000      51.42180000
C       52.70570000      42.80240000      48.57660000
C       51.42250000      47.29450000      42.80220000
C       48.57760000      52.70700000      42.80270000
C       51.42280000      52.70530000      57.19790000
C       57.19770000      51.42240000      47.29400000
C       47.29340000      42.80280000      48.57660000
C       48.57750000      52.70550000      57.19780000
C       42.80250000      51.42280000      52.70630000
C       57.19750000      48.57660000      52.70600000
C       42.80230000      48.57820000      47.29370000
C       52.70570000      42.80210000      51.42190000
C       47.29430000      57.19760000      51.42340000
C       52.70660000      57.19750000      48.57820000
C       51.42280000      52.70680000      42.80270000
C       48.57720000      47.29470000      42.80210000
C       51.42240000      47.29300000      57.19730000
C       53.89600000      54.68640000      52.67340000
C       52.67310000      53.89500000      54.68740000
C       54.68720000      52.67210000      53.89600000
C       46.10470000      54.68750000      47.32760000
C       53.89540000      45.31300000      47.32670000
C       46.10400000      45.31300000      52.67240000
C       47.32740000      53.89630000      45.31340000
C       52.67260000      46.10470000      45.31260000
C       47.32690000      46.10400000      54.68660000
C       45.31320000      52.67360000      46.10460000
C       54.68680000      47.32720000      46.10410000
C       45.31280000      47.32700000      53.89540000
C       53.89530000      45.31250000      52.67240000
C       52.67260000      46.10370000      54.68660000
C       54.68680000      47.32640000      53.89540000
C       46.10400000      45.31360000      47.32660000
C       53.89600000      54.68700000      47.32760000
C       46.10460000      54.68700000      52.67330000
C       47.32690000      46.10500000      45.31260000
C       52.67310000      53.89600000      45.31340000
C       47.32740000      53.89530000      54.68740000
C       45.31280000      47.32790000      46.10400000
C       54.68720000      52.67300000      46.10460000
C       45.31320000      52.67280000      53.89590000
C       48.33350000      48.59130000      57.36470000
C       57.36480000      48.33320000      48.59180000
C       48.59250000      57.36510000      48.33430000
C       51.66640000      48.59260000      42.63500000
C       48.33370000      51.40890000      42.63530000
C       51.66650000      51.40710000      57.36500000
C       42.63500000      48.33390000      51.40780000
C       57.36500000      51.66580000      51.40820000
C       42.63520000      51.66710000      48.59210000
C       51.40850000      57.36460000      51.66720000
C       48.59150000      42.63500000      51.66560000
C       51.40750000      42.63520000      48.33280000
C       48.33360000      51.40740000      57.36500000
C       57.36500000      51.66610000      48.59220000
C       48.59150000      42.63540000      48.33280000
C       51.66650000      51.40870000      42.63530000
C       48.33350000      48.59290000      42.63500000
C       51.66630000      48.59110000      57.36470000
C       42.63520000      51.66680000      51.40820000
C       57.36480000      48.33290000      51.40790000
C       42.63500000      48.33420000      48.59180000
C       51.40750000      42.63490000      51.66570000
C       48.59250000      57.36480000      51.66720000
C       51.40850000      57.36500000      48.33440000
C       55.32310000      48.59480000      54.14840000
C       54.14890000      55.32310000      48.59620000
C       48.59590000      54.14810000      55.32370000
C       44.67670000      48.59640000      45.85130000
C       55.32340000      51.40450000      45.85160000
C       44.67680000      51.40430000      54.14870000
C       45.85180000      55.32340000      51.40490000
C       54.14820000      44.67630000      51.40390000
C       45.85110000      44.67720000      48.59500000
C       51.40470000      54.14900000      44.67720000
C       48.59530000      45.85210000      44.67630000
C       51.40410000      45.85080000      55.32280000
C       55.32330000      51.40360000      54.14870000
C       54.14820000      44.67660000      48.59510000
C       48.59530000      45.85100000      55.32280000
C       44.67690000      51.40520000      45.85160000
C       55.32320000      48.59570000      45.85130000
C       44.67660000      48.59550000      54.14840000
C       45.85110000      44.67690000      51.40380000
C       54.14890000      55.32280000      51.40500000
C       45.85180000      55.32370000      48.59610000
C       51.40410000      45.85190000      44.67630000
C       48.59590000      54.14920000      44.67720000
C       51.40470000      54.14790000      55.32370000
C       55.59190000      46.53090000      51.47210000
C       51.47290000      55.59250000      46.53210000
C       46.53150000      51.47210000      55.59230000
C       44.40760000      46.53200000      48.52710000
C       55.59240000      53.46830000      48.52790000
C       44.40800000      53.46880000      51.47280000
C       48.52790000      55.59190000      53.46910000
C       51.47210000      44.40730000      53.46800000
C       48.52720000      44.40830000      46.53090000
C       53.46870000      51.47280000      44.40800000
C       46.53140000      48.52840000      44.40760000
C       53.46840000      48.52670000      55.59200000
C       55.59240000      53.46800000      51.47290000
C       51.47210000      44.40810000      46.53090000
C       46.53130000      48.52720000      55.59200000
C       44.40810000      53.46910000      48.52790000
C       55.59200000      46.53120000      48.52720000
C       44.40760000      46.53170000      51.47210000
C       48.52710000      44.40750000      53.46790000
C       51.47280000      55.59170000      53.46910000
C       48.52790000      55.59270000      46.53200000
C       53.46850000      48.52790000      44.40770000
C       46.53160000      51.47330000      44.40800000
C       53.46860000      51.47160000      55.59240000
C       50.73870000      46.48740000      56.38360000
C       56.38400000      50.73890000      46.48820000
C       46.48850000      56.38410000      50.73960000
C       49.26080000      46.48880000      43.61560000
C       50.73920000      53.51250000      43.61640000
C       49.26130000      53.51130000      56.38440000
C       43.61610000      50.73900000      53.51200000
C       56.38390000      49.26030000      53.51180000
C       43.61600000      49.26190000      46.48800000
C       53.51230000      56.38380000      49.26170000
C       46.48770000      43.61630000      49.26040000
C       53.51150000      43.61570000      50.73830000
C       50.73920000      53.51120000      56.38440000
C       56.38390000      49.26100000      46.48800000
C       46.48770000      43.61620000      50.73830000
C       49.26130000      53.51260000      43.61640000
C       50.73870000      46.48870000      43.61560000
C       49.26080000      46.48750000      56.38360000
C       43.61600000      49.26110000      53.51180000
C       56.38400000      50.73810000      53.51200000
C       43.61610000      50.73970000      46.48820000
C       53.51150000      43.61590000      49.26040000
C       46.48850000      56.38430000      49.26170000
C       53.51230000      56.38370000      50.73960000
C       52.62950000      49.27200000      56.49690000
C       56.49710000      52.62920000      49.27310000
C       49.27330000      56.49670000      52.63020000
C       47.37040000      49.27370000      43.50290000
C       52.62960000      50.72770000      43.50310000
C       47.37050000      50.72670000      56.49700000
C       43.50320000      52.62990000      50.72740000
C       56.49680000      47.36990000      50.72690000
C       43.50290000      47.37100000      49.27250000
C       50.72760000      56.49720000      47.37110000
C       49.27240000      43.50340000      47.36980000
C       50.72670000      43.50270000      52.62890000
C       52.62960000      50.72630000      56.49710000
C       56.49680000      47.37010000      49.27260000
C       49.27240000      43.50280000      52.62890000
C       47.37050000      50.72800000      43.50310000
C       52.62950000      49.27330000      43.50300000
C       47.37040000      49.27230000      56.49690000
C       43.50290000      47.37080000      50.72690000
C       56.49710000      52.62900000      50.72750000
C       43.50320000      52.63010000      49.27310000
C       50.72670000      43.50330000      47.36980000
C       49.27330000      56.49730000      47.37110000
C       50.72760000      56.49660000      52.63020000
C       46.45240000      52.78780000      54.84430000
C       54.84380000      46.45160000      52.78770000
C       52.78840000      54.84420000      46.45270000
C       53.54800000      52.78830000      45.15620000
C       46.45200000      47.21270000      45.15560000
C       53.54760000      47.21120000      54.84380000
C       45.15570000      46.45280000      47.21150000
C       54.84430000      53.54780000      47.21230000
C       45.15620000      53.54790000      52.78840000
C       47.21220000      54.84390000      53.54830000
C       52.78770000      45.15540000      53.54730000
C       47.21160000      45.15650000      46.45170000
C       46.45200000      47.21170000      54.84380000
C       54.84430000      53.54720000      52.78850000
C       52.78780000      45.15610000      46.45170000
C       53.54760000      47.21220000      45.15570000
C       46.45240000      52.78880000      45.15620000
C       53.54800000      52.78730000      54.84440000
C       45.15620000      53.54840000      47.21230000
C       54.84380000      46.45210000      47.21160000
C       45.15570000      46.45220000      52.78770000
C       47.21160000      45.15580000      53.54730000
C       52.78840000      54.84350000      53.54830000
C       47.21230000      54.84460000      46.45270000
C       54.52060000      49.30360000      44.94050000
C       44.94090000      54.52100000      49.30390000
C       49.30300000      44.94010000      54.52010000
C       45.47930000      49.30320000      55.05930000
C       54.52060000      50.69580000      55.05950000
C       45.47950000      50.69740000      44.94060000
C       55.05970000      54.52020000      50.69710000
C       44.94030000      45.47970000      50.69610000
C       55.05910000      45.47910000      49.30290000
C       50.69630000      44.94100000      45.47890000
C       49.30380000      55.06000000      45.47990000
C       50.69690000      55.05890000      54.52110000
C       54.52070000      50.69680000      44.94070000
C       44.94030000      45.47980000      49.30290000
C       49.30370000      55.05900000      54.52110000
C       45.47940000      50.69640000      55.05950000
C       54.52050000      49.30260000      55.05940000
C       45.47940000      49.30420000      44.94050000
C       55.05910000      45.47900000      50.69610000
C       44.94090000      54.52090000      50.69710000
C       55.05970000      54.52030000      49.30390000
C       50.69700000      55.05990000      45.47990000
C       49.30310000      44.94110000      45.47890000
C       50.69620000      44.94000000      54.52010000
C       50.71070000      58.16600000      49.26430000
C       49.26340000      50.70940000      58.16610000
C       58.16600000      49.26280000      50.71010000
C       49.29040000      58.16600000      50.73740000
C       50.70960000      41.83390000      50.73570000
C       49.28930000      41.83410000      49.26260000
C       50.73670000      50.71100000      41.83410000
C       49.26340000      49.29070000      41.83390000
C       50.73650000      49.28890000      58.16590000
C       41.83390000      49.26400000      49.28970000
C       58.16610000      50.73610000      49.28990000
C       41.83400000      50.73710000      50.71020000
C       50.70960000      41.83400000      49.26260000
C       49.26330000      49.28900000      58.16590000
C       58.16610000      50.73600000      50.71030000
C       49.28930000      41.83400000      50.73570000
C       50.71070000      58.16590000      50.73740000
C       49.29040000      58.16610000      49.26430000
C       50.73660000      49.29060000      41.83390000
C       49.26350000      50.71110000      41.83410000
C       50.73660000      50.70930000      58.16610000
C       41.83400000      50.73720000      49.28990000
C       58.16600000      49.26290000      49.28980000
C       41.83390000      49.26390000      50.71010000
