240
Lattice="100.0 0.0 0.0 0.0 100.0 0.0 0.0 0.0 100.0" Properties=species:S:1:pos:R:3 name=C-169395-3151-102 pressure=-0.0305351422054112 spacegroup=C1 times_found=1 energy=-1799.57369049457 pbc="T T T"
C       55.34750000      54.38120000      49.53710000
C       49.03050000      55.15210000      54.16490000
C       54.41570000      49.20840000      55.16540000
C       55.08870000      45.79020000      50.86500000
C       45.01310000      46.02030000      49.35150000
C       44.87700000      54.33090000      50.50440000
C       49.56260000      44.72940000      45.68810000
C       50.68900000      44.32410000      54.66270000
C       50.85620000      55.39520000      45.37930000
C       54.26460000      50.98940000      44.75100000
C       45.40210000      50.56430000      55.41250000
C       45.56860000      49.30320000      44.83490000
C       44.92310000      54.18840000      49.08000000
C       50.42140000      55.24630000      54.31270000
C       45.41400000      49.14420000      55.37310000
C       45.01010000      45.98310000      50.76920000
C       55.11040000      45.67600000      49.43990000
C       55.25120000      54.20690000      50.92860000
C       50.95670000      44.81800000      45.79230000
C       49.29510000      44.35770000      54.64550000
C       49.43560000      55.46450000      45.36360000
C       45.54420000      50.74120000      44.78040000
C       54.40400000      50.64790000      55.15270000
C       54.38310000      49.59470000      44.67960000
C       50.72350000      50.66080000      58.10840000
C       58.60580000      50.65310000      50.52110000
C       50.82060000      58.31090000      50.62590000
C       50.60270000      49.21690000      41.70290000
C       49.31520000      49.18790000      58.21530000
C       49.13620000      50.65840000      41.68780000
C       58.36330000      49.25180000      49.05140000
C       41.43270000      49.39410000      50.87640000
C       41.38510000      50.82150000      49.41300000
C       50.69040000      41.56060000      49.37580000
C       49.19710000      41.62920000      50.75770000
C       49.39660000      58.35820000      49.14290000
C       49.29980000      50.65530000      58.16400000
C       41.48220000      50.83960000      50.86250000
C       49.35310000      58.39760000      50.56320000
C       49.17690000      49.20480000      41.79020000
C       50.74180000      49.20400000      58.15180000
C       50.56330000      50.67900000      41.57810000
C       41.36010000      49.37110000      49.42470000
C       58.54850000      49.21450000      50.49570000
C       58.42170000      50.68300000      49.06620000
C       49.22140000      41.67110000      49.34500000
C       50.67520000      41.54550000      50.78880000
C       50.86480000      58.30570000      49.20470000
C       53.34340000      48.46690000      55.65210000
C       56.17350000      53.44320000      48.79930000
C       48.47420000      55.98300000      53.13080000
C       53.23470000      51.55770000      43.91620000
C       46.46820000      51.18810000      56.10970000
C       46.66940000      48.58470000      44.38920000
C       55.92910000      46.80050000      51.39200000
C       44.09240000      46.96290000      48.73150000
C       44.23070000      53.30550000      51.34340000
C       48.85660000      43.93920000      46.68050000
C       51.34400000      43.57310000      53.61400000
C       51.57130000      55.87150000      46.56220000
C       46.58810000      48.42950000      55.86760000
C       44.06570000      53.19480000      48.55290000
C       51.14940000      56.07280000      53.36540000
C       46.60700000      51.47150000      44.25400000
C       53.29860000      51.36420000      55.59840000
C       53.40990000      48.87470000      43.87640000
C       44.09390000      46.90300000      51.41090000
C       55.67770000      46.75830000      48.62140000
C       56.09820000      53.17480000      51.48620000
C       51.53400000      43.99130000      46.82080000
C       48.63370000      43.66030000      53.56580000
C       48.81420000      56.19820000      46.40560000
C       45.58540000      53.67400000      46.87140000
C       47.27720000      45.26930000      54.19230000
C       54.12290000      47.44260000      45.38630000
C       45.62310000      46.38250000      53.03560000
C       54.16480000      46.55360000      46.44820000
C       54.43840000      53.58110000      53.05520000
C       47.32310000      54.72880000      45.71920000
C       52.58990000      54.57810000      54.07950000
C       53.08830000      45.62630000      46.38850000
C       53.49030000      53.52910000      54.12320000
C       46.44750000      53.65680000      45.72810000
C       46.44070000      46.36710000      54.20840000
C       54.68430000      54.17180000      47.36110000
C       52.75030000      45.15960000      54.24010000
C       46.54030000      46.49990000      45.98100000
C       54.44020000      46.27390000      53.07820000
C       45.66780000      46.49100000      47.11450000
C       45.75510000      53.51100000      53.52920000
C       53.65780000      54.24820000      46.43510000
C       46.88390000      54.38060000      53.56030000
C       47.42700000      45.44490000      46.01480000
C       45.76220000      52.65240000      54.61780000
C       53.71060000      53.15690000      45.51150000
C       53.57620000      46.27160000      54.21130000
C       55.57560000      48.47480000      46.80280000
C       46.90960000      55.65640000      47.99640000
C       48.30480000      46.61230000      55.73790000
C       56.05090000      51.42540000      53.18270000
C       43.96710000      51.53140000      46.79210000
C       44.00690000      48.41190000      53.35290000
C       46.91440000      44.45890000      51.86250000
C       53.27500000      44.11580000      48.53980000
C       53.14630000      55.55140000      51.86730000
C       48.28760000      53.30530000      44.19510000
C       51.54290000      53.11910000      55.48670000
C       51.89140000      46.91090000      44.43830000
C       44.00580000      48.57240000      46.89020000
C       53.26400000      55.62560000      48.38720000
C       51.69920000      46.59740000      55.69250000
C       44.19470000      51.69020000      53.25630000
C       55.63660000      51.94340000      46.81960000
C       56.02730000      48.44830000      53.17100000
C       53.16910000      44.24160000      51.96530000
C       46.97700000      44.55750000      48.29210000
C       46.74800000      55.86260000      51.39590000
C       51.59040000      53.37920000      43.95120000
C       48.05370000      53.07420000      55.50480000
C       48.42590000      46.84120000      44.51410000
C       47.52080000      55.68090000      46.71710000
C       46.99890000      47.19760000      55.33220000
C       55.19680000      47.14110000      47.35400000
C       47.43920000      44.32350000      53.18430000
C       52.76480000      44.51170000      47.24470000
C       52.44860000      55.55550000      53.10710000
C       46.99740000      52.76540000      44.66150000
C       52.88660000      52.62410000      55.13210000
C       53.14380000      47.58790000      44.41510000
C       55.58020000      52.71840000      52.72670000
C       44.47990000      52.79640000      47.25140000
C       44.51600000      47.22230000      52.71140000
C       52.77590000      55.31100000      47.01370000
C       52.98350000      47.16630000      55.24390000
C       44.53590000      47.34110000      47.43640000
C       52.58950000      44.17440000      53.26460000
C       47.59460000      44.49660000      47.00910000
C       47.23950000      55.47540000      52.69760000
C       52.85250000      52.82220000      44.39630000
C       46.77290000      52.46450000      55.55870000
C       47.10160000      47.35390000      44.90340000
C       44.66740000      52.96230000      52.64670000
C       55.64970000      53.18980000      47.50510000
C       55.52390000      47.18070000      52.69910000
C       48.38990000      45.37090000      55.05660000
C       54.87890000      48.61730000      45.58880000
C       45.84430000      54.62040000      48.03180000
C       48.45990000      54.54800000      44.88200000
C       51.39990000      54.34930000      54.81520000
C       51.94080000      45.82500000      45.42520000
C       55.48100000      50.66000000      54.19450000
C       44.49690000      50.75620000      45.76890000
C       44.51880000      48.61470000      54.55490000
C       45.91170000      45.51270000      51.83250000
C       54.39150000      44.73630000      48.86360000
C       54.23910000      54.55350000      51.91500000
C       51.61610000      45.31780000      55.07480000
C       44.52500000      49.30260000      45.82480000
C       54.45930000      54.90200000      48.55130000
C       51.36030000      54.57030000      44.47700000
C       48.02740000      54.15990000      54.52180000
C       48.58050000      45.63130000      45.21370000
C       44.91520000      51.52660000      54.47780000
C       54.64960000      51.99170000      45.73500000
C       55.48900000      49.20620000      54.20340000
C       54.19650000      45.32010000      51.91950000
C       45.93730000      45.59170000      48.30050000
C       45.62420000      55.25650000      51.06760000
C       57.24040000      48.67720000      48.47150000
C       48.68750000      57.39330000      48.43100000
C       48.61850000      48.42700000      57.27670000
C       57.71120000      51.33690000      51.35360000
C       42.36570000      51.47330000      48.67100000
C       42.44060000      48.70110000      51.54340000
C       48.51290000      42.62240000      51.43930000
C       51.49160000      42.51910000      48.76410000
C       51.45470000      57.32020000      51.36830000
C       48.50750000      51.40700000      42.68650000
C       51.31210000      51.33340000      57.04740000
C       51.37450000      48.58930000      42.67540000
C       42.34230000      48.68250000      48.70350000
C       51.56580000      57.27030000      48.60170000
C       51.39510000      48.48700000      57.15450000
C       42.55880000      51.47850000      51.48970000
C       57.42180000      51.44410000      48.47560000
C       57.60570000      48.54640000      51.27280000
C       51.43960000      42.46060000      51.51830000
C       48.59210000      42.72110000      48.69280000
C       48.55150000      57.44500000      51.18450000
C       51.27480000      51.49630000      42.45930000
C       48.55170000      51.33180000      57.21130000
C       48.61360000      48.57200000      42.88680000
C       47.45110000      49.07910000      56.78770000
C       56.68790000      47.56340000      49.19420000
C       49.48840000      56.95660000      47.32140000
C       47.45060000      50.72230000      43.35370000
C       52.43610000      50.64630000      56.49480000
C       52.50210000      49.42810000      43.02160000
C       57.09490000      52.47680000      50.77300000
C       43.09220000      52.52300000      49.31240000
C       43.06310000      47.62410000      50.80820000
C       49.24420000      42.85510000      52.65180000
C       50.86220000      43.04810000      47.60060000
C       50.59670000      56.93170000      52.46550000
C       52.47250000      49.19350000      56.53890000
C       43.04310000      47.63320000      49.38420000
C       50.93450000      56.81040000      47.40930000
C       52.44550000      50.86920000      42.98350000
C       47.40390000      50.53350000      56.86210000
C       47.49780000      49.27170000      43.44120000
C       43.20070000      52.52930000      50.75150000
C       57.05510000      52.55580000      49.33420000
C       56.86590000      47.51180000      50.62390000
C       50.69930000      42.79300000      52.69130000
C       49.42140000      43.08070000      47.56550000
C       49.15730000      56.93300000      52.36980000
C       47.55410000      43.57280000      50.82500000
C       50.83980000      47.54060000      43.55890000
C       42.99790000      50.79450000      47.58470000
C       47.57680000      56.60440000      48.99410000
C       52.52490000      56.46790000      50.82960000
C       52.51800000      43.26450000      49.46190000
C       50.61190000      52.39610000      56.31850000
C       49.15980000      52.55880000      43.29310000
C       49.25310000      47.33110000      56.56280000
C       43.14890000      49.34130000      52.61000000
C       56.46330000      49.39160000      47.46360000
C       57.02850000      50.66420000      52.41480000
C       52.51090000      43.30080000      50.95520000
C       49.33210000      47.53620000      43.63210000
C       56.52980000      50.89980000      47.44390000
C       52.56090000      56.47210000      49.31610000
C       47.53530000      56.68790000      50.47890000
C       47.58970000      43.62310000      49.31330000
C       49.10120000      52.40310000      56.36720000
C       50.64150000      52.58440000      43.15510000
C       50.76590000      47.34190000      56.51940000
C       56.99840000      49.19980000      52.39140000
C       43.00610000      49.33130000      47.62180000
C       43.25000000      50.82230000      52.58030000
