240
Lattice="100.0 0.0 0.0 0.0 100.0 0.0 0.0 0.0 100.0" Properties=species:S:1:pos:R:3 name=C-169395-3151-65 pressure=48.3338488639587 spacegroup=Th times_found=1 energy=-1758.22869550627 pbc="T T T"
C       51.79150000      47.13840000      44.26770000
C       44.26800000      51.79220000      47.13810000
C       47.13760000      44.26790000      51.79110000
C       48.20720000      47.14030000      55.73280000
C       51.79080000      52.86080000      55.73300000
C       48.21060000      52.86060000      44.26650000
C       55.73280000      51.79000000      52.86150000
C       44.26620000      48.21050000      52.85980000
C       55.73300000      48.20730000      47.14050000
C       52.85960000      44.26620000      48.20990000
C       47.14100000      55.73340000      48.20790000
C       52.86170000      55.73240000      51.79110000
C       51.79280000      52.85980000      44.26720000
C       44.26720000      48.21000000      47.13850000
C       47.14040000      55.73370000      51.79010000
C       48.20850000      52.86160000      55.73230000
C       51.78940000      47.13940000      55.73350000
C       48.20920000      47.13920000      44.26700000
C       55.73200000      48.20780000      52.86190000
C       44.26700000      51.79270000      52.85950000
C       55.73380000      51.78950000      47.14020000
C       52.86240000      55.73210000      48.20890000
C       47.13830000      44.26760000      48.20890000
C       52.85900000      44.26660000      51.79210000
C       51.27270000      55.01120000      43.42610000
C       43.42570000      51.27240000      55.01080000
C       55.01030000      43.42520000      51.27190000
C       48.72970000      55.01300000      56.57310000
C       51.26800000      44.98820000      56.57440000
C       48.72960000      44.98760000      43.42650000
C       56.57490000      51.26840000      44.98890000
C       43.42690000      48.73070000      44.98680000
C       56.57250000      48.72850000      55.01340000
C       44.98650000      43.42740000      48.72930000
C       55.01390000      56.57240000      48.72990000
C       44.98920000      56.57500000      51.26890000
C       51.27030000      44.98700000      43.42690000
C       43.42510000      48.73160000      55.01110000
C       55.01350000      56.57260000      51.27070000
C       48.72730000      44.98880000      56.57390000
C       51.27040000      55.01240000      56.57350000
C       48.73200000      55.01180000      43.42560000
C       56.57430000      48.72760000      44.98920000
C       43.42750000      51.27150000      44.98660000
C       56.57310000      51.26930000      55.01320000
C       44.98970000      56.57480000      48.72810000
C       55.01080000      43.42500000      48.73110000
C       44.98610000      43.42760000      51.27010000
C       48.18710000      51.47030000      56.04830000
C       56.04810000      48.18650000      51.47050000
C       51.47100000      56.04830000      48.18750000
C       51.81360000      51.46830000      43.95140000
C       48.18850000      48.53060000      43.95100000
C       51.81080000      48.53080000      56.04920000
C       43.95100000      48.18910000      48.52980000
C       56.04950000      51.81060000      48.53160000
C       43.95140000      51.81380000      51.46800000
C       48.53180000      56.04930000      51.81140000
C       51.46750000      43.95100000      51.81300000
C       48.52960000      43.95140000      48.18810000
C       48.18640000      48.53170000      56.04860000
C       56.04900000      51.81090000      51.47020000
C       51.46820000      43.95070000      48.18860000
C       51.81290000      48.52980000      43.95170000
C       48.18920000      51.46920000      43.95080000
C       51.81150000      51.46940000      56.04900000
C       43.95190000      51.81350000      48.52950000
C       56.04860000      48.18620000      48.53200000
C       43.95050000      48.18940000      51.46840000
C       48.52900000      43.95170000      51.81250000
C       51.47040000      56.04860000      51.81190000
C       48.53250000      56.04900000      48.18700000
C       53.71400000      43.70460000      50.77480000
C       50.77560000      53.71490000      43.70520000
C       43.70490000      50.77540000      53.71450000
C       46.28300000      43.70620000      49.22630000
C       53.71730000      56.29360000      49.22650000
C       46.28570000      56.29560000      50.77230000
C       49.22620000      53.71640000      56.29410000
C       50.77160000      46.28470000      56.29510000
C       49.22670000      46.28400000      43.70560000
C       56.29540000      50.77170000      46.28540000
C       43.70590000      49.22760000      46.28330000
C       56.29380000      49.22530000      53.71680000
C       53.71700000      56.29380000      50.77370000
C       50.77380000      46.28360000      43.70590000
C       43.70460000      49.22830000      53.71460000
C       46.28600000      56.29540000      49.22520000
C       53.71430000      43.70440000      49.22770000
C       46.28270000      43.70640000      50.77350000
C       49.22440000      46.28510000      56.29480000
C       50.77330000      53.71600000      56.29440000
C       49.22840000      53.71530000      43.70490000
C       56.29510000      49.22460000      46.28550000
C       43.70620000      50.77470000      46.28320000
C       56.29410000      50.77240000      53.71670000
C       54.14460000      48.57290000      44.60380000
C       44.60420000      54.14520000      48.57300000
C       48.57230000      44.60370000      54.14430000
C       45.85470000      48.57580000      55.39640000
C       54.14340000      51.42520000      55.39760000
C       45.85730000      51.42620000      44.60210000
C       55.39780000      54.14290000      51.42630000
C       44.60170000      45.85740000      51.42510000
C       55.39630000      45.85460000      48.57570000
C       51.42510000      44.60230000      45.85670000
C       48.57630000      55.39700000      45.85520000
C       51.42620000      55.39700000      54.14380000
C       54.14530000      51.42420000      44.60360000
C       44.60220000      45.85710000      48.57370000
C       48.57490000      55.39770000      54.14330000
C       45.85540000      51.42710000      55.39620000
C       54.14270000      48.57380000      55.39790000
C       45.85660000      48.57480000      44.60240000
C       55.39580000      45.85480000      51.42700000
C       44.60370000      54.14540000      51.42430000
C       55.39830000      54.14260000      48.57490000
C       51.42770000      55.39630000      45.85570000
C       48.57380000      44.60300000      45.85620000
C       51.42370000      44.60300000      54.14480000
C       44.62670000      49.26780000      44.53620000
C       44.53600000      44.62710000      49.26650000
C       49.26660000      44.53680000      44.62620000
C       55.37300000      49.26620000      55.46390000
C       44.62510000      50.73480000      55.46190000
C       55.37530000      50.73120000      44.53800000
C       55.46150000      44.62460000      50.73450000
C       44.53830000      55.37550000      50.73160000
C       55.46430000      55.37270000      49.26750000
C       50.73080000      44.53740000      55.37470000
C       49.26730000      55.46350000      55.37350000
C       50.73530000      55.46220000      44.62550000
C       44.62700000      50.73380000      44.53610000
C       44.53850000      55.37540000      49.26550000
C       49.26920000      55.46260000      44.62530000
C       55.37330000      50.73220000      55.46380000
C       44.62470000      49.26880000      55.46200000
C       55.37490000      49.26520000      44.53810000
C       55.46400000      55.37290000      50.73350000
C       44.53570000      44.62730000      50.73250000
C       55.46170000      44.62450000      49.26840000
C       50.73340000      55.46320000      55.37380000
C       49.26470000      44.53780000      55.37450000
C       50.73270000      44.53650000      44.62650000
C       47.41740000      54.55700000      53.97440000
C       53.97390000      47.41650000      54.55690000
C       54.55740000      53.97400000      47.41750000
C       52.58470000      54.55500000      46.02470000
C       47.41670000      45.44420000      46.02460000
C       52.58110000      45.44370000      53.97620000
C       46.02490000      47.41760000      45.44350000
C       53.97670000      52.58160000      45.44450000
C       46.02450000      52.58430000      54.55510000
C       45.44450000      53.97660000      52.58180000
C       54.55460000      46.02380000      52.58410000
C       45.44350000      46.02550000      47.41660000
C       47.41530000      45.44500000      53.97530000
C       53.97510000      52.58240000      54.55650000
C       54.55550000      46.02340000      47.41820000
C       52.58260000      45.44300000      46.02560000
C       47.41890000      54.55630000      46.02380000
C       52.58330000      54.55570000      53.97540000
C       46.02610000      52.58350000      45.44310000
C       53.97550000      47.41570000      45.44490000
C       46.02330000      47.41840000      54.55550000
C       45.44260000      46.02600000      52.58250000
C       54.55650000      53.97440000      52.58340000
C       45.44540000      53.97620000      47.41590000
C       43.48420000      49.27340000      49.27320000
C       49.27280000      43.48430000      49.27240000
C       49.27290000      49.27380000      43.48420000
C       56.51550000      49.27040000      50.72700000
C       43.48430000      50.72970000      50.72460000
C       56.51610000      50.72650000      49.27530000
C       50.72410000      43.48410000      50.72880000
C       49.27570000      56.51600000      50.72740000
C       50.72740000      56.51550000      49.27150000
C       50.72680000      49.27460000      56.51600000
C       49.27090000      50.72650000      56.51560000
C       50.72940000      50.72500000      43.48430000
C       43.48450000      50.72960000      49.27300000
C       49.27590000      56.51590000      49.27120000
C       49.27320000      50.72540000      43.48400000
C       56.51580000      50.72660000      50.72680000
C       43.48390000      49.27350000      50.72470000
C       56.51570000      49.27030000      49.27550000
C       50.72720000      56.51570000      50.72760000
C       49.27250000      43.48450000      50.72850000
C       50.72430000      43.48400000      49.27260000
C       50.72710000      50.72620000      56.51580000
C       49.27060000      49.27500000      56.51570000
C       50.72910000      49.27350000      43.48440000
C       53.38920000      45.19430000      47.20370000
C       47.20430000      53.39010000      45.19460000
C       45.19410000      47.20410000      53.38930000
C       46.60850000      45.19650000      52.79710000
C       53.39050000      54.80400000      52.79750000
C       46.61180000      54.80520000      47.20170000
C       52.79730000      53.38970000      54.80480000
C       47.20100000      46.61120000      54.80440000
C       52.79740000      46.60900000      45.19620000
C       54.80450000      47.20120000      46.61120000
C       45.19670000      52.79820000      46.60900000
C       54.80470000      52.79650000      53.39050000
C       53.39150000      54.80350000      47.20290000
C       47.20270000      46.61030000      45.19520000
C       45.19550000      52.79880000      53.38880000
C       46.61080000      54.80570000      52.79630000
C       53.38820000      45.19480000      52.79830000
C       46.60950000      45.19590000      47.20250000
C       52.79570000      46.60990000      54.80540000
C       47.20260000      53.39100000      54.80380000
C       52.79900000      53.38880000      45.19560000
C       54.80590000      52.79590000      46.61070000
C       45.19530000      47.20350000      46.60950000
C       54.80330000      47.20180000      53.39100000
C       50.72100000      44.13960000      53.00070000
C       53.00130000      50.72170000      44.14000000
C       44.14010000      53.00150000      50.72170000
C       49.27620000      44.13940000      47.00030000
C       50.72490000      55.86010000      46.99950000
C       49.27790000      55.86090000      52.99940000
C       46.99910000      50.72420000      55.85990000
C       52.99890000      49.27680000      55.86110000
C       47.00080000      49.27720000      44.13900000
C       55.86130000      52.99860000      49.27780000
C       44.13890000      47.00130000      49.27630000
C       55.85970000      46.99860000      50.72430000
C       50.72380000      55.86060000      52.99970000
C       53.00090000      49.27580000      44.14010000
C       44.13870000      47.00140000      50.72220000
C       49.27900000      55.86040000      46.99930000
C       50.72210000      44.13910000      47.00060000
C       49.27510000      44.13990000      53.00050000
C       46.99870000      49.27830000      55.86000000
C       52.99920000      50.72280000      55.86100000
C       47.00120000      50.72320000      44.13890000
C       55.85990000      46.99850000      49.27830000
C       44.14030000      53.00140000      49.27570000
C       55.86110000      52.99870000      50.72370000
