240
Lattice="100.0 0.0 0.0 0.0 100.0 0.0 0.0 0.0 100.0" Properties=species:S:1:pos:R:3 name=C-169395-3151-97 pressure=10.0684331745027 spacegroup=Td times_found=1 energy=-1796.22666078931 pbc="T T T"
C       56.87290000      49.98510000      51.99100000
C       51.99330000      56.87220000      49.98060000
C       49.98650000      51.99630000      56.87130000
C       43.12710000      49.98580000      48.00900000
C       56.87250000      50.01150000      48.00780000
C       43.12750000      50.01760000      51.99220000
C       48.01010000      56.87320000      50.01010000
C       51.98990000      43.12680000      50.01910000
C       48.00670000      43.12780000      49.99030000
C       50.01440000      51.98690000      43.12590000
C       49.98430000      48.00370000      43.12870000
C       50.01470000      48.01310000      56.87410000
C       51.99220000      49.98960000      56.87250000
C       49.98730000      56.87410000      51.98690000
C       56.87320000      51.98990000      49.98350000
C       48.00780000      49.98120000      43.12750000
C       48.00900000      50.01970000      56.87290000
C       51.99100000      50.00940000      43.12710000
C       50.01610000      56.87130000      48.00370000
C       50.01300000      43.12860000      51.99630000
C       49.98360000      43.12590000      48.01310000
C       43.12780000      51.99330000      50.01380000
C       43.12680000      48.01010000      49.98740000
C       56.87220000      48.00670000      50.01530000
C       49.98870000      45.16550000      46.14380000
C       46.14000000      49.98790000      45.16850000
C       45.16720000      46.14170000      49.99330000
C       50.00890000      45.17080000      53.86280000
C       49.99180000      54.83450000      53.85620000
C       50.01060000      54.82920000      46.13720000
C       53.85990000      49.99260000      54.83150000
C       46.14090000      50.01400000      54.83220000
C       53.85910000      50.00550000      45.16780000
C       54.83090000      46.13930000      50.01190000
C       45.16910000      53.86070000      50.00750000
C       54.83280000      53.85830000      49.98720000
C       46.13930000      45.16910000      49.99390000
C       45.16780000      49.98880000      46.14090000
C       49.98890000      46.13720000      45.17080000
C       53.85830000      45.16720000      50.01270000
C       53.86070000      54.83090000      49.98660000
C       46.14170000      54.83280000      50.00680000
C       54.83220000      49.99170000      53.85910000
C       54.83150000      50.00590000      46.14000000
C       45.16850000      50.01360000      53.85990000
C       50.00920000      46.14380000      54.83450000
C       50.01030000      53.85620000      45.16550000
C       49.99170000      53.86280000      54.82920000
C       43.88470000      48.78200000      47.79130000
C       47.78830000      43.88490000      48.78640000
C       48.78090000      47.78600000      43.88680000
C       56.11470000      48.78200000      52.21040000
C       43.88570000      51.22100000      52.20980000
C       56.11490000      51.21500000      47.78850000
C       52.20870000      43.88550000      51.22200000
C       47.79150000      56.11620000      51.21400000
C       52.21150000      56.11340000      48.77760000
C       51.21800000      47.79380000      56.11620000
C       48.78310000      52.21460000      56.11340000
C       51.21800000      52.20560000      43.88360000
C       47.78900000      48.77840000      43.88620000
C       48.78030000      43.88400000      47.79420000
C       43.88450000      47.79060000      48.78410000
C       52.21040000      48.78560000      56.11550000
C       52.20990000      51.21330000      43.88410000
C       47.79070000      51.22270000      56.11420000
C       51.21670000      43.88640000      52.21420000
C       51.21930000      56.11300000      47.78560000
C       48.78370000      56.11660000      52.20600000
C       56.11440000      47.78920000      51.21900000
C       56.11530000      52.20780000      48.77990000
C       43.88580000      52.21240000      51.21700000
C       54.40090000      46.59830000      47.61220000
C       47.61110000      54.40020000      46.59820000
C       46.60080000      47.61410000      54.40390000
C       45.59740000      46.60370000      52.39240000
C       54.40300000      53.39950000      52.38700000
C       45.59870000      53.39840000      47.60840000
C       52.39110000      54.40370000      53.39580000
C       47.60950000      45.60100000      53.40220000
C       52.38830000      45.59510000      46.60380000
C       53.39800000      47.60640000      45.59940000
C       46.60120000      52.38760000      45.59670000
C       53.40000000      52.39190000      54.40000000
C       47.60980000      46.60460000      54.40450000
C       46.60190000      54.40120000      47.60760000
C       54.40100000      47.60690000      46.60230000
C       52.38850000      46.59740000      45.60020000
C       52.39100000      53.40140000      54.39940000
C       47.61070000      53.39660000      45.59600000
C       53.40030000      54.40270000      52.38640000
C       53.39770000      45.59560000      47.61300000
C       46.60020000      45.60050000      52.39300000
C       45.59780000      47.61370000      53.40100000
C       45.59830000      52.38850000      46.59980000
C       54.40280000      52.39100000      53.39700000
C       47.76150000      48.77910000      56.20470000
C       56.20300000      47.75890000      48.77530000
C       48.77570000      56.20240000      47.75710000
C       52.23790000      48.76960000      43.79700000
C       47.76100000      51.22200000      43.79570000
C       52.23960000      51.22930000      56.20260000
C       43.79590000      47.76360000      51.22770000
C       56.20430000      52.23800000      51.22360000
C       43.79680000      52.23940000      48.77340000
C       51.22740000      56.20490000      52.23440000
C       48.77300000      43.79820000      52.24310000
C       51.22390000      43.79450000      47.76540000
C       56.20310000      48.77130000      47.76150000
C       48.77440000      47.76580000      56.20530000
C       47.76270000      56.20340000      48.77030000
C       43.79620000      48.77740000      52.24010000
C       43.79650000      51.22570000      47.76100000
C       56.20420000      51.22560000      52.23730000
C       51.22450000      47.75670000      43.79780000
C       51.22680000      52.24270000      56.20200000
C       48.77430000      52.23480000      43.79490000
C       52.24040000      56.20390000      51.22120000
C       52.23710000      43.79500000      48.77840000
C       47.75980000      43.79770000      51.23010000
C       46.87770000      48.70850000      45.02930000
C       45.02720000      46.87880000      48.71370000
C       48.70960000      45.02630000      46.88200000
C       53.12170000      48.71380000      54.97250000
C       46.87920000      51.29300000      54.97130000
C       53.12140000      51.28470000      45.02690000
C       54.97120000      46.87810000      51.29050000
C       45.02900000      53.12360000      51.28720000
C       54.97260000      53.11940000      48.70860000
C       51.28790000      45.02990000      53.12480000
C       48.71270000      54.97430000      53.11820000
C       51.28980000      54.96950000      46.87500000
C       45.02750000      48.71020000      46.87980000
C       48.70990000      46.87540000      45.03030000
C       46.87710000      45.02800000      48.71480000
C       54.97190000      48.71210000      53.12200000
C       54.97190000      51.28550000      46.87720000
C       45.02870000      51.29220000      53.12110000
C       51.28850000      46.88150000      54.97390000
C       51.28920000      53.11780000      45.02590000
C       48.71240000      53.12520000      54.96990000
C       53.12040000      45.02820000      51.29200000
C       53.12260000      54.97030000      48.70750000
C       46.87980000      54.97360000      51.28570000
C       48.54550000      47.55690000      46.53970000
C       46.53730000      48.54560000      47.56020000
C       47.55790000      46.53750000      48.54900000
C       51.45320000      47.56090000      53.46360000
C       48.54740000      52.44380000      53.46060000
C       51.45380000      52.43840000      46.53610000
C       53.46190000      48.54730000      52.44180000
C       46.53850000      51.45610000      52.44040000
C       53.46220000      51.45100000      47.55760000
C       52.44040000      46.53830000      51.45570000
C       47.55990000      53.46370000      51.45140000
C       52.44180000      53.46050000      48.54390000
C       46.53720000      47.55880000      48.54840000
C       47.55820000      48.54470000      46.53910000
C       48.54540000      46.53660000      47.56140000
C       53.46160000      47.55900000      51.45490000
C       53.46260000      52.43920000      48.54450000
C       46.53860000      52.44290000      51.45220000
C       52.44100000      48.54820000      53.46290000
C       52.44110000      51.45060000      46.53670000
C       47.55960000      51.45650000      53.46130000
C       51.45290000      46.53920000      52.44330000
C       51.45420000      53.46010000      47.55640000
C       48.54750000      53.46410000      52.43890000
C       44.78800000      48.77800000      53.23530000
C       53.23260000      44.78630000      48.77770000
C       48.77480000      53.23080000      44.78590000
C       55.21140000      48.77100000      46.76630000
C       44.78800000      51.22460000      46.76560000
C       55.21260000      51.22640000      53.23270000
C       46.76480000      44.78960000      51.22940000
C       53.23540000      55.21210000      51.22170000
C       46.76710000      55.21200000      48.77120000
C       51.22680000      53.23730000      55.20970000
C       48.77410000      46.76980000      55.21440000
C       51.22430000      46.76210000      44.79010000
C       53.23330000      48.77010000      44.78850000
C       48.77350000      44.79050000      53.23770000
C       44.78870000      53.23450000      48.77270000
C       46.76610000      48.77880000      55.21320000
C       46.76580000      51.22280000      44.78740000
C       53.23480000      51.22830000      55.21090000
C       51.22390000      44.78550000      46.76940000
C       51.22710000      55.21390000      53.23040000
C       48.77550000      55.21010000      46.76250000
C       55.21290000      53.23360000      51.22280000
C       55.21110000      46.76390000      48.77620000
C       44.78730000      46.76810000      51.22820000
C       57.88150000      50.00360000      48.96960000
C       48.97230000      57.88190000      50.00100000
C       50.00670000      48.97570000      57.88230000
C       42.11850000      50.00890000      51.03040000
C       57.88170000      49.99250000      51.02900000
C       42.11830000      49.99500000      48.97110000
C       51.03160000      57.88140000      49.98830000
C       48.96840000      42.11860000      49.99920000
C       51.02770000      42.11810000      50.01150000
C       49.99280000      48.96500000      42.11910000
C       50.00580000      51.02430000      42.11770000
C       49.99470000      51.03500000      57.88090000
C       48.97100000      50.01190000      57.88170000
C       50.00810000      57.88090000      48.96500000
C       57.88140000      48.96840000      50.00630000
C       51.02900000      50.00060000      42.11830000
C       51.03040000      49.99890000      57.88150000
C       48.96960000      49.98860000      42.11850000
C       49.99580000      57.88230000      51.02430000
C       49.99170000      42.11770000      48.97570000
C       50.00440000      42.11910000      51.03500000
C       42.11810000      48.97230000      49.99520000
C       42.11860000      51.03160000      50.00630000
C       57.88190000      51.02770000      49.99230000
C       53.71990000      54.71920000      47.30210000
C       47.30700000      53.72290000      54.71960000
C       54.72160000      47.30700000      53.72040000
C       46.28240000      54.72470000      52.69150000
C       53.71810000      45.27900000      52.69730000
C       46.27960000      45.27710000      47.30920000
C       52.69490000      53.71510000      45.27530000
C       47.30430000      46.27850000      45.28080000
C       52.69390000      46.28360000      54.72420000
C       45.27710000      47.30420000      46.28330000
C       54.72230000      52.69070000      46.27880000
C       45.27910000      52.69810000      53.71760000
C       47.30710000      54.72510000      53.71600000
C       54.72260000      53.71600000      47.30270000
C       53.71870000      47.30790000      54.72340000
C       52.69520000      54.71870000      46.27760000
C       52.69360000      45.27990000      53.72200000
C       47.30410000      45.27620000      46.28450000
C       45.27920000      53.72200000      52.69230000
C       45.27690000      46.28040000      47.30860000
C       54.72130000      46.28170000      52.69650000
C       46.27990000      47.30330000      45.28020000
C       46.28210000      52.69850000      54.72040000
C       53.71920000      52.69030000      45.27590000
