240
Lattice="100.0 0.0 0.0 0.0 100.0 0.0 0.0 0.0 100.0" Properties=species:S:1:pos:R:3 name=C-169395-3151-23 pressure=-0.0282756762143173 spacegroup=C1 times_found=1 energy=-1747.99057603952 pbc="T T T"
C       51.15890000      43.82020000      47.32020000
C       47.41680000      51.60440000      43.87340000
C       43.77940000      47.23720000      51.39550000
C       48.69160000      44.09710000      52.75160000
C       51.22800000      55.79930000      52.65530000
C       48.53890000      56.04140000      47.24420000
C       52.57880000      51.64770000      56.19740000
C       47.41870000      48.32060000      56.25160000
C       52.77860000      48.55830000      44.12050000
C       56.10290000      47.25200000      48.49740000
C       43.77980000      52.81600000      48.65650000
C       56.13220000      52.63770000      51.22640000
C       51.37270000      56.20240000      47.22580000
C       47.34990000      48.84540000      43.91770000
C       43.98630000      52.70540000      51.46940000
C       48.44920000      56.00070000      52.67130000
C       51.47990000      43.97380000      52.68420000
C       48.39980000      43.86780000      47.41020000
C       52.68640000      48.90440000      56.12220000
C       47.31820000      51.05970000      56.13820000
C       52.85300000      51.43760000      44.07830000
C       56.22620000      52.64520000      48.46810000
C       43.99130000      47.29710000      48.58050000
C       55.85410000      47.33150000      51.30560000
C       51.44950000      54.41730000      54.50560000
C       54.27780000      51.99420000      54.38920000
C       54.48970000      54.26310000      51.52290000
C       48.40600000      54.70700000      45.38030000
C       51.48500000      45.31140000      45.58120000
C       48.50000000      45.51300000      54.58080000
C       45.71620000      52.03980000      45.49130000
C       54.67010000      48.31390000      45.39290000
C       45.67910000      47.93170000      54.49480000
C       45.13620000      54.69110000      48.30550000
C       54.44210000      45.59550000      48.05940000
C       45.32430000      45.50870000      51.75020000
C       51.95350000      45.62800000      54.32880000
C       54.35550000      48.66450000      54.53180000
C       54.48380000      45.51610000      51.49160000
C       48.01520000      45.55250000      45.75230000
C       51.75950000      54.84360000      45.37490000
C       47.98810000      54.36880000      54.34580000
C       45.56920000      48.54370000      45.36660000
C       54.73990000      51.61250000      45.37320000
C       45.60580000      51.29490000      54.59180000
C       45.32190000      45.42520000      48.42930000
C       54.55060000      54.29840000      48.04830000
C       45.31990000      54.56590000      51.65110000
C       46.82050000      45.48050000      46.63710000
C       46.20730000      47.37550000      45.14600000
C       45.60680000      46.16260000      47.23710000
C       53.09520000      45.56970000      53.37700000
C       46.81690000      54.45820000      53.43550000
C       52.91850000      55.05630000      46.05440000
C       53.75050000      47.49060000      54.78330000
C       46.23860000      52.46130000      54.80530000
C       54.00730000      52.82380000      45.62570000
C       54.25690000      46.25520000      52.69300000
C       45.60340000      53.80370000      52.82690000
C       54.66210000      53.43240000      46.84660000
C       47.18060000      54.46040000      46.08510000
C       46.59910000      53.23180000      45.41340000
C       44.92750000      54.02870000      47.13370000
C       52.63800000      54.22180000      53.71420000
C       47.27870000      45.66120000      53.83270000
C       52.65450000      45.03810000      46.19550000
C       53.74370000      53.28970000      53.77280000
C       46.16490000      46.58470000      53.92220000
C       53.88990000      47.14040000      45.66910000
C       54.59890000      53.48440000      52.66600000
C       45.25350000      46.33080000      52.87280000
C       54.54280000      46.49320000      46.87060000
C       52.57120000      44.24450000      47.27490000
C       47.50690000      52.94790000      44.32860000
C       44.25960000      47.29100000      52.73700000
C       47.34430000      44.66180000      52.76380000
C       52.54940000      55.18750000      52.62070000
C       47.19380000      55.43320000      47.21540000
C       52.35470000      52.94900000      56.02960000
C       47.63910000      47.01710000      56.09610000
C       52.73480000      47.22930000      44.74690000
C       55.68100000      47.32720000      47.14240000
C       44.23870000      52.86250000      47.25010000
C       55.63020000      52.57020000      52.55590000
C       52.78290000      55.75340000      47.20940000
C       47.31090000      47.44460000      44.38300000
C       44.66670000      52.65310000      52.77340000
C       47.09940000      55.57250000      52.57380000
C       52.81210000      44.44200000      52.54120000
C       47.06940000      44.35960000      47.51110000
C       52.73110000      47.51550000      55.64990000
C       47.26990000      52.44530000      55.65510000
C       52.87800000      52.79080000      44.66240000
C       55.78250000      52.56760000      47.12090000
C       44.66820000      47.31750000      47.27490000
C       55.21160000      47.37290000      52.63020000
C       53.96470000      50.68870000      44.60110000
C       44.48810000      53.84960000      50.74360000
C       50.88940000      44.75700000      53.74850000
C       46.32830000      50.28840000      55.39160000
C       53.65620000      49.66980000      55.34830000
C       46.29800000      49.57940000      44.60700000
C       55.40720000      53.67290000      49.09230000
C       44.50070000      46.16540000      49.32930000
C       55.26960000      46.23760000      50.54080000
C       49.02240000      44.63930000      46.35440000
C       50.71060000      55.58410000      46.11620000
C       49.05030000      55.21490000      53.72940000
C       53.93290000      49.26220000      44.61340000
C       44.45990000      46.14170000      50.74040000
C       50.48370000      55.18010000      53.75000000
C       46.37400000      48.86280000      55.37620000
C       53.60760000      51.08960000      55.31350000
C       46.34700000      50.99920000      44.63780000
C       55.30020000      46.22290000      49.10740000
C       44.39800000      53.91600000      49.33850000
C       55.38150000      53.67590000      50.51330000
C       49.30020000      55.51530000      46.13640000
C       50.43720000      44.56060000      46.29550000
C       49.45610000      44.75670000      53.80840000
C       43.15240000      48.25740000      49.25580000
C       49.11420000      43.04380000      48.33760000
C       48.33410000      49.46170000      43.13310000
C       56.75860000      48.23500000      50.66000000
C       43.15530000      51.75870000      50.77900000
C       57.03080000      51.69860000      49.18720000
C       50.74130000      43.15910000      51.77430000
C       49.18560000      56.78500000      51.73230000
C       50.65520000      56.87550000      48.22930000
C       51.74660000      49.47660000      57.00080000
C       48.26690000      50.49750000      57.01380000
C       51.87820000      50.72440000      43.29630000
C       43.10180000      51.79080000      49.35200000
C       49.23070000      56.84210000      48.21570000
C       48.36480000      50.87410000      43.09130000
C       56.97000000      51.69920000      50.59970000
C       43.07230000      48.23190000      50.68260000
C       56.87930000      48.19810000      49.23910000
C       50.60220000      56.68950000      51.73090000
C       49.32140000      43.21520000      51.81790000
C       50.52950000      43.03770000      48.29780000
C       51.67630000      50.88570000      57.04030000
C       48.33570000      49.08970000      57.07130000
C       51.83330000      49.28900000      43.32640000
C       55.86530000      48.31230000      46.13190000
C       46.16920000      55.65060000      48.22140000
C       48.58020000      46.07100000      55.86490000
C       44.42520000      48.23130000      53.78820000
C       55.52640000      51.69140000      53.66780000
C       44.51360000      51.85590000      46.26460000
C       53.56990000      55.30310000      51.61280000
C       46.26990000      44.47380000      51.81960000
C       53.65300000      44.38770000      48.19570000
C       51.63960000      46.29980000      44.61200000
C       48.52860000      53.93020000      44.21910000
C       51.40500000      53.88930000      55.80420000
C       55.93490000      51.57080000      46.11550000
C       46.07550000      44.24670000      48.52170000
C       48.11010000      53.59110000      55.55750000
C       44.55500000      51.54440000      53.69810000
C       55.37030000      48.43850000      53.59110000
C       44.56370000      48.40240000      46.32080000
C       53.77370000      44.31770000      51.50420000
C       46.10000000      55.72510000      51.57180000
C       53.76010000      55.49040000      48.22120000
C       51.87450000      53.80960000      44.42670000
C       48.23190000      46.36710000      44.57460000
C       51.86840000      46.38600000      55.55370000
C       51.42440000      42.42190000      50.75310000
C       50.92280000      51.43450000      42.51990000
C       42.46950000      50.73310000      51.47970000
C       48.44960000      42.37090000      49.39980000
C       51.39930000      57.48140000      49.28000000
C       48.50360000      57.52760000      50.71990000
C       49.15460000      51.38990000      57.69170000
C       50.86580000      48.59120000      57.69600000
C       49.33500000      48.64780000      42.53240000
C       57.73630000      50.66410000      48.51530000
C       42.48870000      49.29220000      48.54880000
C       57.48810000      49.20840000      51.40190000
C       51.36590000      57.40570000      50.76090000
C       50.81390000      48.60610000      42.60120000
C       42.45340000      49.24940000      51.46420000
C       48.54120000      57.54720000      49.23020000
C       51.34120000      42.38450000      49.26980000
C       48.55160000      42.45840000      50.88770000
C       49.39220000      48.42170000      57.74960000
C       50.62800000      51.56100000      57.72300000
C       49.43640000      51.52210000      42.41870000
C       57.66330000      49.16790000      48.53940000
C       42.48260000      50.77540000      48.57460000
C       57.56740000      50.68900000      51.40850000
C       56.98970000      50.65120000      46.08550000
C       46.08920000      56.73720000      50.61070000
C       51.03090000      46.22220000      56.67280000
C       43.45470000      50.70080000      53.78820000
C       56.49020000      49.24750000      53.70210000
C       43.54170000      49.34500000      46.27000000
C       53.74000000      56.43010000      49.27350000
C       46.06510000      43.25350000      49.51160000
C       53.81660000      43.28060000      50.58170000
C       49.24670000      46.31000000      43.59270000
C       51.00210000      53.80840000      43.34200000
C       48.97060000      53.75400000      56.65900000
C       56.95250000      49.18600000      46.09660000
C       46.19560000      43.35790000      50.96890000
C       50.40220000      53.94440000      56.81440000
C       43.44760000      49.23490000      53.84250000
C       56.52790000      50.71090000      53.77000000
C       43.56430000      50.81240000      46.25380000
C       53.72790000      43.33410000      49.12840000
C       46.17350000      56.70630000      49.13790000
C       53.66670000      56.38180000      50.72740000
C       49.53530000      53.92160000      43.24380000
C       50.71090000      46.29800000      43.58180000
C       49.60310000      46.03220000      56.85400000
C       52.83550000      57.55980000      49.29450000
C       48.97780000      52.81370000      57.77250000
C       57.60080000      49.19110000      52.82220000
C       47.08980000      57.76230000      50.67280000
C       52.84210000      42.23350000      50.66830000
C       47.03340000      42.19670000      49.49150000
C       51.01850000      52.84320000      42.29820000
C       49.27380000      47.21490000      42.45910000
C       51.04230000      47.16840000      57.78190000
C       42.41090000      49.31540000      47.12830000
C       57.99310000      50.64800000      47.10870000
C       42.34880000      50.73370000      52.90070000
C       52.76840000      42.24890000      49.16790000
C       49.55680000      47.00060000      57.90770000
C       57.64980000      50.69940000      52.84570000
C       47.13790000      42.29630000      50.99440000
C       52.78700000      57.49450000      50.79180000
C       47.13180000      57.75390000      49.16970000
C       50.77190000      47.18610000      42.47530000
C       49.52070000      52.93360000      42.20460000
C       50.46530000      52.98300000      57.87430000
C       42.42200000      50.80940000      47.13910000
C       57.94430000      49.14140000      47.13150000
C       42.33990000      49.23190000      52.90290000
