240
Lattice="100.0 0.0 0.0 0.0 100.0 0.0 0.0 0.0 100.0" Properties=species:S:1:pos:R:3 name=C-169395-3151-151 pressure=0.00479065792779216 spacegroup=Td times_found=1 energy=-1796.22672348149 pbc="T T T"
C       50.00890000      54.83330000      46.14230000
C       46.14160000      50.00790000      54.83280000
C       54.83180000      46.14050000      50.00720000
C       50.01060000      45.16670000      53.85770000
C       49.98930000      45.16960000      46.13870000
C       49.99120000      54.83040000      53.86130000
C       46.13940000      49.99210000      45.16900000
C       53.86060000      49.98840000      54.83090000
C       53.85840000      50.01150000      45.16720000
C       54.83190000      53.85950000      49.99060000
C       45.16820000      53.85950000      50.01230000
C       45.16810000      46.14050000      49.99000000
C       50.01080000      46.13870000      54.83040000
C       46.14050000      54.83190000      50.01240000
C       54.83100000      50.01120000      46.13940000
C       50.00860000      53.86130000      45.16960000
C       49.98910000      46.14230000      45.16670000
C       49.99140000      53.85770000      54.83330000
C       46.14050000      45.16820000      49.98940000
C       53.85950000      54.83180000      49.99120000
C       53.85950000      45.16810000      50.00700000
C       54.83280000      49.98880000      53.85840000
C       45.16900000      50.00830000      53.86070000
C       45.16720000      49.99170000      46.14160000
C       51.22470000      44.78920000      46.76370000
C       46.76480000      51.22750000      44.78920000
C       44.78820000      46.76550000      51.22550000
C       51.22630000      55.21080000      53.23570000
C       48.77370000      55.21320000      46.76820000
C       48.77520000      44.78680000      53.23240000
C       46.76720000      48.77250000      55.21230000
C       53.23280000      48.77640000      44.78680000
C       53.23530000      51.22360000      55.21170000
C       44.78770000      53.23450000      48.77690000
C       55.21230000      53.23350000      51.22550000
C       55.21170000      46.76640000      48.77210000
C       51.22430000      46.76790000      44.78650000
C       46.76620000      44.78750000      51.22430000
C       44.78720000      51.22670000      46.76760000
C       51.22680000      53.23210000      55.21300000
C       48.77570000      46.76400000      55.21110000
C       48.77330000      53.23600000      44.78950000
C       46.76570000      55.21250000      48.77720000
C       53.23370000      44.78840000      48.77180000
C       53.23430000      55.21160000      51.22670000
C       44.78870000      48.77330000      53.23480000
C       55.21280000      51.22430000      53.23330000
C       55.21130000      48.77570000      46.76430000
C       52.38870000      46.60270000      45.59620000
C       45.59730000      52.39100000      46.60290000
C       46.60160000      45.59720000      52.38890000
C       52.39080000      53.39730000      54.40270000
C       47.60930000      53.40060000      45.59990000
C       47.61130000      46.59940000      54.40120000
C       45.59880000      47.60900000      53.39910000
C       54.40110000      47.61150000      46.59910000
C       54.40270000      52.38840000      53.39880000
C       46.60050000      54.40280000      47.61270000
C       53.39960000      54.40100000      52.39060000
C       53.39840000      45.59890000      47.60780000
C       52.38890000      45.59930000      46.59880000
C       45.59860000      46.60010000      52.38950000
C       46.60000000      52.39140000      45.59970000
C       52.39050000      54.40070000      53.40010000
C       47.61110000      45.59680000      53.39790000
C       47.60950000      54.40320000      46.60320000
C       45.59750000      53.39990000      47.61260000
C       54.40140000      46.60190000      47.60800000
C       54.40250000      53.39810000      52.39000000
C       46.60200000      47.60860000      54.40180000
C       53.40000000      52.38810000      54.40200000
C       53.39790000      47.61190000      45.59640000
C       51.29000000      46.87660000      54.97040000
C       54.97120000      51.29000000      46.87780000
C       46.87880000      54.97140000      51.29140000
C       51.28770000      53.12340000      45.02900000
C       48.71230000      53.11970000      54.97340000
C       48.71000000      46.88030000      45.02720000
C       54.97260000      48.71000000      53.11990000
C       45.02740000      48.71230000      46.87920000
C       45.02880000      51.28770000      53.12320000
C       46.87820000      45.02860000      48.71000000
C       53.12180000      45.02760000      51.28630000
C       53.12120000      54.97240000      48.71230000
C       51.28810000      54.97310000      46.88000000
C       54.97220000      46.87800000      51.28650000
C       46.87960000      51.28700000      54.97310000
C       51.28960000      45.02690000      53.11940000
C       48.71190000      54.97070000      53.12370000
C       48.71040000      45.02930000      46.87690000
C       54.97160000      53.12200000      48.71120000
C       45.02780000      46.87900000      48.71110000
C       45.02840000      53.12110000      51.29120000
C       46.87730000      48.71300000      45.02830000
C       53.12040000      51.29070000      45.02780000
C       53.12270000      48.70930000      54.97070000
C       54.72250000      46.28000000      52.69190000
C       52.69350000      54.72330000      46.28220000
C       46.28210000      52.69260000      54.72380000
C       54.72130000      53.72000000      47.30590000
C       45.27870000      53.71800000      52.69690000
C       45.27740000      46.28210000      47.30530000
C       52.69520000      45.27670000      53.71660000
C       47.30470000      45.27950000      46.27990000
C       47.30650000      54.72060000      53.72140000
C       46.27990000      47.30740000      45.27790000
C       53.72010000      47.30380000      54.72010000
C       53.71790000      52.69610000      45.27820000
C       54.72110000      52.69580000      46.28090000
C       52.69550000      46.27930000      54.71990000
C       46.28170000      54.72090000      52.69700000
C       54.72280000      47.30420000      53.71690000
C       45.27890000      52.69300000      53.72110000
C       45.27720000      47.30700000      46.28110000
C       52.69330000      53.72070000      45.27880000
C       47.30450000      46.28280000      45.27730000
C       47.30670000      53.71720000      54.72400000
C       46.28040000      45.27910000      47.30470000
C       53.71840000      54.72290000      47.30650000
C       53.71960000      45.27700000      52.69180000
C       56.87270000      51.99160000      49.98460000
C       49.98590000      56.87200000      51.99410000
C       51.99320000      49.98290000      56.87220000
C       56.87270000      48.00840000      50.01220000
C       43.12730000      48.00850000      49.98630000
C       43.12730000      51.99160000      50.01690000
C       49.98490000      43.12800000      48.00590000
C       50.01500000      43.12650000      51.98900000
C       50.01410000      56.87350000      48.01100000
C       51.99000000      50.01710000      43.12680000
C       48.01000000      50.01200000      56.87320000
C       48.00680000      49.98800000      43.12780000
C       56.87320000      49.98470000      51.99000000
C       49.98700000      51.98900000      56.87350000
C       51.99160000      56.87270000      49.98750000
C       56.87220000      50.01530000      48.00680000
C       43.12680000      49.98620000      48.01000000
C       43.12780000      50.01380000      51.99320000
C       49.98380000      48.01100000      43.12660000
C       50.01300000      51.99410000      43.12800000
C       50.01620000      48.00590000      56.87200000
C       51.99160000      43.12730000      50.01150000
C       48.00850000      56.87270000      50.01760000
C       48.00840000      43.12730000      49.98330000
C       53.46270000      48.54550000      52.43970000
C       52.44080000      53.46260000      48.54720000
C       48.54730000      52.43980000      53.46330000
C       53.46150000      51.45440000      47.55860000
C       46.53850000      51.45260000      52.44240000
C       46.53730000      48.54740000      47.55920000
C       52.44140000      46.53740000      51.45170000
C       47.55860000      46.53850000      48.54570000
C       47.55930000      53.46160000      51.45540000
C       48.54560000      47.56020000      46.53730000
C       51.45430000      47.55760000      53.46080000
C       51.45270000      52.44240000      46.53850000
C       53.46180000      52.44160000      48.54660000
C       52.44190000      48.54520000      53.46100000
C       48.54700000      53.46120000      52.44270000
C       53.46240000      47.55840000      51.45180000
C       46.53830000      52.44060000      51.45530000
C       46.53760000      47.55950000      48.54640000
C       52.44030000      51.45480000      46.53790000
C       47.55810000      48.54780000      46.53790000
C       47.55970000      51.45230000      53.46320000
C       48.54590000      46.53880000      47.55800000
C       51.45300000      53.46300000      47.55990000
C       51.45410000      46.53700000      52.43950000
C       43.79610000      52.23920000      48.77660000
C       48.77480000      43.79550000      52.23670000
C       52.23730000      48.77670000      43.79540000
C       43.79660000      47.76080000      51.22630000
C       56.20340000      47.76170000      48.77210000
C       56.20390000      52.23830000      51.22500000
C       48.77390000      56.20450000      47.76390000
C       51.22620000      56.20280000      52.24080000
C       51.22510000      43.79720000      47.75870000
C       52.24020000      51.22330000      56.20360000
C       47.75980000      51.22800000      43.79730000
C       47.76270000      48.77200000      56.20370000
C       43.79690000      48.77350000      52.23970000
C       48.77290000      52.24110000      43.79750000
C       52.23840000      43.79680000      48.77150000
C       43.79580000      51.22650000      47.76320000
C       56.20310000      48.77520000      47.75940000
C       56.20420000      51.22480000      52.23770000
C       48.77580000      47.75900000      56.20310000
C       51.22710000      52.23640000      56.20420000
C       51.22420000      47.76360000      43.79520000
C       52.23900000      56.20320000      51.22740000
C       47.76150000      43.79590000      51.22390000
C       47.76100000      56.20410000      48.77720000
C       42.11840000      51.02970000      50.00850000
C       50.00650000      42.11800000      51.02670000
C       51.02780000      50.00920000      42.11810000
C       42.11840000      48.97040000      49.99520000
C       57.88160000      48.97030000      50.00400000
C       57.88160000      51.02960000      49.99230000
C       50.00600000      57.88200000      48.97330000
C       49.99400000      57.88120000      51.03260000
C       49.99350000      42.11880000      48.96740000
C       51.03150000      49.99080000      57.88140000
C       48.96850000      49.99670000      42.11860000
C       48.97220000      50.00330000      57.88190000
C       42.11860000      50.00590000      51.03150000
C       50.00440000      51.03260000      42.11880000
C       51.02960000      42.11840000      50.00310000
C       42.11810000      49.99420000      48.97220000
C       57.88140000      50.00660000      48.96850000
C       57.88190000      49.99330000      51.02780000
C       50.00810000      48.96740000      57.88120000
C       49.99560000      51.02670000      57.88200000
C       49.99190000      48.97330000      42.11800000
C       51.02970000      57.88160000      49.99640000
C       48.97030000      42.11840000      49.99100000
C       48.97040000      57.88160000      50.00940000
C       52.20870000      51.22030000      43.88510000
C       43.88550000      52.20970000      51.22030000
C       51.21850000      43.88430000      52.20750000
C       52.21150000      48.77970000      56.11390000
C       47.78850000      48.78430000      43.88520000
C       47.79130000      51.21570000      56.11580000
C       43.88490000      47.79040000      48.78260000
C       56.11510000      47.78940000      51.21570000
C       56.11450000      52.21050000      48.78140000
C       51.21750000      56.11560000      47.79190000
C       48.78250000      56.11400000      52.21270000
C       48.78150000      43.88600000      47.78790000
C       52.21040000      43.88470000      51.21520000
C       43.88570000      51.21720000      52.21200000
C       51.21660000      52.21240000      43.88570000
C       52.20990000      56.11530000      48.78380000
C       47.78960000      43.88560000      48.78020000
C       47.79020000      56.11440000      51.22080000
C       43.88470000      48.78290000      47.79090000
C       56.11430000      51.21880000      47.78890000
C       56.11530000      48.78120000      52.20820000
C       51.21940000      47.78760000      56.11370000
C       48.78340000      52.20780000      56.11590000
C       48.78060000      47.79220000      43.88460000
