240
Lattice="100.0 0.0 0.0 0.0 100.0 0.0 0.0 0.0 100.0" Properties=species:S:1:pos:R:3 name=C-169395-3151-49 pressure=28.9562023882777 energy=-1694.8664394965 spacegroup=C1 times_found=1 pbc="T T T"
C       44.38760000      48.62430000      49.52170000
C       49.53980000      44.36080000      48.64900000
C       48.65020000      49.54070000      44.37200000
C       55.61730000      51.37580000      49.51500000
C       55.63470000      48.65570000      50.46280000
C       44.36250000      51.34920000      50.46510000
C       50.45790000      55.65500000      48.64170000
C       50.48220000      44.38520000      51.37080000
C       49.52760000      55.64740000      51.35860000
C       51.34960000      50.45540000      44.37260000
C       51.36010000      49.53400000      55.59910000
C       48.62930000      50.48210000      55.59770000
C       48.65100000      44.36100000      49.53770000
C       44.38810000      49.51530000      48.63130000
C       49.51260000      48.62460000      44.38370000
C       51.36150000      55.65760000      49.51510000
C       48.62290000      55.63330000      50.48440000
C       51.37480000      44.38560000      50.48200000
C       55.61530000      50.48400000      48.62570000
C       44.36320000      50.45960000      51.35310000
C       55.63320000      49.54430000      51.35210000
C       50.48750000      51.37170000      44.38460000
C       49.53230000      51.36060000      55.59600000
C       50.45960000      48.65490000      55.61290000
C       54.29960000      55.32460000      46.68350000
C       46.67760000      54.30860000      55.30910000
C       55.32130000      46.71300000      54.30120000
C       45.70520000      44.67520000      46.69580000
C       45.67700000      55.31200000      53.30540000
C       54.32150000      44.69840000      53.31670000
C       53.31750000      45.71410000      55.31630000
C       53.30090000      54.31920000      44.68000000
C       46.69860000      45.67730000      44.68720000
C       44.67660000      53.30210000      54.29740000
C       44.69360000      46.67540000      45.68810000
C       55.30780000      53.32160000      45.67870000
C       55.31210000      54.32040000      46.67540000
C       54.31660000      46.70930000      55.31340000
C       46.67910000      55.31350000      54.29820000
C       44.69200000      45.67850000      46.68690000
C       55.32260000      45.71370000      53.30730000
C       44.67420000      54.29810000      53.30050000
C       45.68080000      53.31010000      55.30980000
C       54.29320000      53.31690000      44.67750000
C       45.70610000      46.67930000      44.68490000
C       53.32410000      44.69940000      54.31490000
C       46.70260000      44.67350000      45.70040000
C       53.29930000      55.32510000      45.69070000
C       55.47470000      56.00620000      51.23040000
C       51.32210000      55.35960000      56.57500000
C       55.99230000      51.26120000      55.46440000
C       44.53470000      43.99780000      51.24240000
C       44.62720000      56.57210000      48.65800000
C       55.36940000      43.42760000      48.67150000
C       48.77260000      44.53690000      55.99960000
C       48.65270000      55.36560000      43.42410000
C       51.34480000      44.62950000      43.42580000
C       44.00190000      48.75620000      55.46890000
C       43.42740000      51.32050000      44.63570000
C       56.57270000      48.67590000      44.63190000
C       56.58230000      55.36910000      51.32180000
C       55.35670000      51.35510000      56.57290000
C       51.22660000      55.99680000      55.46750000
C       43.42490000      44.63150000      51.33230000
C       56.00190000      44.53800000      48.76130000
C       43.99550000      55.46160000      48.75120000
C       44.63670000      48.66550000      56.57800000
C       55.46160000      48.76910000      44.00080000
C       44.53810000      51.22730000      44.00390000
C       48.68180000      43.42590000      55.36810000
C       51.25100000      43.99670000      44.53570000
C       48.74860000      55.99910000      44.53330000
C       53.99300000      48.03320000      52.96050000
C       52.96790000      53.99960000      48.01530000
C       48.00920000      52.97030000      53.98480000
C       46.00600000      51.97990000      52.96180000
C       46.01400000      48.00840000      47.02940000
C       53.98880000      51.99210000      47.02490000
C       47.03860000      46.00480000      48.02000000
C       47.01870000      53.99370000      51.96590000
C       52.97500000      46.01100000      51.97900000
C       51.99410000      47.04590000      53.98690000
C       51.96500000      52.98190000      46.00690000
C       48.03680000      47.01780000      46.00830000
C       48.00130000      53.99120000      52.95770000
C       53.99600000      52.97940000      48.01560000
C       52.97440000      48.04020000      53.98770000
C       51.98910000      46.01440000      52.97060000
C       48.02820000      46.00040000      47.03760000
C       51.97710000      54.00140000      47.03410000
C       46.00950000      47.02300000      48.02180000
C       53.99150000      47.04220000      51.97960000
C       46.00190000      52.96320000      51.97310000
C       47.02470000      51.97680000      53.98990000
C       52.95750000      51.99970000      46.00890000
C       47.04390000      47.99950000      46.01130000
C       54.44700000      47.59780000      46.55740000
C       46.55570000      54.44350000      47.59790000
C       47.57580000      46.57380000      54.46380000
C       45.55460000      52.39920000      46.55920000
C       45.53600000      47.57070000      53.42500000
C       54.45970000      52.44090000      53.41600000
C       53.44570000      45.55520000      47.59800000
C       53.42380000      54.46840000      52.39850000
C       46.57810000      45.53310000      52.42610000
C       52.41150000      53.44820000      54.44240000
C       52.40620000      46.55530000      45.55510000
C       47.59490000      53.44120000      45.55620000
C       47.57330000      54.46170000      46.57920000
C       54.46470000      46.57950000      47.57660000
C       46.55590000      47.59170000      54.44740000
C       52.42790000      45.53620000      46.57870000
C       47.59780000      45.55050000      53.44400000
C       52.41030000      54.46580000      53.41660000
C       45.53660000      53.41890000      47.57680000
C       54.44700000      53.45210000      52.38990000
C       45.55410000      46.55270000      52.40570000
C       53.43860000      52.43040000      54.44120000
C       46.57780000      52.42140000      45.53910000
C       53.42340000      47.57500000      45.53750000
C       49.16520000      54.51120000      55.54330000
C       55.52720000      49.19920000      54.49120000
C       54.50410000      55.53790000      49.16770000
C       50.82850000      45.51800000      55.52530000
C       50.81950000      54.52790000      44.44600000
C       49.17960000      45.46920000      44.44850000
C       44.47040000      50.81560000      54.49290000
C       44.45760000      49.16150000      45.48320000
C       55.54260000      50.83530000      45.47860000
C       45.50840000      44.46770000      49.18240000
C       45.46870000      55.55130000      50.82300000
C       54.52390000      44.45470000      50.83200000
C       54.51640000      49.19270000      55.54690000
C       49.16870000      55.52440000      54.48980000
C       55.55730000      54.52510000      49.15990000
C       45.47990000      50.82650000      55.54960000
C       54.48190000      50.82560000      44.47280000
C       45.51720000      49.17060000      44.47630000
C       50.83830000      44.45840000      54.51850000
C       49.18870000      44.46240000      45.50780000
C       50.81120000      55.53550000      45.50470000
C       44.45160000      45.47710000      49.17180000
C       55.53170000      45.51290000      50.82090000
C       44.46210000      54.49200000      50.81460000
C       53.64610000      55.39810000      48.06930000
C       48.06030000      53.65380000      55.38390000
C       55.39090000      48.09560000      53.63850000
C       46.36330000      44.60610000      48.08120000
C       46.32850000      55.39230000      51.92460000
C       53.66580000      44.61440000      51.93670000
C       51.93170000      46.37310000      55.38560000
C       51.92050000      53.66860000      44.60540000
C       48.07870000      46.32850000      44.60840000
C       44.60790000      51.91710000      53.63810000
C       44.61580000      48.05710000      46.34190000
C       55.38590000      51.94100000      46.33540000
C       55.39440000      53.66590000      48.05630000
C       53.66070000      48.08900000      55.38800000
C       48.06310000      55.38740000      53.63640000
C       44.61150000      46.33490000      48.06670000
C       55.39140000      46.36940000      51.92090000
C       44.60260000      53.63810000      51.91650000
C       46.33720000      51.93110000      55.38890000
C       53.62980000      51.93220000      44.61040000
C       46.36920000      48.06410000      44.61420000
C       51.94270000      44.61760000      53.66010000
C       48.08630000      44.60190000      46.36150000
C       51.91640000      55.39820000      46.35580000
C       51.84970000      55.56530000      50.82180000
C       50.83410000      51.85990000      55.49440000
C       55.53490000      50.85150000      51.83780000
C       48.16150000      44.46030000      50.84310000
C       48.12890000      55.52930000      49.17750000
C       51.86920000      44.48050000      49.17760000
C       49.15690000      48.16290000      55.52460000
C       49.17970000      51.86810000      44.48230000
C       50.82030000      48.12810000      44.48170000
C       44.46300000      49.15420000      51.84210000
C       44.48230000      50.81930000      48.13620000
C       55.51890000      49.17940000      48.13250000
C       55.52230000      51.87160000      50.81850000
C       51.85830000      50.84040000      55.49430000
C       50.83250000      55.55960000      51.84130000
C       44.48190000      48.13030000      50.82630000
C       55.53700000      48.16470000      49.15790000
C       44.46160000      51.83630000      49.15890000
C       48.13240000      49.17690000      55.50910000
C       51.83520000      49.15240000      44.46750000
C       48.16480000      50.84380000      44.46770000
C       49.17830000      44.47980000      51.86650000
C       50.84590000      44.46050000      48.16140000
C       49.15170000      55.54780000      48.16010000
C       44.03730000      54.25250000      49.45630000
C       49.48030000      43.99010000      54.27670000
C       54.24850000      49.46630000      44.04500000
C       55.95870000      45.74890000      49.46230000
C       56.01980000      54.28080000      50.51870000
C       43.98670000      45.72070000      50.52990000
C       50.52550000      55.95820000      54.25660000
C       50.54710000      44.03750000      45.74550000
C       49.45270000      55.96030000      45.74310000
C       45.75090000      50.52970000      44.04770000
C       45.72470000      49.46860000      56.01470000
C       54.26870000      50.55170000      56.00780000
C       54.27990000      43.98900000      49.47410000
C       44.04320000      49.45700000      54.25780000
C       49.46190000      54.27940000      43.98410000
C       45.71550000      56.01400000      49.46540000
C       54.26670000      55.96770000      50.52440000
C       45.74510000      44.04020000      50.54070000
C       55.95410000      50.55720000      54.25450000
C       43.99120000      50.51980000      45.72590000
C       56.00930000      49.47710000      45.72200000
C       50.53700000      45.71670000      43.98530000
C       49.46950000      45.75020000      55.95440000
C       50.52570000      54.26870000      56.00580000
C       51.29500000      55.41360000      53.19550000
C       53.21980000      51.30670000      55.39090000
C       55.40750000      53.23150000      51.27860000
C       48.71590000      44.59610000      53.22640000
C       48.69060000      55.40820000      46.80400000
C       51.30860000      44.59230000      46.80510000
C       46.77380000      48.70960000      55.40180000
C       46.80660000      51.30050000      44.59830000
C       53.19350000      48.69550000      44.59670000
C       44.59740000      46.77080000      51.29020000
C       44.59290000      53.19260000      48.69590000
C       55.40600000      46.80740000      48.69770000
C       55.40130000      51.31820000      53.19360000
C       51.29030000      53.22400000      55.39220000
C       53.20250000      55.41980000      51.28600000
C       44.59430000      48.69230000      53.19870000
C       55.40230000      48.71520000      46.77340000
C       44.59920000      51.28200000      46.77640000
C       48.69880000      46.80440000      55.40170000
C       51.28970000      46.77040000      44.59750000
C       48.71030000      53.22590000      44.59810000
C       46.80470000      44.59180000      51.30470000
C       53.22880000      44.59830000      48.71390000
C       46.77040000      55.40390000      48.71160000
