240
Lattice="100.0 0.0 0.0 0.0 100.0 0.0 0.0 0.0 100.0" Properties=species:S:1:pos:R:3 name=C-169395-3151-126 pressure=-0.400471884049684 spacegroup=C2 times_found=1 energy=-1764.74168986139 pbc="T T T"
C       56.78860000      51.73220000      52.76940000
C       52.91110000      56.28140000      51.78570000
C       51.64090000      52.84940000      56.75430000
C       43.66410000      51.75520000      47.31790000
C       56.78800000      48.26660000      47.22980000
C       43.66410000      48.24590000      52.68280000
C       47.28180000      56.68790000      48.46890000
C       52.90980000      43.71810000      48.21390000
C       47.28090000      43.31260000      51.53140000
C       48.03130000      52.62640000      43.25600000
C       51.63970000      47.15030000      43.24550000
C       48.03160000      47.37390000      56.74420000
C       56.75090000      48.31240000      52.76790000
C       52.77880000      43.87600000      51.70420000
C       51.48840000      47.32260000      56.68260000
C       43.26100000      48.28080000      47.16480000
C       56.75090000      51.68640000      47.23130000
C       43.26160000      51.72040000      52.83600000
C       47.41970000      43.22000000      48.06180000
C       52.77960000      56.12350000      48.29540000
C       47.42100000      56.78040000      51.93850000
C       48.15080000      47.10700000      43.49290000
C       51.48800000      52.67720000      43.31730000
C       48.15210000      52.89330000      56.50730000
C       54.05530000      45.73700000      52.86310000
C       52.72650000      54.11550000      44.77650000
C       44.65910000      52.93800000      54.36430000
C       46.39740000      45.16860000      46.68250000
C       54.05570000      54.26230000      47.13640000
C       46.39860000      54.83200000      53.31790000
C       47.06370000      54.18750000      54.60540000
C       52.72640000      45.88400000      55.22310000
C       47.06250000      45.81300000      45.39490000
C       54.66130000      52.99690000      46.42340000
C       44.65810000      47.06290000      45.63630000
C       54.66120000      47.00230000      53.57610000
C       54.17340000      54.40050000      52.92680000
C       52.92430000      45.70120000      44.65360000
C       45.49950000      47.11950000      54.02610000
C       45.75630000      55.25430000      47.28750000
C       54.17230000      45.59880000      47.07280000
C       45.75570000      44.74640000      52.71300000
C       46.74440000      46.42880000      54.69570000
C       52.92560000      54.29830000      55.34610000
C       46.74450000      53.57180000      45.30460000
C       54.75760000      46.88900000      46.38260000
C       45.49960000      52.88130000      45.97440000
C       54.75850000      53.11020000      53.61680000
C       47.89890000      45.44480000      54.48610000
C       54.42120000      48.05690000      45.45100000
C       45.14340000      54.82790000      48.47860000
C       51.79680000      44.92740000      44.97260000
C       47.89920000      54.55550000      45.51410000
C       51.79830000      55.07230000      55.02720000
C       45.25040000      48.30690000      54.89990000
C       54.42200000      51.94240000      54.54850000
C       45.25010000      51.69390000      45.10070000
C       55.06160000      54.57790000      51.73020000
C       45.14270000      45.17290000      51.52200000
C       55.06060000      45.42120000      48.26920000
C       48.29880000      55.01450000      54.79730000
C       54.34880000      51.83270000      45.47570000
C       45.41190000      45.38270000      47.84460000
C       51.55520000      54.75400000      45.22350000
C       48.29750000      44.98580000      45.20290000
C       51.55490000      45.24580000      54.77640000
C       44.97060000      51.78810000      55.10230000
C       54.34900000      48.16660000      54.52380000
C       44.96970000      48.21270000      44.89830000
C       54.98750000      45.49810000      51.71900000
C       45.41290000      54.61800000      52.15590000
C       54.98800000      54.50100000      48.28040000
C       43.02950000      48.23780000      48.55500000
C       48.80090000      42.80800000      48.10850000
C       48.12060000      48.43140000      42.96330000
C       57.37560000      48.27330000      51.44770000
C       43.03000000      51.76340000      51.44580000
C       57.37570000      51.72540000      48.55150000
C       51.45760000      43.35300000      51.68490000
C       48.80230000      57.19220000      51.89160000
C       51.45850000      56.64680000      48.31500000
C       51.55450000      48.70350000      57.00850000
C       48.12160000      51.56890000      57.03690000
C       51.55390000      51.29630000      42.99130000
C       43.20370000      51.74790000      48.66550000
C       48.68030000      56.94450000      48.37110000
C       48.04710000      51.26500000      42.77940000
C       57.38970000      51.74520000      51.43810000
C       43.20350000      48.25320000      51.33530000
C       57.38920000      48.25360000      48.56110000
C       51.61520000      56.86770000      51.80800000
C       48.67930000      43.05580000      51.62910000
C       51.61380000      43.13200000      48.19180000
C       51.63130000      51.46760000      57.01750000
C       48.04770000      48.73540000      57.22080000
C       51.63030000      48.53220000      42.98230000
C       58.00620000      50.72750000      49.26580000
C       49.50130000      57.67620000      50.80900000
C       50.57560000      49.39220000      57.69530000
C       42.45760000      50.73720000      50.72650000
C       58.00610000      49.27110000      50.73330000
C       42.45740000      49.26410000      49.27430000
C       50.89330000      57.40720000      49.31440000
C       49.49990000      42.32380000      49.19110000
C       50.89210000      42.59270000      50.68550000
C       49.12990000      49.12350000      42.30420000
C       50.57480000      50.60770000      42.30460000
C       49.13090000      50.87660000      57.69590000
C       58.00640000      49.26320000      49.27150000
C       49.45400000      42.44620000      50.66190000
C       50.59900000      50.83110000      57.66460000
C       42.48430000      49.26220000      50.71950000
C       58.00660000      50.73540000      50.72760000
C       42.48440000      50.73900000      49.28140000
C       50.94770000      42.48820000      49.22300000
C       49.45520000      57.55390000      49.33820000
C       50.94900000      57.51160000      50.77690000
C       49.10170000      50.57790000      42.22770000
C       50.59800000      49.16880000      42.33530000
C       49.10250000      49.42220000      57.77240000
C       49.24600000      45.10030000      44.21140000
C       44.09360000      49.31620000      45.10770000
C       45.53590000      44.47030000      48.93270000
C       50.39130000      45.43120000      55.54020000
C       49.24740000      54.89980000      55.78870000
C       50.39140000      54.56880000      44.45970000
C       55.19920000      49.30960000      54.38980000
C       44.09430000      50.68480000      54.89300000
C       55.19890000      50.68950000      45.60960000
C       54.87140000      44.53090000      50.74240000
C       45.53700000      55.53050000      51.06780000
C       54.87230000      55.46830000      49.25710000
C       48.95550000      54.45160000      44.55970000
C       44.25200000      50.75770000      45.22170000
C       45.39210000      55.59920000      49.62980000
C       50.69690000      54.94090000      55.91620000
C       48.95540000      45.54860000      55.44040000
C       50.69540000      45.05900000      44.08370000
C       55.22590000      50.77150000      54.39760000
C       44.25250000      49.24320000      54.77900000
C       55.22530000      49.22760000      45.60180000
C       54.92090000      55.50930000      50.71950000
C       45.39120000      44.40160000      50.37070000
C       54.91990000      44.48990000      49.28000000
C       44.06840000      47.13930000      46.84250000
C       47.27120000      44.09800000      46.96900000
C       47.03440000      46.92340000      44.45270000
C       55.83680000      47.24100000      52.82970000
C       44.06920000      52.86170000      53.15820000
C       55.83700000      52.75810000      47.16960000
C       52.91590000      44.83810000      52.79780000
C       47.27260000      55.90250000      53.03140000
C       52.91640000      55.16140000      47.20180000
C       52.63430000      47.06110000      55.85990000
C       47.03560000      53.07710000      55.54760000
C       52.63410000      52.93840000      44.13980000
C       44.63240000      52.84790000      47.13820000
C       46.94560000      55.87880000      47.32840000
C       46.97860000      52.74510000      44.18210000
C       55.90510000      52.83070000      52.84020000
C       44.63220000      47.15300000      52.86240000
C       55.90430000      47.16830000      47.15920000
C       53.07990000      55.36610000      52.92850000
C       46.94490000      44.12170000      52.67200000
C       53.07870000      44.63340000      47.07110000
C       52.78020000      53.09440000      55.92180000
C       46.97880000      47.25540000      55.81820000
C       52.77900000      46.90510000      44.07790000
C       53.40920000      51.86370000      55.55580000
C       56.02250000      53.57410000      51.65840000
C       51.88830000      55.63450000      53.73900000
C       46.24240000      51.55400000      44.14120000
C       53.40820000      48.13570000      44.44380000
C       46.24280000      48.44660000      55.85920000
C       44.54020000      53.57430000      48.39370000
C       56.02170000      46.42490000      48.34090000
C       44.53980000      46.42670000      51.60690000
C       48.10070000      55.53710000      46.56200000
C       51.88690000      44.36520000      46.26080000
C       48.10020000      44.46320000      53.43820000
C       53.32850000      48.26470000      55.53160000
C       55.97390000      46.47540000      51.66310000
C       51.65770000      44.68640000      53.51020000
C       46.23290000      48.13170000      44.26930000
C       53.32820000      51.73480000      44.46800000
C       46.23390000      51.86890000      55.73110000
C       44.41790000      46.41450000      48.02390000
C       55.97430000      53.52360000      48.33630000
C       44.41880000      53.58640000      51.97670000
C       48.46930000      44.08160000      46.24210000
C       51.65820000      55.31330000      46.48960000
C       48.47070000      55.91860000      53.75800000
C       56.84180000      47.11870000      49.29060000
C       49.25060000      56.19880000      47.22860000
C       46.92980000      49.45620000      56.61050000
C       43.81390000      47.15550000      50.60530000
C       56.84240000      52.88020000      50.70860000
C       43.81430000      52.84560000      49.39540000
C       50.93130000      56.42440000      52.99110000
C       49.24980000      43.80130000      52.77150000
C       50.92990000      43.57550000      47.00880000
C       52.70470000      49.21050000      43.72450000
C       46.92910000      50.54440000      43.38980000
C       52.70560000      50.78900000      56.27520000
C       56.82870000      52.86430000      49.27570000
C       49.50320000      43.40750000      46.97010000
C       46.96390000      50.89040000      56.51080000
C       43.74690000      52.89120000      50.84070000
C       56.82830000      47.13450000      50.72350000
C       43.74630000      47.10990000      49.16000000
C       50.69020000      43.92490000      52.76570000
C       49.50470000      56.59260000      53.02990000
C       50.69090000      56.07500000      47.23420000
C       52.66770000      50.65060000      43.72990000
C       46.96300000      49.11020000      43.48950000
C       52.66830000      49.34900000      56.26980000
C       46.45320000      43.34250000      49.01470000
C       49.17260000      46.20930000      43.30100000
C       43.21750000      49.32910000      46.26170000
C       53.73060000      43.65770000      50.73480000
C       46.45450000      56.65810000      50.98570000
C       53.73160000      56.34160000      49.26480000
C       50.45340000      46.38790000      56.63440000
C       49.17400000      53.79080000      56.69910000
C       50.45320000      53.61200000      43.36560000
C       56.46700000      49.30090000      53.67010000
C       43.21810000      50.67200000      53.73910000
C       56.46670000      50.69810000      46.32910000
C       46.38160000      56.66230000      49.53080000
C       48.99790000      53.57580000      43.39400000
C       43.38960000      50.79240000      46.37110000
C       53.78850000      56.39310000      50.73760000
C       46.38050000      43.33830000      50.46960000
C       53.78730000      43.60620000      49.26200000
C       50.64480000      53.81350000      56.82370000
C       48.99810000      46.42440000      56.60610000
C       50.64340000      46.18640000      43.17630000
C       56.48940000      50.74870000      53.67450000
C       43.38990000      49.20870000      53.62960000
C       56.48890000      49.25020000      46.32470000
