240
Lattice="100.0 0.0 0.0 0.0 100.0 0.0 0.0 0.0 100.0" Properties=species:S:1:pos:R:3 name=C-169395-3151-81 pressure=-8.35057702650019 energy=-1751.28119243171 spacegroup=C1 times_found=1 pbc="T T T"
C       48.87960000      54.87810000      55.42130000
C       55.36850000      55.68820000      49.43330000
C       55.18040000      49.51490000      55.02760000
C       49.50680000      44.93460000      44.47690000
C       51.04460000      54.94000000      44.71480000
C       51.08270000      45.13330000      55.44960000
C       55.26520000      44.19870000      50.69410000
C       44.98930000      55.42380000      50.40650000
C       44.75410000      44.55160000      49.30520000
C       55.46660000      50.74960000      44.64120000
C       44.62390000      48.95570000      45.10020000
C       44.78560000      50.48350000      55.03090000
C       50.34700000      55.08860000      55.54120000
C       45.18960000      55.33870000      48.93490000
C       44.73370000      48.99440000      54.97310000
C       50.98770000      45.09520000      44.52290000
C       49.55560000      55.00190000      44.78720000
C       49.61460000      44.92620000      55.55040000
C       44.76630000      44.55200000      50.81130000
C       55.25580000      55.56270000      50.92300000
C       55.25540000      44.18730000      49.20730000
C       44.57140000      50.43520000      44.93310000
C       55.44040000      49.24110000      44.63720000
C       55.21350000      51.00960000      54.93420000
C       56.77230000      50.67150000      51.71530000
C       50.59930000      51.93130000      57.32470000
C       51.92210000      56.89480000      50.90230000
C       56.51750000      49.20910000      48.04450000
C       42.87850000      50.68670000      48.13240000
C       42.92880000      49.29530000      51.86420000
C       50.74020000      48.17430000      42.67110000
C       49.25890000      51.84350000      43.12090000
C       49.36170000      48.08080000      57.33210000
C       51.83540000      42.96550000      49.24700000
C       48.32580000      57.12290000      49.23330000
C       48.16950000      43.44340000      50.75710000
C       43.15840000      50.74530000      51.84690000
C       49.13570000      51.78410000      57.30030000
C       48.21110000      57.07940000      50.69700000
C       42.75610000      49.22490000      48.17820000
C       56.58940000      50.67400000      48.02430000
C       56.60460000      49.21610000      51.76390000
C       49.27660000      48.13490000      42.79810000
C       50.70820000      51.85740000      42.87940000
C       50.82680000      48.22740000      57.31590000
C       48.15930000      43.44430000      49.29130000
C       52.01400000      57.06000000      49.43870000
C       51.84650000      42.96920000      50.72400000
C       50.75100000      43.82810000      47.11500000
C       43.11650000      47.07050000      50.78340000
C       47.21500000      50.67470000      43.79060000
C       50.67290000      56.20390000      52.89580000
C       49.33290000      43.94530000      52.84620000
C       49.57170000      56.58970000      47.14830000
C       43.76740000      52.80670000      49.19390000
C       56.03260000      47.07170000      49.17660000
C       56.47790000      52.87620000      50.57800000
C       47.15100000      49.05900000      56.62290000
C       52.81300000      50.95110000      56.62800000
C       52.93710000      49.31010000      42.97940000
C       49.28330000      43.94630000      47.17870000
C       56.05120000      47.07560000      50.66110000
C       52.92660000      50.75810000      43.03270000
C       49.20120000      56.25520000      52.87550000
C       50.79990000      43.83020000      52.87350000
C       51.01920000      56.48500000      47.20010000
C       56.34440000      52.85240000      49.12030000
C       43.07630000      47.04490000      49.33480000
C       43.83290000      52.77970000      50.66680000
C       52.87350000      49.49950000      56.70880000
C       47.09420000      50.50990000      56.69570000
C       47.16630000      49.20380000      43.70840000
C       47.53690000      46.82170000      56.10980000
C       47.29820000      55.79400000      47.35340000
C       55.27190000      47.27230000      46.81710000
C       47.45500000      52.97250000      44.65650000
C       52.66880000      47.12150000      43.92430000
C       52.42050000      53.18940000      56.10330000
C       46.98780000      44.72670000      52.70970000
C       53.01390000      55.42970000      52.77950000
C       53.08990000      44.01870000      47.34160000
C       55.70610000      52.64570000      52.85380000
C       44.12190000      47.33470000      52.94610000
C       44.11810000      52.47690000      46.88680000
C       52.67440000      47.22760000      55.91580000
C       53.27360000      56.00050000      47.50650000
C       44.03800000      47.30100000      47.14790000
C       52.69650000      52.91670000      44.05140000
C       47.46410000      46.89010000      44.01500000
C       47.30120000      52.77200000      55.87050000
C       53.12970000      44.04690000      52.59360000
C       46.90620000      55.89440000      52.48310000
C       46.94060000      44.72890000      47.36810000
C       44.67060000      52.56810000      52.98160000
C       55.27530000      47.34740000      53.00380000
C       55.39960000      52.70250000      46.85100000
C       56.56010000      48.43220000      50.63640000
C       48.41260000      50.58980000      57.31820000
C       50.95480000      57.07830000      48.55500000
C       56.74850000      51.45640000      49.13410000
C       42.63980000      48.44720000      49.31650000
C       43.15680000      51.50330000      50.69090000
C       48.45620000      49.23770000      42.99390000
C       51.51560000      50.75990000      42.62950000
C       51.55150000      49.42180000      57.32620000
C       50.75210000      43.20720000      51.53770000
C       49.27750000      56.93460000      51.57090000
C       49.28690000      43.37130000      48.50580000
C       42.69770000      48.47680000      50.76990000
C       51.49530000      50.87910000      57.29510000
C       49.50670000      57.14380000      48.49910000
C       43.05730000      51.51640000      49.23260000
C       56.52980000      48.43500000      49.18240000
C       56.86080000      51.46030000      50.57920000
C       51.52900000      49.30690000      42.55870000
C       48.48940000      50.69390000      43.11090000
C       48.46680000      49.13280000      57.29450000
C       49.31040000      43.36880000      51.51960000
C       50.73320000      56.85640000      51.60550000
C       50.72790000      43.20720000      48.45320000
C       51.57220000      47.10320000      56.78630000
C       46.96340000      56.68570000      51.28250000
C       56.16850000      51.43580000      46.86970000
C       51.47410000      52.99010000      43.33920000
C       48.65760000      46.91180000      43.21010000
C       48.39130000      52.90300000      56.75600000
C       46.97970000      43.89290000      48.58340000
C       53.22100000      56.73620000      48.75500000
C       53.07750000      43.23150000      51.40030000
C       56.10340000      48.57410000      52.96490000
C       43.77710000      51.38650000      53.00310000
C       43.24430000      48.46770000      47.04560000
C       48.75530000      46.85580000      56.88930000
C       53.06510000      56.35650000      51.62070000
C       43.30330000      51.29280000      46.90730000
C       48.63160000      52.99690000      43.75660000
C       51.49010000      47.03270000      43.14610000
C       51.20200000      53.15670000      56.88050000
C       53.05460000      43.21830000      48.54670000
C       47.18880000      56.64270000      48.47480000
C       47.00520000      43.89300000      51.49130000
C       43.38590000      48.54250000      53.00660000
C       56.41490000      51.42640000      52.87980000
C       56.08750000      48.50170000      46.86360000
C       48.41980000      44.99780000      54.77190000
C       45.35890000      54.38900000      47.88480000
C       54.50310000      48.22960000      44.65850000
C       48.48120000      54.95100000      45.63660000
C       52.07200000      45.27120000      45.43320000
C       51.54980000      55.03930000      54.77860000
C       44.80700000      45.48790000      51.82650000
C       55.10960000      54.57220000      51.85990000
C       55.11680000      45.09960000      48.12140000
C       54.32720000      52.13170000      54.85010000
C       45.61960000      47.87810000      54.85790000
C       45.38500000      51.60170000      44.99920000
C       52.12680000      45.31180000      54.49700000
C       55.27470000      54.83770000      48.27090000
C       45.54770000      47.88560000      45.27340000
C       52.17650000      54.80200000      45.57810000
C       48.33370000      45.01540000      45.28370000
C       47.85560000      54.69130000      54.44720000
C       55.13640000      45.13180000      51.76520000
C       45.02700000      54.62580000      51.58740000
C       44.77370000      45.48160000      48.28420000
C       45.62670000      51.56300000      54.98760000
C       54.34900000      48.42490000      55.01480000
C       54.54960000      51.78280000      44.69940000
C       45.80600000      45.62970000      52.90400000
C       44.90760000      52.60890000      45.78500000
C       53.06930000      46.34410000      45.08960000
C       46.48450000      54.66330000      46.92500000
C       54.25550000      44.69290000      47.13890000
C       54.14060000      54.45760000      52.95080000
C       45.28200000      46.90980000      53.72780000
C       54.62910000      53.11140000      53.71690000
C       54.35650000      47.13320000      45.63590000
C       52.55380000      54.27880000      55.30160000
C       47.40490000      45.72920000      55.31390000
C       47.32260000      54.07600000      45.66180000
C       54.28940000      44.74000000      52.76500000
C       54.44770000      52.87270000      45.69860000
C       47.31820000      45.77410000      44.77970000
C       54.42200000      55.30000000      47.31010000
C       45.75660000      45.62890000      47.19680000
C       45.79510000      55.11590000      52.60230000
C       54.31030000      47.24790000      54.14670000
C       45.65830000      52.71460000      54.10400000
C       45.21100000      46.90140000      46.37820000
C       46.89780000      53.56710000      54.71470000
C       53.08220000      46.42100000      54.76880000
C       53.14760000      53.69140000      45.20450000
C       50.82430000      54.16420000      43.52960000
C       54.26600000      43.14890000      50.68490000
C       43.67490000      50.62060000      54.15720000
C       50.98880000      45.87240000      56.67920000
C       48.96580000      54.13670000      56.65210000
C       49.43470000      45.75230000      43.28960000
C       54.36850000      56.71750000      49.52320000
C       45.84770000      43.65320000      49.32890000
C       45.82650000      56.59910000      50.47550000
C       43.39860000      49.08190000      45.84140000
C       56.36260000      50.68900000      45.73450000
C       56.24220000      49.37070000      54.09590000
C       49.40350000      54.14720000      43.66410000
C       45.85930000      43.65300000      50.76850000
C       56.33970000      50.79270000      54.07660000
C       49.56550000      45.72960000      56.75080000
C       50.38840000      54.28020000      56.73630000
C       50.86250000      45.83480000      43.29930000
C       45.95640000      56.55070000      49.05120000
C       54.25500000      43.13930000      49.24410000
C       54.25650000      56.57110000      50.95360000
C       56.33340000      49.25180000      45.73370000
C       43.38710000      50.50920000      45.75280000
C       43.55630000      49.19880000      54.17960000
C       48.01910000      55.63330000      53.32750000
C       55.70360000      53.48360000      48.06240000
C       53.35200000      48.43740000      55.97530000
C       48.17310000      44.55410000      46.61250000
C       52.12480000      55.76570000      46.69770000
C       51.98930000      44.38310000      53.37480000
C       55.52520000      46.50450000      51.81980000
C       44.48700000      53.32590000      51.76030000
C       43.84700000      46.53460000      48.30290000
C       53.46170000      51.77090000      43.81160000
C       46.66960000      48.02790000      44.31940000
C       46.62660000      51.56200000      55.94320000
C       51.75710000      55.57340000      53.48380000
C       44.39510000      53.28350000      48.02270000
C       46.70030000      47.94910000      55.87400000
C       51.93800000      44.36390000      46.57810000
C       48.50130000      55.87490000      46.66480000
C       48.23580000      44.55020000      53.44030000
C       43.89850000      46.55790000      51.80450000
C       55.88650000      53.42170000      51.70520000
C       55.50300000      46.47080000      48.03400000
C       46.68460000      51.76530000      44.46010000
C       53.44620000      48.26740000      43.73660000
C       53.26150000      52.06120000      55.87810000
