240
Lattice="100.0 0.0 0.0 0.0 100.0 0.0 0.0 0.0 100.0" Properties=species:S:1:pos:R:3 name=C-187658-4107-99 pressure=-204.812040011759 energy=-1793.41464325597 spacegroup=C2 times_found=1 pbc="T T T"
C       50.71310000      43.72970000      47.35470000
C       47.34230000      50.61590000      43.97990000
C       43.79750000      47.31170000      50.69400000
C       49.28710000      56.27030000      47.35470000
C       49.11610000      43.90420000      52.57160000
C       50.88360000      56.09580000      52.57170000
C       52.65820000      49.38410000      43.98010000
C       52.59620000      50.78190000      56.20640000
C       47.40330000      49.21810000      56.20620000
C       56.20250000      52.68830000      50.69450000
C       55.95760000      47.38580000      49.29590000
C       44.04250000      52.61430000      49.29540000
C       50.57450000      43.83140000      52.58900000
C       47.38840000      50.66940000      56.17050000
C       43.73390000      47.32880000      49.24600000
C       49.42530000      56.16860000      52.58900000
C       49.26520000      43.77730000      47.31420000
C       50.73500000      56.22270000      47.31430000
C       52.61110000      49.33060000      56.17080000
C       52.61780000      50.86230000      44.00000000
C       47.38270000      49.13770000      43.99980000
C       56.26610000      52.67120000      49.24650000
C       55.91980000      47.39960000      50.78630000
C       44.08010000      52.60040000      50.78590000
C       47.00490000      44.66360000      53.73360000
C       53.97570000      47.28230000      44.48790000
C       44.71310000      53.75750000      47.10730000
C       52.99480000      55.33640000      53.73380000
C       52.80440000      44.26360000      46.22070000
C       47.19590000      55.73640000      46.22050000
C       46.02470000      52.71770000      44.48760000
C       46.20780000      47.15810000      55.71860000
C       53.79170000      52.84190000      55.71890000
C       55.28710000      46.24250000      47.10770000
C       55.59520000      54.00820000      52.74300000
C       44.40460000      45.99180000      52.74250000
C       47.22920000      44.39120000      45.98540000
C       53.89220000      47.26730000      55.55580000
C       44.80090000      53.74340000      52.94760000
C       52.77110000      55.60880000      45.98570000
C       52.66210000      44.31060000      53.77240000
C       47.33760000      55.68940000      53.77220000
C       46.10730000      52.73270000      55.55550000
C       46.22910000      46.97550000      44.67590000
C       53.77130000      53.02450000      44.67620000
C       55.19880000      46.25660000      52.94800000
C       55.78050000      53.86460000      47.16260000
C       44.21970000      46.13540000      47.16210000
C       44.41360000      46.19900000      51.31590000
C       51.42330000      44.37390000      46.29640000
C       46.23700000      51.28420000      44.55120000
C       55.58640000      53.80100000      51.31630000
C       55.30170000      46.32390000      48.57210000
C       44.69840000      53.67610000      48.57170000
C       48.57700000      55.62610000      46.29630000
C       48.45650000      44.60480000      53.64770000
C       51.54320000      55.39520000      53.64790000
C       53.76340000      48.71580000      44.55150000
C       53.68300000      51.46500000      55.58820000
C       46.31660000      48.53500000      55.58790000
C       44.34230000      46.24050000      48.54220000
C       51.28050000      44.45480000      53.66450000
C       46.29600000      51.30330000      55.53780000
C       55.65780000      53.75950000      48.54270000
C       55.24840000      46.33530000      51.48720000
C       44.75150000      53.66470000      51.48680000
C       48.71920000      55.54520000      53.66440000
C       48.65310000      44.41310000      46.20980000
C       51.34720000      55.58690000      46.21000000
C       53.70360000      48.69670000      55.53810000
C       53.69360000      51.57210000      44.64460000
C       46.30680000      48.42790000      44.64430000
C       46.45070000      45.34700000      54.81990000
C       55.29580000      46.90970000      44.78900000
C       45.38790000      54.83190000      46.51820000
C       53.54890000      54.65300000      54.82030000
C       53.58730000      45.16690000      45.43960000
C       46.41310000      54.83310000      45.43940000
C       44.70460000      53.09030000      44.78860000
C       45.39210000      46.38790000      54.83580000
C       54.60750000      53.61210000      54.83620000
C       54.61230000      45.16810000      46.51860000
C       55.30130000      55.33380000      53.09650000
C       44.69850000      44.66620000      53.09600000
C       46.89660000      44.68900000      44.65670000
C       55.20910000      46.89870000      55.24830000
C       45.49430000      54.81490000      53.52690000
C       53.10380000      55.31100000      44.65690000
C       53.45630000      45.17860000      54.58060000
C       46.54330000      54.82140000      54.58040000
C       44.79050000      53.10120000      55.24790000
C       45.14190000      46.40360000      45.34950000
C       54.85840000      53.59640000      45.34990000
C       54.50550000      45.18510000      53.52720000
C       54.88260000      54.66100000      46.38270000
C       45.11770000      45.33900000      46.38230000
C       56.76950000      51.47790000      48.55620000
C       48.67900000      56.74140000      51.44820000
C       51.46900000      48.55580000      56.68360000
C       43.23060000      48.52210000      48.55570000
C       43.52220000      51.41190000      51.49110000
C       56.47760000      48.58810000      51.49170000
C       51.32090000      43.25860000      51.44830000
C       51.52500000      56.70810000      48.46010000
C       48.47510000      43.29190000      48.45990000
C       48.53050000      51.44420000      56.68350000
C       48.59660000      48.48440000      43.46800000
C       51.40390000      51.51560000      43.46810000
C       56.64440000      51.51430000      51.47200000
C       48.60110000      56.80810000      48.53370000
C       51.51540000      48.59370000      43.47370000
C       43.35550000      48.48570000      51.47150000
C       43.42900000      51.45380000      48.60030000
C       56.57110000      48.54620000      48.60080000
C       51.39900000      43.19190000      48.53380000
C       51.58210000      56.63980000      51.37690000
C       48.41780000      43.36020000      51.37680000
C       48.48510000      51.40630000      43.47360000
C       48.57790000      48.50360000      56.72720000
C       51.42160000      51.49640000      56.72740000
C       50.60520000      42.32670000      49.27070000
C       49.25900000      50.70010000      42.57320000
C       42.46820000      49.29340000      50.77980000
C       49.39490000      57.67330000      49.27070000
C       49.13880000      42.41200000      50.68120000
C       50.86110000      57.58800000      50.68130000
C       50.74160000      49.29990000      42.57330000
C       50.70160000      50.72580000      57.61570000
C       49.29780000      49.27420000      57.61560000
C       57.53180000      50.70660000      50.78040000
C       57.49740000      49.24410000      49.35290000
C       42.50270000      50.75590000      49.35230000
C       50.57530000      42.35850000      50.70840000
C       49.26870000      50.72090000      57.60820000
C       42.41050000      49.31500000      49.34180000
C       49.42460000      57.64150000      50.70830000
C       49.16310000      42.38010000      49.23890000
C       50.83700000      57.61990000      49.23900000
C       50.73070000      49.27910000      57.60830000
C       50.69820000      50.73880000      42.57240000
C       49.30240000      49.26120000      42.57230000
C       57.58960000      50.68500000      49.34240000
C       57.44460000      49.26560000      50.78490000
C       42.55540000      50.73440000      50.78430000
C       46.18040000      44.62610000      46.94890000
C       47.27350000      46.01820000      44.41920000
C       44.24330000      47.17460000      46.15480000
C       53.81980000      55.37390000      46.94920000
C       53.69250000      44.31170000      52.74710000
C       46.30720000      55.68830000      52.74680000
C       52.72690000      53.98180000      44.41940000
C       52.90450000      46.24030000      55.30360000
C       47.09510000      53.75970000      55.30340000
C       55.75700000      52.82540000      46.15520000
C       55.46160000      47.28250000      53.92350000
C       44.53800000      52.71750000      53.92310000
C       46.02050000      44.41330000      52.70730000
C       47.24590000      46.14550000      55.69820000
C       44.67350000      46.96070000      53.77670000
C       53.97930000      55.58670000      52.70760000
C       53.80080000      44.27280000      47.27790000
C       46.19940000      55.72720000      47.27760000
C       52.75370000      53.85450000      55.69850000
C       53.01800000      46.23500000      44.73030000
C       46.98240000      53.76500000      44.73010000
C       55.32620000      53.03920000      53.77710000
C       55.54210000      47.26660000      46.12370000
C       44.45830000      52.73340000      46.12330000
C       53.80990000      55.53500000      51.26790000
C       51.37480000      53.72570000      55.54780000
C       55.37030000      51.58210000      53.70130000
C       46.19000000      44.46500000      51.26760000
C       46.35090000      55.60240000      48.64960000
C       53.64920000      44.39760000      48.64990000
C       48.62470000      46.27430000      55.54760000
C       48.43540000      53.70030000      44.65400000
C       51.56500000      46.29970000      44.65410000
C       44.62940000      48.41790000      53.70080000
C       44.48550000      51.30930000      46.31340000
C       55.51480000      48.69070000      46.31380000
C       53.76060000      55.44230000      48.40590000
C       51.29150000      53.78060000      44.50480000
C       55.61050000      51.45290000      46.30300000
C       46.23960000      44.55770000      48.40560000
C       46.40680000      55.57130000      51.37370000
C       53.59310000      44.42870000      51.37400000
C       48.70900000      46.21940000      44.50470000
C       48.54780000      53.68390000      55.38360000
C       51.45180000      46.31610000      55.38370000
C       44.38980000      48.54710000      46.30260000
C       44.58210000      51.28060000      53.74390000
C       55.41760000      48.71940000      53.74440000
C       50.66290000      45.35480000      54.60150000
C       54.68620000      50.82990000      45.39500000
C       45.48830000      54.65360000      50.72760000
C       49.33680000      54.64510000      54.60140000
C       49.40720000      45.25740000      45.30680000
C       50.59320000      54.74260000      45.30690000
C       45.31420000      49.17010000      45.39460000
C       45.36740000      50.56680000      54.70690000
C       54.63220000      49.43320000      54.70730000
C       54.51160000      45.34640000      50.72790000
C       54.74900000      54.68980000      49.15860000
C       45.25110000      45.31020000      49.15820000
C       50.81150000      45.29160000      45.37350000
C       54.60710000      50.83850000      54.68470000
C       45.46280000      54.66290000      49.31250000
C       49.18890000      54.70840000      45.37340000
C       49.24560000      45.36530000      54.62380000
C       50.75410000      54.63470000      54.62390000
C       45.39260000      49.16150000      54.68430000
C       45.29600000      50.57320000      45.36680000
C       54.70440000      49.42680000      45.36720000
C       54.53730000      45.33710000      49.31290000
C       54.76820000      54.73110000      50.56550000
C       45.23180000      45.26890000      50.56500000
C       49.32530000      47.34920000      56.17880000
C       56.12790000      49.31810000      47.41940000
C       47.45400000      56.26610000      49.28750000
C       50.67420000      52.65080000      56.17880000
C       50.86210000      47.37570000      43.99890000
C       49.13840000      52.62430000      43.99890000
C       43.87230000      50.68190000      47.41890000
C       43.96520000      49.13680000      52.64130000
C       56.03460000      50.86320000      52.64180000
C       52.54600000      43.73390000      49.28770000
C       52.72470000      56.12280000      50.59140000
C       47.27530000      43.87720000      50.59120000
C       49.38480000      47.33410000      43.96410000
C       55.99470000      49.38350000      52.64780000
C       47.49160000      56.23850000      50.71830000
C       50.61560000      52.66590000      43.96410000
C       50.78180000      47.37010000      56.11570000
C       49.21770000      52.62990000      56.11560000
C       44.00510000      50.61650000      52.64730000
C       43.77910000      49.23400000      47.39870000
C       56.22110000      50.76600000      47.39920000
C       52.50830000      43.76150000      50.71850000
C       52.70740000      56.12350000      49.11490000
C       47.29270000      43.87650000      49.11460000
