240
Lattice="100.0 0.0 0.0 0.0 100.0 0.0 0.0 0.0 100.0" Properties=species:S:1:pos:R:3 name=C-187658-4107-119 pressure=0.00629714874465157 energy=-1779.62917599966 spacegroup=Oh times_found=1 pbc="T T T"
C       54.97890000      52.95350000      46.03930000
C       46.03970000      54.97900000      52.95380000
C       52.95350000      46.03900000      54.97870000
C       45.02140000      52.95360000      53.96090000
C       54.97890000      47.04610000      53.96040000
C       45.02080000      47.04680000      46.03940000
C       53.96080000      54.97880000      47.04650000
C       46.03900000      45.02140000      47.04640000
C       53.96050000      45.02080000      52.95320000
C       47.04610000      46.03970000      45.02100000
C       52.95360000      53.96070000      45.02110000
C       47.04680000      53.96060000      54.97910000
C       46.03960000      52.95350000      54.97910000
C       52.95360000      54.97890000      46.03940000
C       54.97880000      46.03900000      52.95320000
C       53.96060000      52.95350000      45.02110000
C       53.96070000      47.04610000      54.97870000
C       46.03900000      47.04680000      45.02110000
C       47.04680000      54.97890000      53.96090000
C       47.04610000      45.02140000      46.03920000
C       52.95340000      45.02080000      53.96040000
C       45.02080000      46.03970000      47.04650000
C       45.02140000      53.96080000      52.95380000
C       54.97900000      53.96050000      47.04640000
C       53.96100000      52.95320000      54.97890000
C       54.97920000      53.96030000      52.95350000
C       52.95390000      54.97860000      53.96080000
C       46.03930000      52.95390000      45.02130000
C       53.96040000      47.04650000      45.02090000
C       46.03940000      47.04650000      54.97890000
C       45.02120000      53.96100000      47.04680000
C       54.97860000      46.03920000      47.04620000
C       45.02100000      46.03950000      52.95360000
C       47.04660000      54.97920000      46.03960000
C       52.95320000      45.02110000      46.03910000
C       47.04640000      45.02110000      53.96060000
C       54.97920000      52.95320000      53.96060000
C       52.95390000      53.96030000      54.97900000
C       53.96100000      54.97860000      52.95360000
C       45.02110000      52.95390000      46.03960000
C       45.02110000      47.04650000      53.96070000
C       54.97860000      47.04640000      46.03910000
C       47.04650000      53.96100000      45.02130000
C       47.04640000      46.03930000      54.97890000
C       52.95320000      46.03940000      45.02090000
C       46.03950000      54.97920000      47.04680000
C       46.03920000      45.02120000      52.95350000
C       53.96030000      45.02100000      47.04620000
C       44.23020000      53.74180000      48.25520000
C       48.25470000      44.23000000      53.74130000
C       53.74120000      48.25490000      44.22990000
C       55.77020000      53.74120000      51.74510000
C       44.22990000      46.25870000      51.74520000
C       55.76970000      46.25830000      48.25450000
C       51.74480000      44.23010000      46.25820000
C       48.25500000      55.77020000      46.25880000
C       51.74550000      55.76970000      53.74160000
C       46.25860000      48.25480000      55.77000000
C       53.74180000      51.74480000      55.76990000
C       46.25840000      51.74550000      44.23020000
C       48.25490000      53.74180000      44.23020000
C       53.74120000      44.23000000      48.25450000
C       44.23010000      48.25500000      53.74160000
C       51.74550000      53.74120000      55.77000000
C       51.74480000      46.25860000      44.22990000
C       48.25490000      46.25840000      55.76990000
C       46.25830000      44.23020000      51.74500000
C       46.25870000      55.77020000      48.25520000
C       53.74180000      55.76970000      51.74520000
C       55.76970000      48.25470000      46.25830000
C       55.77010000      51.74470000      53.74140000
C       44.23000000      51.74550000      46.25880000
C       51.39890000      52.41600000      43.84520000
C       43.84530000      51.39920000      52.41610000
C       52.41560000      43.84500000      51.39870000
C       48.60130000      52.41570000      56.15500000
C       51.39910000      47.58390000      56.15470000
C       48.60070000      47.58440000      43.84510000
C       56.15480000      51.39880000      47.58400000
C       43.84500000      48.60140000      47.58430000
C       56.15490000      48.60070000      52.41560000
C       47.58380000      43.84530000      48.60090000
C       52.41610000      56.15480000      48.60120000
C       47.58450000      56.15490000      51.39930000
C       43.84530000      52.41610000      51.39930000
C       52.41570000      51.39910000      43.84510000
C       51.39880000      43.84500000      52.41560000
C       56.15490000      52.41560000      48.60090000
C       56.15480000      47.58380000      51.39870000
C       43.84500000      47.58450000      48.60110000
C       47.58440000      51.39890000      56.15500000
C       47.58390000      48.60140000      43.84520000
C       52.41600000      48.60070000      56.15470000
C       48.60070000      43.84530000      47.58400000
C       48.60140000      56.15480000      52.41610000
C       51.39920000      56.15490000      47.58430000
C       49.99970000      48.00450000      43.96720000
C       43.96720000      50.00030000      48.00450000
C       48.00400000      43.96740000      49.99980000
C       50.00010000      48.00410000      56.03260000
C       50.00030000      51.99550000      56.03280000
C       49.99990000      51.99590000      43.96740000
C       56.03280000      49.99970000      51.99550000
C       43.96740000      50.00020000      51.99590000
C       56.03260000      49.99980000      48.00410000
C       51.99550000      43.96720000      49.99970000
C       48.00450000      56.03280000      50.00030000
C       51.99600000      56.03260000      50.00020000
C       43.96720000      48.00450000      50.00010000
C       48.00410000      50.00030000      43.96740000
C       49.99970000      43.96740000      48.00410000
C       56.03260000      48.00400000      49.99970000
C       56.03280000      51.99550000      49.99990000
C       43.96740000      51.99600000      50.00030000
C       51.99590000      49.99970000      56.03260000
C       51.99550000      50.00010000      43.96720000
C       48.00450000      49.99990000      56.03280000
C       49.99980000      43.96720000      51.99550000
C       50.00020000      56.03280000      48.00450000
C       50.00030000      56.03260000      51.99590000
C       48.25450000      44.23030000      46.25840000
C       46.25820000      48.25520000      44.23010000
C       44.22980000      46.25880000      48.25490000
C       51.74500000      44.22980000      53.74120000
C       48.25520000      55.76990000      53.74180000
C       51.74530000      55.77000000      46.25870000
C       53.74160000      48.25450000      55.76980000
C       46.25880000      51.74510000      55.77010000
C       53.74140000      51.74520000      44.23000000
C       55.76980000      46.25820000      51.74480000
C       44.23030000      53.74170000      51.74550000
C       55.77010000      53.74130000      48.25480000
C       46.25820000      44.23030000      48.25480000
C       44.22990000      48.25530000      46.25860000
C       48.25450000      46.25880000      44.23000000
C       53.74130000      44.22980000      51.74480000
C       53.74170000      55.76980000      48.25500000
C       46.25880000      55.77000000      51.74550000
C       55.77000000      48.25450000      53.74120000
C       55.76990000      51.74500000      46.25840000
C       44.23030000      51.74530000      53.74170000
C       51.74510000      46.25820000      55.76980000
C       51.74510000      53.74160000      44.23010000
C       48.25520000      53.74140000      55.77010000
C       50.00010000      48.98980000      55.04490000
C       55.04490000      49.99980000      48.98980000
C       48.99020000      55.04500000      50.00020000
C       49.99980000      48.99020000      44.95500000
C       49.99990000      51.01020000      44.95510000
C       50.00020000      51.00980000      55.04500000
C       44.95510000      50.00020000      51.01020000
C       55.04490000      49.99970000      51.00980000
C       44.95510000      50.00030000      48.99020000
C       51.01020000      55.04490000      50.00020000
C       48.98980000      44.95510000      49.99980000
C       51.00980000      44.95500000      49.99980000
C       55.04490000      48.98980000      49.99980000
C       48.99020000      49.99990000      55.04490000
C       50.00020000      55.04500000      48.99020000
C       44.95500000      48.99020000      50.00010000
C       44.95510000      51.01020000      50.00020000
C       55.04500000      51.00980000      49.99990000
C       51.00980000      50.00010000      44.95510000
C       51.01020000      49.99980000      55.04490000
C       48.98980000      50.00020000      44.95510000
C       50.00030000      55.04490000      51.01020000
C       49.99970000      44.95510000      48.98980000
C       49.99980000      44.95500000      51.00980000
C       55.71930000      49.26840000      54.70100000
C       54.70150000      55.71900000      49.26890000
C       49.26920000      54.70110000      55.71940000
C       44.28070000      49.26930000      45.29890000
C       55.71900000      50.73110000      45.29860000
C       44.28100000      50.73120000      54.70150000
C       45.29900000      55.71940000      50.73150000
C       54.70100000      44.28060000      50.73080000
C       45.29850000      44.28110000      49.26880000
C       50.73120000      54.70140000      44.28100000
C       49.26840000      45.29900000      44.28070000
C       50.73110000      45.29850000      55.71900000
C       54.70140000      49.26840000      55.71900000
C       49.26930000      55.71900000      54.70150000
C       55.71940000      54.70100000      49.26880000
C       45.29850000      49.26930000      44.28100000
C       45.29900000      50.73120000      55.71930000
C       54.70110000      50.73120000      44.28070000
C       50.73130000      55.71930000      45.29890000
C       50.73100000      44.28060000      54.70100000
C       49.26840000      44.28100000      45.29860000
C       44.28110000      54.70150000      50.73150000
C       44.28060000      45.29900000      49.26890000
C       55.71900000      45.29850000      50.73080000
C       43.84520000      52.41620000      48.60130000
C       48.60080000      43.84510000      52.41570000
C       52.41560000      48.60110000      43.84500000
C       56.15500000      52.41550000      51.39890000
C       43.84510000      47.58440000      51.39910000
C       56.15470000      47.58390000      48.60070000
C       51.39860000      43.84520000      47.58390000
C       48.60120000      56.15500000      47.58440000
C       51.39930000      56.15470000      52.41600000
C       47.58430000      48.60090000      56.15490000
C       52.41610000      51.39860000      56.15480000
C       47.58400000      51.39930000      43.84530000
C       48.60090000      52.41610000      43.84530000
C       52.41550000      43.84510000      48.60070000
C       43.84520000      48.60120000      52.41600000
C       51.39930000      52.41560000      56.15490000
C       51.39870000      47.58430000      43.84500000
C       48.60110000      47.58400000      56.15480000
C       47.58390000      43.84520000      51.39880000
C       47.58440000      56.15500000      48.60130000
C       52.41620000      56.15470000      51.39910000
C       56.15470000      48.60080000      47.58390000
C       56.15500000      51.39860000      52.41570000
C       43.84510000      51.39930000      47.58440000
C       44.28060000      45.29900000      50.73120000
C       50.73070000      44.28100000      45.29850000
C       45.29860000      50.73160000      44.28100000
C       55.71890000      45.29850000      49.26850000
C       44.28100000      54.70150000      49.26920000
C       55.71940000      54.70100000      50.73110000
C       49.26870000      44.28070000      54.70110000
C       50.73160000      55.71900000      54.70140000
C       49.26900000      55.71940000      45.29900000
C       54.70150000      50.73070000      55.71900000
C       45.29890000      49.26880000      55.71930000
C       54.70100000      49.26880000      44.28070000
C       50.73080000      45.29890000      44.28060000
C       45.29850000      44.28100000      50.73110000
C       44.28070000      50.73160000      45.29900000
C       49.26880000      45.29860000      55.71900000
C       49.26890000      54.70150000      44.28100000
C       50.73160000      54.70100000      55.71930000
C       54.70100000      44.28060000      49.26850000
C       54.70150000      55.71890000      50.73120000
C       45.29900000      55.71940000      49.26920000
C       55.71930000      50.73070000      54.70110000
C       55.71900000      49.26880000      45.29850000
C       44.28100000      49.26890000      54.70140000
