240
Lattice="100.0 0.0 0.0 0.0 100.0 0.0 0.0 0.0 100.0" Properties=species:S:1:pos:R:3 name=C-187658-4107-94 pressure=-0.00886651844396198 spacegroup=Th times_found=1 energy=-1743.79566119514 pbc="T T T"
C       47.27950000      54.76150000      53.86950000
C       54.76140000      53.87020000      47.28030000
C       53.86980000      47.28080000      54.76200000
C       52.72000000      45.23880000      53.87020000
C       47.28090000      45.23800000      46.13020000
C       52.71960000      54.76170000      46.13010000
C       45.23900000      46.12960000      47.28000000
C       54.76180000      46.13070000      52.72030000
C       45.23790000      53.86950000      52.71930000
C       46.12960000      52.71960000      54.76120000
C       53.86990000      52.72000000      45.23860000
C       46.13070000      47.27960000      45.23830000
C       47.28000000      54.76120000      46.12980000
C       54.76100000      53.87040000      52.72000000
C       53.87040000      47.28040000      45.23880000
C       52.72050000      45.23850000      46.13050000
C       47.28040000      45.23830000      53.86990000
C       52.71910000      54.76200000      53.86980000
C       45.23860000      46.12980000      52.71970000
C       54.76210000      46.13050000      47.28070000
C       45.23820000      53.86930000      47.27970000
C       46.13020000      52.71920000      45.23800000
C       53.86930000      52.72040000      54.76170000
C       46.13010000      47.28000000      54.76140000
C       56.48780000      48.72320000      51.42710000
C       48.72200000      51.42680000      56.48760000
C       51.42610000      56.48780000      48.72240000
C       43.51210000      51.27690000      51.42620000
C       56.48770000      51.27800000      48.57370000
C       43.51250000      48.72180000      48.57300000
C       51.27720000      48.57370000      56.48790000
C       48.72310000      48.57290000      43.51230000
C       51.27780000      51.42650000      43.51230000
C       48.57410000      43.51210000      48.72270000
C       51.42720000      43.51250000      51.27780000
C       48.57260000      56.48760000      51.27710000
C       56.48790000      48.72310000      48.57380000
C       48.72280000      51.42630000      43.51210000
C       51.42590000      56.48790000      51.27730000
C       43.51220000      51.27680000      48.57290000
C       56.48750000      51.27820000      51.42700000
C       43.51230000      48.72200000      51.42630000
C       51.27800000      48.57320000      43.51240000
C       48.72220000      48.57350000      56.48770000
C       51.27690000      51.42710000      56.48770000
C       48.57390000      43.51220000      51.27760000
C       51.42740000      43.51240000      48.72290000
C       48.57280000      56.48750000      48.72220000
C       54.79640000      44.85570000      49.28010000
C       44.85500000      49.27930000      54.79550000
C       49.27940000      54.79550000      44.85500000
C       45.20370000      55.14430000      49.27900000
C       54.79530000      55.14530000      50.72050000
C       45.20460000      44.85480000      50.72040000
C       55.14440000      50.72120000      54.79610000
C       44.85550000      50.71970000      45.20380000
C       55.14520000      49.27980000      45.20460000
C       50.72130000      45.20400000      44.85550000
C       49.27970000      45.20430000      55.14490000
C       50.71960000      54.79610000      55.14460000
C       54.79630000      44.85570000      50.72100000
C       44.85560000      49.27880000      45.20390000
C       49.27870000      54.79600000      55.14450000
C       45.20360000      55.14430000      50.71990000
C       54.79540000      55.14520000      49.27960000
C       45.20470000      44.85470000      49.27950000
C       55.14500000      50.72070000      45.20450000
C       44.85480000      50.72020000      54.79540000
C       55.14450000      49.28030000      54.79620000
C       50.72060000      45.20450000      55.14500000
C       49.28040000      45.20390000      44.85540000
C       50.72030000      54.79570000      44.85510000
C       50.72100000      55.37030000      49.28810000
C       55.37030000      49.28880000      50.72190000
C       49.28790000      50.72170000      55.37020000
C       49.27910000      44.62970000      49.28850000
C       50.72200000      44.62990000      50.71200000
C       49.27790000      55.37020000      50.71150000
C       44.62960000      50.71120000      50.72110000
C       55.37020000      50.71220000      49.27880000
C       44.62990000      49.28770000      49.27820000
C       50.71140000      49.27880000      55.37030000
C       49.28870000      49.27820000      44.62970000
C       50.71200000      50.72140000      44.62980000
C       50.72090000      55.37030000      50.71150000
C       55.37040000      49.28880000      49.27890000
C       49.28860000      50.72120000      44.62970000
C       49.27900000      44.62970000      50.71190000
C       50.72210000      44.62980000      49.28850000
C       49.27800000      55.37010000      49.28800000
C       44.62970000      50.71120000      49.27810000
C       55.37010000      50.71230000      50.72180000
C       44.62980000      49.28780000      50.72120000
C       50.71210000      49.27830000      44.62980000
C       49.28800000      49.27860000      55.37020000
C       50.71130000      50.72180000      55.37030000
C       48.52140000      46.30730000      44.39300000
C       46.30830000      44.39250000      48.52070000
C       44.39330000      48.52000000      46.30740000
C       51.47930000      53.69220000      44.39290000
C       48.51990000      53.69240000      55.60680000
C       51.47930000      46.30800000      55.60730000
C       53.69190000      55.60730000      48.52070000
C       46.30700000      55.60670000      51.47890000
C       53.69280000      44.39340000      51.47980000
C       55.60710000      51.47970000      46.30800000
C       44.39260000      51.47890000      53.69190000
C       55.60690000      48.52140000      53.69280000
C       48.52070000      46.30780000      55.60710000
C       46.30810000      44.39270000      51.47930000
C       44.39290000      48.52030000      53.69200000
C       51.47860000      53.69270000      55.60700000
C       48.52070000      53.69200000      44.39270000
C       51.48010000      46.30760000      44.39320000
C       53.69170000      55.60750000      51.47930000
C       46.30720000      55.60660000      48.52020000
C       53.69300000      44.39330000      48.52110000
C       55.60670000      51.48000000      53.69260000
C       44.39310000      51.47860000      46.30720000
C       55.60740000      48.52110000      46.30810000
C       54.20110000      51.47740000      55.54270000
C       51.47600000      55.54280000      54.20150000
C       55.54200000      54.20220000      51.47700000
C       45.79820000      48.52300000      55.54230000
C       54.20210000      48.52340000      44.45790000
C       45.79860000      51.47610000      44.45720000
C       48.52350000      44.45750000      54.20170000
C       51.47760000      44.45750000      45.79870000
C       48.52300000      55.54220000      45.79810000
C       44.45780000      45.79790000      51.47660000
C       55.54300000      45.79890000      48.52380000
C       44.45720000      54.20100000      48.52270000
C       54.20180000      51.47700000      44.45770000
C       51.47650000      55.54250000      45.79830000
C       55.54220000      54.20210000      48.52340000
C       45.79890000      48.52260000      44.45730000
C       54.20140000      48.52390000      55.54280000
C       45.79790000      51.47660000      55.54210000
C       48.52400000      44.45720000      45.79850000
C       51.47700000      44.45780000      54.20190000
C       48.52240000      55.54250000      54.20130000
C       44.45800000      45.79780000      48.52300000
C       55.54280000      45.79900000      51.47730000
C       44.45700000      54.20110000      51.47620000
C       50.74120000      56.58420000      46.35790000
C       56.58460000      46.35880000      50.74220000
C       46.35770000      50.74160000      56.58400000
C       49.25920000      43.41550000      46.35840000
C       50.74200000      43.41600000      53.64220000
C       49.25750000      56.58430000      53.64150000
C       43.41530000      53.64120000      50.74110000
C       56.58390000      53.64250000      49.25860000
C       43.41620000      46.35750000      49.25810000
C       53.64150000      49.25900000      56.58450000
C       46.35870000      49.25770000      43.41550000
C       53.64220000      50.74170000      43.41600000
C       50.74080000      56.58450000      53.64160000
C       56.58470000      46.35880000      49.25890000
C       46.35850000      50.74100000      43.41550000
C       49.25880000      43.41580000      53.64210000
C       50.74250000      43.41570000      46.35850000
C       49.25800000      56.58400000      46.35780000
C       43.41540000      53.64120000      49.25780000
C       56.58380000      53.64250000      50.74190000
C       43.41610000      46.35750000      50.74140000
C       53.64230000      49.25840000      43.41600000
C       46.35780000      49.25830000      56.58400000
C       53.64130000      50.74230000      56.58450000
C       52.29790000      49.25440000      57.10020000
C       49.25310000      57.10000000      52.29800000
C       57.09980000      52.29900000      49.25430000
C       47.70110000      50.74620000      57.09980000
C       52.29870000      50.74600000      42.90010000
C       47.70220000      49.25340000      42.89990000
C       50.74660000      42.90020000      52.29870000
C       49.25470000      42.89980000      47.70190000
C       50.74560000      57.10000000      47.70140000
C       42.90030000      47.70090000      49.25350000
C       57.10020000      47.70240000      50.74670000
C       42.89970000      52.29770000      50.74550000
C       52.29890000      49.25380000      42.90020000
C       49.25340000      57.09980000      47.70130000
C       57.09970000      52.29910000      50.74650000
C       47.70210000      50.74560000      42.89980000
C       52.29780000      50.74660000      57.10010000
C       47.70130000      49.25400000      57.09990000
C       50.74690000      42.90000000      47.70200000
C       49.25440000      42.90000000      52.29860000
C       50.74530000      57.10020000      52.29810000
C       42.90020000      47.70100000      50.74570000
C       57.10030000      47.70230000      49.25450000
C       42.89980000      52.29760000      49.25330000
C       46.35120000      54.83180000      47.22210000
C       54.83270000      47.22280000      46.35190000
C       47.22260000      46.35140000      54.83220000
C       53.64920000      45.16800000      47.22300000
C       46.35170000      45.16750000      52.77740000
C       53.64790000      54.83270000      52.77750000
C       45.16770000      52.77690000      46.35100000
C       54.83170000      52.77810000      53.64870000
C       45.16780000      47.22220000      53.64830000
C       52.77680000      53.64900000      54.83230000
C       47.22250000      53.64810000      45.16740000
C       52.77820000      46.35150000      45.16810000
C       46.35080000      54.83200000      52.77700000
C       54.83230000      47.22310000      53.64900000
C       47.22320000      46.35100000      45.16770000
C       53.64880000      45.16820000      52.77790000
C       46.35210000      45.16730000      47.22250000
C       53.64830000      54.83250000      47.22260000
C       45.16730000      52.77720000      53.64810000
C       54.83220000      52.77780000      46.35170000
C       45.16830000      47.22190000      46.35130000
C       52.77740000      53.64860000      45.16780000
C       47.22180000      53.64850000      54.83190000
C       52.77750000      46.35190000      54.83260000
C       50.73380000      52.72860000      56.30000000
C       52.72760000      56.30040000      50.73440000
C       56.29990000      50.73520000      52.72860000
C       49.26540000      47.27190000      56.30020000
C       50.73520000      47.27150000      43.70010000
C       49.26570000      52.72790000      43.69970000
C       47.27230000      43.69970000      50.73460000
C       52.72890000      43.70010000      49.26600000
C       47.27120000      56.29980000      49.26510000
C       43.69980000      49.26500000      52.72790000
C       56.30040000      49.26600000      47.27220000
C       43.70000000      50.73380000      47.27130000
C       50.73460000      52.72810000      43.69980000
C       52.72770000      56.30030000      49.26540000
C       56.30020000      50.73500000      47.27210000
C       49.26620000      47.27140000      43.70000000
C       50.73430000      47.27210000      56.30030000
C       49.26480000      52.72850000      56.29990000
C       47.27240000      43.69960000      49.26560000
C       52.72880000      43.70020000      50.73490000
C       47.27110000      56.29990000      50.73400000
C       43.70010000      49.26480000      47.27140000
C       56.30000000      49.26620000      52.72870000
C       43.69960000      50.73400000      52.72780000
