240
Lattice="100.0 0.0 0.0 0.0 100.0 0.0 0.0 0.0 100.0" Properties=species:S:1:pos:R:3 name=C-187658-4107-197 pressure=3.46079748504294 spacegroup=Oh times_found=1 energy=-1737.89290995873 pbc="T T T"
C       53.99590000      46.97790000      55.02120000
C       46.97790000      55.02160000      53.99540000
C       55.02110000      53.99530000      46.97690000
C       53.99420000      53.02260000      44.97770000
C       46.00450000      46.97740000      44.97880000
C       46.00550000      53.02220000      55.02230000
C       46.97740000      44.97810000      46.00540000
C       53.02150000      55.02190000      46.00450000
C       53.02320000      44.97840000      53.99460000
C       55.02240000      46.00530000      53.02170000
C       44.97850000      53.99480000      53.02300000
C       44.97810000      46.00470000      46.97830000
C       46.00580000      46.97740000      55.02230000
C       53.02260000      55.02190000      53.99460000
C       44.97760000      53.99470000      46.97830000
C       46.00410000      53.02210000      44.97880000
C       53.99450000      46.97780000      44.97770000
C       53.99550000      53.02260000      55.02120000
C       53.02210000      44.97840000      46.00460000
C       46.97680000      55.02160000      46.00540000
C       46.97850000      44.97810000      53.99550000
C       44.97890000      46.00470000      53.02310000
C       55.02190000      53.99530000      53.02170000
C       55.02150000      46.00520000      46.97700000
C       52.42610000      56.84490000      51.39100000
C       56.84500000      51.39170000      52.42540000
C       51.39210000      52.42640000      56.84450000
C       52.42650000      43.15540000      48.60840000
C       47.57310000      56.84460000      48.60900000
C       47.57430000      43.15510000      51.39170000
C       56.84450000      48.60900000      47.57280000
C       43.15490000      51.39090000      47.57460000
C       43.15570000      48.60830000      52.42720000
C       51.39050000      47.57370000      43.15510000
C       48.60760000      52.42620000      43.15540000
C       48.60970000      47.57370000      56.84490000
C       47.57350000      56.84460000      51.39160000
C       43.15550000      51.39100000      52.42720000
C       48.60950000      52.42630000      56.84490000
C       47.57390000      43.15510000      48.60900000
C       52.42570000      56.84490000      48.60830000
C       52.42690000      43.15540000      51.39100000
C       43.15500000      48.60830000      47.57460000
C       56.84430000      51.39170000      47.57280000
C       56.84510000      48.60910000      52.42540000
C       48.60790000      47.57360000      43.15550000
C       51.39030000      52.42630000      43.15510000
C       51.39240000      47.57380000      56.84460000
C       56.02340000      46.60920000      49.26200000
C       46.60970000      49.26260000      56.02380000
C       49.26200000      56.02320000      46.60890000
C       56.02320000      53.39150000      50.73640000
C       43.97700000      46.60850000      50.73810000
C       43.97640000      53.39080000      49.26360000
C       46.60800000      50.73700000      43.97720000
C       53.39040000      49.26290000      43.97620000
C       53.39190000      50.73740000      56.02280000
C       49.26360000      43.97670000      53.39130000
C       50.73740000      56.02340000      53.39100000
C       50.73710000      43.97670000      46.60880000
C       43.97680000      46.60850000      49.26360000
C       53.39200000      49.26300000      56.02280000
C       50.73640000      56.02330000      46.60870000
C       43.97660000      53.39080000      50.73800000
C       56.02360000      46.60920000      50.73640000
C       56.02300000      53.39150000      49.26190000
C       53.39030000      50.73740000      43.97620000
C       46.60810000      49.26260000      43.97720000
C       46.60960000      50.73710000      56.02380000
C       50.73800000      43.97680000      53.39110000
C       49.26290000      56.02330000      53.39120000
C       49.26260000      43.97660000      46.60900000
C       49.31260000      51.72100000      42.09760000
C       51.72140000      42.09760000      49.31360000
C       42.09780000      49.31340000      51.72210000
C       49.31490000      48.27900000      57.90260000
C       50.68720000      51.72110000      57.90240000
C       50.68520000      48.27900000      42.09740000
C       51.72070000      57.90260000      50.68590000
C       48.27950000      42.09740000      50.68650000
C       48.27850000      57.90240000      49.31400000
C       42.09730000      50.68580000      48.28000000
C       57.90230000      49.31420000      48.27790000
C       57.90270000      50.68670000      51.71990000
C       50.68510000      51.72100000      42.09740000
C       48.27930000      42.09740000      49.31400000
C       57.90270000      49.31420000      51.72000000
C       50.68740000      48.27900000      57.90240000
C       49.31480000      51.72100000      57.90260000
C       49.31280000      48.27890000      42.09760000
C       48.27860000      57.90240000      50.68640000
C       51.72150000      42.09760000      50.68600000
C       51.72050000      57.90260000      49.31350000
C       57.90220000      50.68660000      48.27790000
C       42.09730000      49.31330000      48.28010000
C       42.09770000      50.68580000      51.72210000
C       48.42720000      45.81440000      55.22590000
C       45.81400000      55.22540000      48.42680000
C       55.22510000      48.42650000      45.81380000
C       48.42530000      54.18540000      44.77460000
C       51.57330000      45.81450000      44.77420000
C       51.57420000      54.18560000      55.22540000
C       45.81500000      44.77420000      51.57430000
C       54.18550000      55.22590000      51.57320000
C       54.18560000      44.77460000      48.42570000
C       55.22610000      51.57410000      54.18480000
C       44.77500000      48.42600000      54.18620000
C       44.77370000      51.57340000      45.81520000
C       51.57470000      45.81460000      55.22540000
C       54.18500000      55.22580000      48.42570000
C       44.77390000      48.42590000      45.81520000
C       51.57280000      54.18560000      44.77410000
C       48.42580000      45.81440000      44.77460000
C       48.42670000      54.18550000      55.22580000
C       54.18600000      44.77460000      51.57320000
C       45.81440000      55.22540000      51.57430000
C       45.81450000      44.77410000      48.42680000
C       44.77490000      51.57350000      54.18620000
C       55.22630000      48.42660000      54.18480000
C       55.22500000      51.57400000      45.81380000
C       51.39060000      56.84480000      47.57350000
C       56.84510000      47.57410000      51.39040000
C       47.57460000      51.39120000      56.84510000
C       51.39200000      43.15530000      52.42610000
C       48.60860000      56.84470000      52.42650000
C       48.60870000      43.15520000      47.57390000
C       56.84440000      52.42670000      48.60770000
C       43.15520000      47.57330000      48.60960000
C       43.15530000      52.42590000      51.39230000
C       47.57280000      48.60850000      43.15560000
C       52.42530000      51.39140000      43.15490000
C       52.42730000      48.60880000      56.84440000
C       48.60800000      56.84470000      47.57390000
C       43.15560000      47.57330000      51.39230000
C       52.42720000      51.39150000      56.84440000
C       48.60940000      43.15520000      52.42650000
C       51.39130000      56.84480000      52.42610000
C       51.39140000      43.15530000      47.57350000
C       43.15490000      52.42590000      48.60960000
C       56.84470000      47.57410000      48.60770000
C       56.84480000      52.42670000      51.39040000
C       52.42540000      48.60880000      43.15490000
C       47.57270000      51.39120000      43.15560000
C       47.57470000      48.60860000      56.84510000
C       49.26380000      46.60880000      56.02340000
C       46.60840000      56.02310000      49.26320000
C       56.02290000      49.26310000      46.60800000
C       49.26180000      53.39110000      43.97680000
C       50.73660000      46.60880000      43.97660000
C       50.73790000      53.39120000      56.02320000
C       46.60930000      43.97650000      50.73770000
C       53.39090000      56.02350000      50.73670000
C       53.39140000      43.97690000      49.26230000
C       56.02370000      50.73760000      53.39030000
C       43.97720000      49.26250000      53.39200000
C       43.97620000      50.73690000      46.60970000
C       50.73820000      46.60890000      56.02320000
C       53.39070000      56.02350000      49.26230000
C       43.97630000      49.26240000      46.60970000
C       50.73620000      53.39120000      43.97660000
C       49.26210000      46.60880000      43.97680000
C       49.26340000      53.39120000      56.02340000
C       53.39160000      43.97690000      50.73680000
C       46.60860000      56.02310000      50.73770000
C       46.60910000      43.97650000      49.26330000
C       43.97710000      50.73690000      53.39200000
C       56.02380000      49.26310000      53.39030000
C       56.02280000      50.73750000      46.60800000
C       55.22560000      45.81480000      48.42560000
C       45.81530000      48.42600000      55.22620000
C       48.42540000      55.22550000      45.81470000
C       55.22560000      54.18580000      51.57300000
C       44.77480000      45.81420000      51.57450000
C       44.77390000      54.18520000      48.42690000
C       45.81370000      51.57350000      44.77490000
C       54.18490000      48.42650000      44.77380000
C       54.18620000      51.57400000      55.22500000
C       48.42710000      44.77430000      54.18580000
C       51.57400000      55.22570000      54.18530000
C       51.57350000      44.77440000      45.81430000
C       44.77440000      45.81420000      48.42700000
C       54.18630000      48.42650000      55.22510000
C       51.57290000      55.22570000      45.81420000
C       44.77440000      54.18520000      51.57440000
C       55.22610000      45.81480000      51.57310000
C       55.22520000      54.18580000      48.42550000
C       54.18470000      51.57400000      44.77380000
C       45.81380000      48.42600000      44.77500000
C       45.81510000      51.57350000      55.22620000
C       51.57460000      44.77450000      54.18530000
C       48.42650000      55.22560000      54.18570000
C       48.42600000      44.77430000      45.81470000
C       49.31360000      57.90240000      51.72110000
C       57.90230000      51.72150000      49.31270000
C       51.72210000      49.31390000      57.90220000
C       49.31400000      42.09750000      48.27910000
C       50.68560000      57.90250000      48.27880000
C       50.68690000      42.09760000      51.72100000
C       57.90270000      48.27940000      50.68520000
C       42.09750000      51.72060000      50.68730000
C       42.09750000      48.27850000      49.31490000
C       51.71990000      50.68630000      42.09730000
C       48.27790000      49.31360000      42.09780000
C       48.28000000      50.68620000      57.90270000
C       50.68600000      57.90250000      51.72090000
C       42.09730000      51.72060000      49.31480000
C       48.28010000      49.31370000      57.90270000
C       50.68640000      42.09760000      48.27890000
C       49.31310000      57.90240000      48.27900000
C       49.31440000      42.09750000      51.72120000
C       42.09770000      48.27850000      50.68730000
C       57.90250000      51.72150000      50.68510000
C       57.90250000      48.27940000      49.31270000
C       48.27790000      50.68610000      42.09780000
C       51.72000000      49.31380000      42.09730000
C       51.72210000      50.68640000      57.90220000
C       55.02210000      53.02270000      53.99430000
C       53.02280000      53.99520000      55.02130000
C       53.99520000      55.02200000      53.02180000
C       55.02140000      46.97790000      46.00430000
C       44.97750000      53.02210000      46.00570000
C       44.97900000      46.97740000      53.99570000
C       53.02190000      46.00510000      44.97790000
C       46.97670000      53.99480000      44.97870000
C       46.97850000      46.00480000      55.02220000
C       53.99490000      44.97850000      46.97710000
C       46.00430000      55.02150000      46.97820000
C       46.00570000      44.97810000      53.02290000
C       44.97860000      53.02210000      53.99570000
C       46.97810000      53.99490000      55.02210000
C       46.00510000      55.02150000      53.02290000
C       44.97790000      46.97730000      46.00570000
C       55.02100000      53.02260000      46.00430000
C       55.02250000      46.97790000      53.99430000
C       46.97720000      46.00480000      44.97870000
C       53.02150000      53.99520000      44.97780000
C       53.02330000      46.00520000      55.02130000
C       46.00480000      44.97800000      46.97820000
C       53.99430000      55.02190000      46.97710000
C       53.99570000      44.97850000      53.02180000
