240
Lattice="100.0 0.0 0.0 0.0 100.0 0.0 0.0 0.0 100.0" Properties=species:S:1:pos:R:3 name=C-187658-4107-31 pressure=2.28656513651414 spacegroup=Oh times_found=1 energy=-1786.45546389128 pbc="T T T"
C       51.43800000      55.87440000      46.74780000
C       55.90270000      46.82500000      51.49330000
C       46.76880000      51.48610000      55.87400000
C       48.49510000      55.89700000      53.18030000
C       48.56790000      44.08630000      46.81710000
C       51.49900000      44.14230000      53.25480000
C       44.13380000      46.74010000      48.54600000
C       44.09460000      53.19300000      51.44370000
C       55.86880000      53.24200000      48.51700000
C       53.21450000      51.45090000      44.10810000
C       53.22060000      48.58580000      55.89750000
C       46.79610000      48.47730000      44.12040000
C       51.50490000      44.10300000      46.81970000
C       55.86620000      53.25990000      51.45400000
C       46.78550000      48.54910000      55.89190000
C       48.56200000      44.12560000      53.25220000
C       48.50100000      55.85770000      46.74520000
C       51.43210000      55.91370000      53.18290000
C       44.09730000      53.17500000      48.50670000
C       44.13120000      46.75800000      51.48300000
C       55.90540000      46.80700000      48.55630000
C       53.23120000      48.51390000      44.12600000
C       53.20390000      51.52270000      55.87960000
C       46.77940000      51.41420000      44.10250000
C       46.56850000      45.56780000      53.47770000
C       45.54980000      53.40720000      46.52150000
C       53.47720000      46.53910000      45.59040000
C       53.48190000      45.56500000      46.57650000
C       53.42530000      54.47430000      53.42950000
C       46.52430000      54.39290000      46.51630000
C       54.41090000      53.49980000      53.43630000
C       54.45640000      46.55060000      46.57140000
C       45.58280000      46.54230000      53.47080000
C       46.56200000      46.55390000      54.45180000
C       46.53080000      53.40680000      45.54220000
C       53.42990000      53.50020000      54.41560000
C       46.51810000      54.43500000      53.42350000
C       45.58910000      46.50020000      46.56370000
C       53.43800000      53.44610000      45.54820000
C       53.43150000      54.43220000      46.52230000
C       53.47570000      45.60710000      53.48370000
C       46.57470000      45.52570000      46.57050000
C       54.45020000      46.59280000      53.47850000
C       54.41720000      53.45770000      46.52920000
C       45.54360000      53.44940000      53.42860000
C       46.52280000      53.46090000      54.40960000
C       46.57010000      46.49980000      45.58440000
C       53.46920000      46.59320000      54.45780000
C       50.70470000      52.51470000      56.84930000
C       52.42910000      56.88210000      50.68520000
C       56.85740000      50.77910000      52.47030000
C       49.26720000      52.42270000      43.12060000
C       49.28280000      47.56910000      56.87820000
C       50.74520000      47.49350000      43.15200000
C       47.49290000      56.84510000      49.23090000
C       47.56960000      43.12680000      50.76480000
C       52.50840000      43.14600000      49.31910000
C       43.13440000      50.67080000      47.52090000
C       43.13810000      49.25110000      52.46720000
C       56.87010000      49.29900000      47.54170000
C       50.73280000      47.57730000      56.87940000
C       52.50710000      43.15490000      50.76910000
C       56.86560000      49.32920000      52.47910000
C       49.29530000      47.48530000      43.15070000
C       49.25480000      52.50650000      56.84800000
C       50.71720000      52.43090000      43.12180000
C       47.57090000      43.11790000      49.31480000
C       47.49160000      56.85400000      50.68090000
C       52.43040000      56.87320000      49.23520000
C       43.14260000      49.22090000      47.52970000
C       43.12990000      50.70100000      52.45830000
C       56.86190000      50.74890000      47.53280000
C       55.48960000      47.24780000      47.25520000
C       47.24430000      47.25130000      55.48580000
C       47.20500000      55.43860000      47.19770000
C       44.54190000      47.21940000      52.77860000
C       44.51540000      52.71840000      47.21190000
C       55.45310000      52.81440000      52.75430000
C       52.78710000      47.21590000      44.54800000
C       52.74580000      52.81550000      55.45680000
C       47.22280000      52.71730000      44.50940000
C       52.73290000      55.50390000      52.73540000
C       52.80010000      44.52760000      47.26940000
C       47.26210000      44.52990000      52.79750000
C       55.45810000      52.78060000      47.22140000
C       47.21290000      52.78410000      55.45200000
C       47.26710000      44.49610000      47.26460000
C       44.51040000      52.75220000      52.74480000
C       44.54690000      47.18560000      47.24570000
C       55.48460000      47.28160000      52.78810000
C       52.75570000      52.74870000      44.51420000
C       52.77720000      47.28270000      55.49060000
C       47.25420000      47.18450000      44.54320000
C       52.79500000      44.56140000      52.80230000
C       52.73790000      55.47010000      47.20250000
C       47.19990000      55.47240000      52.73060000
C       52.45840000      50.78090000      56.86140000
C       50.68370000      56.88280000      52.42740000
C       56.84910000      52.51220000      50.71590000
C       47.53340000      50.66900000      43.12970000
C       47.52920000      49.30290000      56.86600000
C       52.47910000      49.24720000      43.14290000
C       49.23830000      56.84440000      47.48870000
C       49.31180000      43.14730000      52.51000000
C       50.76620000      43.12540000      47.57380000
C       43.12290000      52.42520000      49.25400000
C       43.14960000      47.49670000      50.73410000
C       56.87840000      47.56590000      49.29610000
C       52.46660000      49.33100000      56.87030000
C       50.76170000      43.15560000      52.51130000
C       56.87710000      47.57480000      50.74600000
C       47.54160000      49.21910000      43.13860000
C       47.52090000      50.75280000      56.85710000
C       52.47080000      50.69710000      43.13400000
C       49.31630000      43.11720000      47.57260000
C       49.23380000      56.87460000      52.42620000
C       50.68820000      56.85270000      47.49000000
C       43.15090000      47.48780000      49.28410000
C       43.12160000      52.43410000      50.70390000
C       56.85040000      52.50330000      49.26590000
C       58.56140000      49.31890000      49.28650000
C       49.27100000      49.32280000      58.56040000
C       49.22670000      58.54790000      49.22170000
C       41.44680000      49.23040000      50.72230000
C       41.43990000      50.67220000      49.26280000
C       58.55190000      50.77840000      50.72840000
C       50.73720000      49.22660000      41.44840000
C       50.71350000      50.78170000      58.55280000
C       49.27830000      50.66900000      41.43830000
C       50.67610000      58.56500000      50.67370000
C       50.77460000      41.44320000      49.32760000
C       49.32260000      41.44380000      50.77700000
C       58.55320000      50.76960000      49.27770000
C       49.26280000      50.77340000      58.55160000
C       49.32390000      41.43500000      49.32630000
C       41.43860000      50.68110000      50.71350000
C       41.44810000      49.22160000      49.27160000
C       58.56010000      49.32780000      50.73720000
C       50.72900000      50.67720000      41.43960000
C       50.72170000      49.33100000      58.56170000
C       49.28650000      49.21830000      41.44720000
C       50.77330000      41.45210000      50.77830000
C       50.67740000      58.55620000      49.22300000
C       49.22540000      58.55680000      50.67240000
C       51.38250000      51.45130000      57.53010000
C       51.35320000      57.55380000      51.35250000
C       57.52820000      51.44870000      51.39530000
C       48.60160000      51.34330000      42.45280000
C       48.60380000      48.64080000      57.54470000
C       51.41210000      48.56460000      42.47240000
C       48.56110000      57.52080000      48.55540000
C       48.64430000      42.46330000      51.44210000
C       51.44140000      42.46210000      48.65000000
C       42.45590000      51.34590000      48.58760000
C       42.46930000      48.56840000      51.39930000
C       57.54660000      48.63710000      48.61780000
C       51.39840000      48.65670000      57.54720000
C       51.43890000      42.47920000      51.44460000
C       57.54410000      48.65410000      51.41240000
C       48.61750000      48.54870000      42.46990000
C       48.58790000      51.43540000      57.52760000
C       51.39620000      51.35920000      42.45530000
C       48.64680000      42.44620000      48.64750000
C       48.55860000      57.53790000      51.35000000
C       51.35570000      57.53670000      48.55790000
C       42.47180000      48.55130000      48.60470000
C       42.45340000      51.36290000      51.38220000
C       57.53070000      51.43160000      48.60070000
C       44.72710000      50.67210000      45.75200000
C       50.75690000      45.73310000      44.75400000
C       45.79040000      44.70780000      50.75650000
C       55.26460000      50.78390000      54.23910000
C       55.28060000      49.27610000      45.77010000
C       44.72770000      49.26790000      54.23880000
C       49.29130000      45.78920000      55.29780000
C       49.25270000      54.20250000      44.70090000
C       50.69910000      54.27520000      55.24730000
C       54.26960000      44.74720000      49.30790000
C       54.20830000      55.30110000      50.69950000
C       45.73170000      55.24390000      49.23610000
C       44.73540000      49.21610000      45.76090000
C       50.70870000      54.21080000      44.70220000
C       45.73040000      55.25280000      50.69210000
C       55.27290000      49.32790000      54.24800000
C       55.27230000      50.73210000      45.76120000
C       44.71940000      50.72390000      54.22990000
C       49.24310000      54.26690000      55.24600000
C       49.30090000      45.72480000      44.75270000
C       50.74730000      45.79750000      55.29910000
C       54.20960000      55.29220000      49.24350000
C       54.26830000      44.75610000      50.76390000
C       45.79170000      44.69890000      49.30050000
C       54.23960000      50.71990000      44.72670000
C       50.75410000      44.75750000      54.27180000
C       44.70270000      54.21330000      50.69750000
C       45.75210000      50.73610000      55.26440000
C       45.77000000      49.21570000      44.72820000
C       54.23830000      49.32830000      55.28070000
C       49.30580000      44.69750000      45.79260000
C       49.23820000      55.29420000      54.20610000
C       50.70190000      55.25080000      45.72950000
C       55.24920000      54.26440000      49.25070000
C       55.29600000      45.79560000      50.75850000
C       44.75220000      45.72670000      49.29330000
C       54.24790000      49.26390000      44.73560000
C       50.69420000      55.30250000      54.20740000
C       44.75080000      45.73560000      50.74930000
C       45.76040000      49.28010000      55.27330000
C       45.76170000      50.67170000      44.71930000
C       54.23000000      50.78430000      55.27180000
C       49.24590000      55.24250000      45.72820000
C       49.29810000      44.74920000      54.27050000
C       50.76180000      44.70580000      45.79390000
C       55.29730000      45.78670000      49.30250000
C       55.24780000      54.27330000      50.70670000
C       44.70400000      54.20440000      49.24150000
C       46.81720000      44.08710000      48.56470000
C       44.12550000      48.47840000      46.78630000
C       48.55510000      46.73820000      44.13260000
C       53.24970000      44.14160000      51.50730000
C       53.18540000      55.89500000      48.49830000
C       46.74770000      55.87630000      51.42970000
C       55.89120000      48.58460000      53.23160000
C       55.88030000      51.48230000      46.77860000
C       44.10300000      51.45460000      53.20340000
C       51.48150000      46.82680000      55.90670000
C       51.45550000      53.18990000      44.09590000
C       48.50790000      53.24510000      55.86480000
C       46.75030000      55.85840000      48.49270000
C       44.10880000      51.41540000      46.76840000
C       48.51850000      53.17320000      44.09330000
C       53.18280000      55.91290000      51.43530000
C       53.25230000      44.12370000      48.57030000
C       46.81460000      44.10500000      51.50170000
C       55.87450000      51.52160000      53.21370000
C       55.89700000      48.54540000      46.79660000
C       44.11970000      48.51770000      53.22140000
C       51.44490000      53.26180000      55.86740000
C       51.49210000      46.75490000      44.13520000
C       48.54450000      46.81010000      55.90410000
