240
Lattice="100.0 0.0 0.0 0.0 100.0 0.0 0.0 0.0 100.0" Properties=species:S:1:pos:R:3 name=C-187658-4107-69 pressure=-0.040037851883637 spacegroup=C1 times_found=1 energy=-1782.76652856719 pbc="T T T"
C       55.25420000      53.40980000      53.74800000
C       53.35010000      53.73260000      55.23310000
C       53.65670000      55.21510000      53.31930000
C       44.29350000      46.56950000      53.69820000
C       55.32820000      46.58520000      46.24170000
C       44.29140000      53.51540000      46.25690000
C       47.40520000      45.69590000      55.11090000
C       53.43900000      46.23080000      44.73360000
C       47.40800000      54.29990000      44.82150000
C       45.90910000      44.92240000      53.38330000
C       53.77760000      44.73760000      46.63880000
C       45.88630000      55.18780000      46.47760000
C       55.37580000      53.40080000      46.17470000
C       53.56430000      53.79030000      44.57800000
C       53.82670000      55.26200000      46.51140000
C       44.71970000      46.72210000      46.23260000
C       55.37750000      46.60350000      53.81640000
C       44.88490000      53.28520000      54.09730000
C       46.62960000      46.36430000      44.76320000
C       53.55730000      46.19180000      55.39460000
C       46.56190000      53.53800000      55.68260000
C       46.21670000      44.83480000      46.63250000
C       53.84220000      44.73530000      53.45420000
C       45.69290000      54.98810000      52.58830000
C       52.95350000      43.57950000      51.36360000
C       43.69580000      51.36330000      53.06920000
C       51.50370000      53.01390000      43.27670000
C       46.94000000      56.42450000      51.06370000
C       52.89490000      56.40140000      48.59370000
C       47.00240000      43.65100000      48.76820000
C       56.58540000      48.70670000      53.00840000
C       43.49160000      48.81110000      47.01280000
C       56.59370000      51.30730000      46.99630000
C       48.73450000      47.13380000      43.54040000
C       51.49480000      46.92840000      56.71180000
C       48.70800000      52.79610000      56.68150000
C       52.95510000      43.55890000      48.75240000
C       43.31820000      51.39470000      47.07330000
C       51.29110000      52.90370000      56.48240000
C       46.92110000      56.36310000      48.41180000
C       52.82620000      56.37760000      51.19900000
C       46.95180000      43.80220000      51.42410000
C       56.58160000      48.67320000      47.01600000
C       43.32010000      48.74410000      52.97180000
C       56.54560000      51.34060000      52.98940000
C       48.86800000      46.86050000      56.65540000
C       51.35580000      47.05220000      43.50160000
C       48.87990000      53.06820000      43.33650000
C       54.20450000      43.62030000      49.33760000
C       43.62720000      49.24470000      54.21320000
C       49.51800000      54.28630000      43.28570000
C       45.68600000      56.45220000      49.04070000
C       54.09220000      56.34780000      50.64110000
C       45.72990000      43.79680000      50.77250000
C       56.46470000      50.74180000      54.23380000
C       43.61270000      50.86110000      45.82610000
C       56.50120000      49.26910000      45.77100000
C       50.72610000      45.82770000      43.61360000
C       49.50780000      45.64430000      56.66380000
C       50.62360000      54.10650000      56.31900000
C       54.19830000      43.63600000      50.75780000
C       43.64830000      49.44410000      45.79280000
C       49.20640000      54.05190000      56.36860000
C       45.72020000      56.52750000      50.45670000
C       54.12660000      56.35300000      49.22160000
C       45.76050000      43.71590000      49.34850000
C       56.51110000      50.69290000      45.75920000
C       43.75300000      50.66210000      54.26440000
C       56.48740000      49.31830000      54.24560000
C       50.91960000      45.66650000      56.63930000
C       49.30440000      45.87430000      43.63470000
C       50.92920000      54.27520000      43.31110000
C       47.36560000      52.67620000      56.44970000
C       52.87980000      56.01910000      47.27780000
C       56.17540000      47.39360000      52.92760000
C       52.78650000      47.04750000      56.24720000
C       47.43560000      47.24360000      43.97170000
C       52.79570000      52.91440000      43.74170000
C       47.09010000      44.03740000      47.44340000
C       52.91000000      43.97440000      52.67420000
C       46.85980000      55.76980000      52.29200000
C       44.18420000      52.68630000      53.02260000
C       56.16980000      52.61670000      47.07260000
C       43.88370000      47.49490000      47.09450000
C       47.66940000      53.14420000      44.01410000
C       52.74190000      55.95600000      52.50180000
C       56.15180000      47.36770000      47.11340000
C       52.67000000      47.11340000      43.90880000
C       47.65530000      46.81130000      55.97740000
C       52.60150000      52.85020000      56.06930000
C       46.99980000      44.27200000      52.75030000
C       52.87810000      43.96120000      47.43980000
C       46.97500000      55.84650000      47.10340000
C       43.53230000      52.74110000      47.15380000
C       56.09970000      52.64100000      52.88590000
C       43.51150000      47.38420000      52.85730000
C       55.40670000      54.34660000      51.61140000
C       54.39570000      51.65300000      55.47550000
C       51.50220000      55.27220000      54.22120000
C       44.19010000      45.68380000      51.56470000
C       55.48650000      45.64490000      48.37770000
C       44.16780000      54.51170000      48.32820000
C       45.72040000      48.06300000      55.32550000
C       54.43960000      48.33650000      44.52970000
C       45.74820000      51.92680000      44.73060000
C       48.46010000      44.79860000      54.56930000
C       51.64690000      44.60100000      45.68960000
C       48.45960000      55.20660000      45.34040000
C       55.47290000      54.34850000      48.30920000
C       54.48480000      51.64450000      44.47620000
C       51.76520000      55.45400000      45.44590000
C       44.45400000      45.71290000      48.32520000
C       55.50640000      45.65860000      51.68220000
C       44.72310000      54.51700000      51.57220000
C       45.72280000      48.51780000      44.62020000
C       54.46970000      48.34210000      55.52910000
C       45.67550000      51.40600000      55.74420000
C       48.35440000      44.66550000      45.70990000
C       51.76820000      44.53340000      54.48660000
C       48.10510000      55.08100000      54.21040000
C       56.42940000      48.12280000      50.72440000
C       48.16810000      50.48430000      56.49570000
C       50.62920000      56.18890000      47.91070000
C       43.67540000      52.01760000      50.79830000
C       56.41120000      51.88990000      49.27790000
C       43.51880000      48.19760000      49.28000000
C       51.99370000      49.22660000      56.48580000
C       48.19100000      49.44340000      43.71070000
C       52.00780000      50.72910000      43.55580000
C       49.27280000      43.79120000      48.21040000
C       50.66470000      43.79240000      52.00610000
C       49.12780000      56.03850000      51.70660000
C       56.42640000      48.11580000      49.30660000
C       48.21350000      50.86230000      43.72130000
C       50.53820000      56.09950000      51.73890000
C       43.50810000      52.01100000      49.37880000
C       56.39770000      51.89490000      50.69560000
C       43.44600000      48.20950000      50.68820000
C       51.98410000      49.31740000      43.60430000
C       48.19520000      49.07200000      56.38660000
C       51.96380000      50.64140000      56.44090000
C       49.23690000      43.88620000      52.02940000
C       50.68270000      43.75960000      48.18960000
C       49.20570000      56.13120000      47.86930000
C       53.18920000      51.57480000      43.82840000
C       51.59230000      44.01180000      53.14690000
C       44.14550000      53.17770000      51.69110000
C       47.03270000      48.58230000      44.01770000
C       53.17510000      48.39090000      56.18610000
C       46.98360000      51.32700000      56.35260000
C       48.14820000      55.63810000      52.84670000
C       51.57070000      55.97780000      46.78240000
C       48.42310000      44.06490000      47.03180000
C       56.13420000      46.96400000      51.59500000
C       43.83800000      47.03210000      48.41520000
C       56.11080000      53.04700000      48.40410000
C       53.08980000      51.53840000      56.09810000
C       51.54740000      44.01460000      47.01390000
C       43.60610000      53.18010000      48.48980000
C       47.07290000      48.09840000      55.91900000
C       53.12940000      48.43540000      43.91320000
C       47.09700000      51.86030000      44.14320000
C       48.32520000      55.76300000      46.67710000
C       51.40830000      55.85190000      52.90420000
C       48.34170000      44.28350000      53.21080000
C       56.11980000      46.94930000      48.44980000
C       43.57230000      47.00360000      51.50790000
C       56.06880000      53.05620000      51.54790000
C       47.01820000      45.24570000      45.52680000
C       45.08920000      45.58570000      47.01160000
C       45.51580000      47.15920000      45.15880000
C       53.11420000      54.88860000      45.33690000
C       46.84400000      54.51620000      54.67160000
C       53.11430000      45.10150000      54.61970000
C       54.93280000      54.51040000      46.95350000
C       45.73090000      54.38940000      53.80380000
C       54.95030000      45.49270000      53.03020000
C       54.65330000      52.99280000      45.03800000
C       45.45700000      52.75020000      55.28730000
C       54.64480000      47.00090000      54.95020000
C       46.19090000      45.73770000      54.51420000
C       44.69660000      45.48030000      52.88810000
C       45.29840000      46.82820000      54.68850000
C       52.87930000      54.79160000      54.43440000
C       46.18580000      54.30220000      45.40330000
C       53.00180000      45.14350000      45.51420000
C       54.80950000      54.50090000      52.94350000
C       44.67020000      54.65600000      46.99720000
C       54.90420000      45.48070000      47.03810000
C       54.50590000      52.98640000      54.86130000
C       45.30330000      53.19970000      45.28870000
C       54.57500000      46.99890000      45.12650000
C       56.65810000      50.71510000      48.34570000
C       50.84900000      48.26060000      56.75170000
C       48.26900000      56.39550000      50.49630000
C       43.35320000      49.37770000      48.36740000
C       56.65520000      49.30030000      51.65940000
C       43.48050000      50.83290000      51.71930000
C       49.34290000      51.46890000      56.70570000
C       50.86010000      51.67830000      43.28060000
C       49.35650000      48.46640000      43.44200000
C       51.59400000      43.53390000      50.79360000
C       48.32640000      43.60750000      49.39590000
C       51.52310000      56.42250000      49.14030000
C       56.63930000      50.73220000      51.64890000
C       50.78720000      48.41200000      43.41530000
C       48.26340000      56.39130000      49.02400000
C       43.32320000      49.39360000      51.66140000
C       56.65900000      49.28210000      48.35650000
C       43.30020000      50.80150000      48.41700000
C       49.41160000      51.71260000      43.33100000
C       50.76300000      51.53560000      56.64100000
C       49.39960000      48.21410000      56.71150000
C       51.60860000      43.52780000      49.36050000
C       48.29780000      43.67500000      50.85000000
C       51.48840000      56.39690000      50.57190000
C       44.80520000      49.48840000      44.88020000
C       49.28270000      44.89350000      44.74040000
C       44.68480000      44.72330000      49.24280000
C       55.42740000      50.70090000      44.75590000
C       44.79030000      50.48800000      55.29300000
C       55.40410000      49.29680000      55.25030000
C       50.89450000      55.27510000      44.41490000
C       49.11370000      54.90360000      55.16260000
C       50.88760000      44.69720000      55.50960000
C       55.16510000      55.30100000      49.23550000
C       44.68720000      55.49580000      50.59460000
C       55.22250000      44.70120000      50.75480000
C       44.75330000      49.06860000      55.15400000
C       49.45930000      44.72940000      55.51770000
C       44.61030000      44.75350000      50.66970000
C       55.38120000      50.73890000      55.23800000
C       44.79650000      50.92500000      44.94300000
C       55.41470000      49.26010000      44.77000000
C       50.54680000      54.99560000      55.14630000
C       49.46700000      55.23830000      44.40100000
C       50.72030000      44.85070000      44.72210000
C       55.13070000      55.29580000      50.67350000
C       44.55710000      55.48890000      49.18370000
C       55.22290000      44.69140000      49.31610000
