240
Lattice="100.0 0.0 0.0 0.0 100.0 0.0 0.0 0.0 100.0" Properties=species:S:1:pos:R:3 name=C-187658-4107-152 pressure=-111.237678427069 spacegroup=C1 times_found=1 energy=-1745.24649003346 pbc="T T T"
C       55.14570000      55.59930000      49.41270000
C       55.69630000      49.17390000      55.15960000
C       49.40610000      55.13270000      55.63820000
C       55.16560000      44.22120000      50.67830000
C       45.04490000      55.40170000      50.81860000
C       45.06850000      44.33650000      49.02140000
C       55.27470000      50.70310000      44.89260000
C       44.14670000      49.39930000      44.69340000
C       44.82570000      50.08020000      54.93810000
C       48.99680000      44.47390000      44.69070000
C       50.63630000      55.14680000      44.52120000
C       50.69780000      44.97990000      55.56910000
C       45.02570000      55.46140000      49.42790000
C       44.83960000      48.85360000      55.54070000
C       50.80460000      55.15170000      55.63500000
C       44.95400000      44.26250000      50.41290000
C       55.10480000      55.55930000      50.80330000
C       55.15320000      44.22110000      49.28190000
C       44.14380000      50.79170000      44.77620000
C       55.23580000      49.30740000      44.88220000
C       55.75570000      50.56850000      55.14870000
C       50.20690000      45.11710000      44.71170000
C       49.24470000      55.25590000      44.53070000
C       49.29750000      45.01900000      55.53140000
C       56.04340000      49.13800000      50.70750000
C       49.44910000      50.82590000      56.49010000
C       50.79100000      56.42270000      49.32650000
C       55.97060000      50.68250000      49.26690000
C       43.86240000      49.14520000      49.07890000
C       43.92170000      50.57570000      50.63210000
C       48.93890000      49.49690000      43.52550000
C       50.49910000      50.85480000      43.59050000
C       50.97120000      49.38160000      56.57120000
C       50.79930000      43.59620000      50.84760000
C       49.34590000      56.44580000      50.84950000
C       49.37320000      43.42060000      49.36030000
C       43.86600000      49.06370000      50.51270000
C       50.96490000      50.83320000      56.45110000
C       49.34530000      56.43290000      49.33900000
C       43.88070000      50.66770000      49.18750000
C       55.96950000      49.15120000      49.25330000
C       56.05010000      50.66540000      50.71250000
C       50.44420000      49.41090000      43.56300000
C       48.98150000      50.94210000      43.59720000
C       49.49310000      49.37480000      56.63630000
C       49.34990000      43.57270000      50.84090000
C       50.78720000      56.45520000      50.84420000
C       50.82080000      43.49190000      49.34320000
C       54.85430000      45.72240000      46.22750000
C       45.93880000      47.18470000      55.83870000
C       46.51310000      56.19200000      45.99210000
C       55.15330000      53.99080000      53.88870000
C       44.93880000      45.80640000      53.52950000
C       44.85830000      54.13020000      46.23090000
C       45.60160000      53.89040000      44.97730000
C       53.83340000      46.58040000      43.91740000
C       54.38830000      53.70650000      55.12130000
C       46.18770000      45.12340000      53.88610000
C       53.57210000      56.08320000      54.22550000
C       53.63850000      44.91530000      45.94360000
C       45.16280000      45.98950000      45.91840000
C       54.18980000      46.52410000      56.08770000
C       53.81360000      55.10050000      45.99450000
C       45.05030000      53.82940000      53.92260000
C       55.08180000      45.64560000      53.74580000
C       54.98730000      54.25370000      46.30970000
C       53.98000000      53.40360000      43.97730000
C       45.83080000      46.35680000      44.66780000
C       45.87940000      53.51730000      55.10520000
C       53.87670000      44.85490000      54.08300000
C       46.57850000      55.95100000      54.25640000
C       47.29380000      44.10400000      45.72220000
C       48.26670000      47.14350000      56.27370000
C       47.10920000      56.20500000      48.28060000
C       55.63330000      48.04990000      46.97640000
C       47.89050000      53.20980000      44.05220000
C       51.51220000      47.10930000      43.93650000
C       52.06640000      53.05250000      55.99700000
C       47.07040000      43.87090000      51.75360000
C       53.00380000      56.22960000      51.93090000
C       52.98240000      43.74850000      48.17030000
C       56.07130000      51.72470000      52.97020000
C       43.92440000      47.92730000      52.67730000
C       43.86590000      51.85660000      47.02320000
C       51.89390000      47.06310000      56.27730000
C       53.01150000      56.18400000      48.22160000
C       43.93830000      48.11610000      46.81860000
C       51.64830000      53.02110000      43.85420000
C       47.92500000      47.26680000      43.65480000
C       48.23100000      52.99090000      55.99230000
C       53.00360000      43.78260000      51.88900000
C       47.13270000      56.12520000      51.95870000
C       47.22580000      43.69960000      48.05850000
C       44.18420000      51.56220000      52.95910000
C       55.88870000      47.96050000      52.99120000
C       55.68560000      51.87950000      47.03640000
C       46.55380000      49.48510000      43.79420000
C       49.40600000      43.58510000      46.96020000
C       44.27020000      46.70720000      48.93980000
C       47.02720000      50.69090000      56.15670000
C       53.32110000      49.26410000      56.13490000
C       52.90530000      50.77650000      43.94420000
C       49.34380000      56.07660000      53.27340000
C       50.77360000      44.16770000      53.22350000
C       50.79770000      55.97840000      46.90230000
C       44.33140000      53.00590000      50.79160000
C       55.85150000      46.72810000      50.68830000
C       55.77540000      53.11500000      49.34870000
C       52.86260000      49.31370000      43.94610000
C       50.80190000      43.91200000      46.88540000
C       55.80500000      46.73630000      49.24470000
C       53.34370000      50.72400000      56.08300000
C       47.12310000      49.29750000      56.45290000
C       46.56990000      50.92480000      43.88720000
C       50.80860000      56.10110000      53.26860000
C       49.25180000      44.21930000      53.19070000
C       49.31520000      56.07350000      46.91790000
C       55.77100000      53.10380000      50.81430000
C       44.15390000      46.65570000      50.40090000
C       44.28130000      53.08230000      49.28950000
C       51.40350000      55.46050000      45.64040000
C       55.59990000      45.41330000      51.27840000
C       45.73530000      51.01730000      55.52960000
C       51.44290000      44.64250000      54.45760000
C       48.75620000      55.61730000      54.52800000
C       48.65050000      43.62760000      45.79490000
C       55.54510000      54.43090000      48.76600000
C       44.82360000      45.48680000      48.27670000
C       44.77040000      54.23230000      51.50760000
C       45.29690000      48.81500000      44.14080000
C       54.16760000      51.33970000      44.38320000
C       54.54250000      48.63030000      55.67910000
C       48.65590000      55.71680000      45.67460000
C       44.45800000      45.38880000      51.05290000
C       54.64510000      51.24520000      55.68950000
C       48.56010000      44.78500000      54.38830000
C       51.42110000      55.66260000      54.51720000
C       51.19540000      44.65090000      45.63930000
C       44.70350000      54.35720000      48.66500000
C       55.53980000      45.41970000      48.65430000
C       55.37650000      54.37630000      51.48780000
C       54.10390000      48.70340000      44.38340000
C       45.27610000      51.46720000      44.28320000
C       45.96800000      48.51810000      56.37480000
C       53.78390000      43.64380000      50.71910000
C       44.15350000      50.28090000      53.65890000
C       50.52700000      53.82280000      43.86780000
C       53.80510000      56.25650000      49.37450000
C       46.37620000      43.67500000      49.13230000
C       46.33920000      56.13700000      50.84040000
C       43.70190000      49.30420000      46.10810000
C       55.76810000      50.69930000      46.29380000
C       56.11270000      49.12100000      53.72740000
C       50.75910000      46.26930000      56.30410000
C       49.40140000      53.74520000      56.13070000
C       49.17710000      46.87050000      43.46660000
C       46.30780000      43.67340000      50.56580000
C       56.18480000      50.54910000      53.72780000
C       49.08920000      53.91010000      43.92080000
C       46.32960000      56.18280000      49.41490000
C       53.78960000      43.62680000      49.30380000
C       53.78030000      56.25200000      50.79420000
C       55.73790000      49.25040000      46.27420000
C       43.69520000      50.72650000      46.19720000
C       43.69450000      49.16860000      53.10470000
C       49.32510000      46.28240000      56.28410000
C       50.86160000      53.76090000      56.12940000
C       50.30070000      46.37060000      43.97390000
C       46.17480000      55.84870000      47.24360000
C       55.12460000      47.05440000      45.99500000
C       47.13240000      46.51950000      55.62150000
C       46.13770000      44.37430000      52.66330000
C       53.91490000      55.81040000      52.96080000
C       53.82880000      44.22890000      47.17570000
C       55.75490000      52.70010000      53.93150000
C       44.43190000      47.07090000      53.74580000
C       44.21040000      52.86550000      46.11540000
C       46.92180000      54.16300000      44.64910000
C       52.56810000      46.22930000      44.25310000
C       53.07560000      54.00190000      55.46340000
C       53.92840000      55.73480000      47.26360000
C       44.38900000      47.19490000      45.86870000
C       52.92360000      46.15560000      55.83910000
C       53.94880000      44.20390000      52.82080000
C       46.23450000      55.67260000      52.99170000
C       46.59850000      44.29880000      46.90120000
C       44.50940000      52.49610000      53.91520000
C       55.39980000      46.96690000      53.97640000
C       55.23040000      52.91490000      46.07520000
C       52.74730000      53.86130000      44.24480000
C       47.11460000      46.17590000      44.18890000
C       47.17150000      53.87840000      55.45740000
C       45.27760000      52.22620000      55.12140000
C       52.66900000      54.88490000      45.26890000
C       55.17990000      44.96330000      52.50040000
C       45.05240000      47.54530000      44.60270000
C       54.63460000      52.58910000      44.81750000
C       54.85990000      47.33790000      55.25520000
C       52.75410000      45.13700000      54.81930000
C       47.46930000      55.18530000      54.90670000
C       47.64000000      44.94570000      44.56720000
C       55.13480000      54.92800000      47.55230000
C       45.49390000      45.23170000      47.01340000
C       45.27910000      54.59280000      52.81280000
C       55.05630000      52.44990000      55.20660000
C       47.33400000      55.39840000      45.28230000
C       44.88250000      45.06420000      52.32640000
C       54.49840000      47.40990000      44.74630000
C       44.89690000      52.65840000      44.82560000
C       44.76670000      47.52170000      55.01540000
C       47.27550000      45.43990000      54.65790000
C       52.72350000      55.28160000      54.89120000
C       52.46680000      45.18960000      45.25890000
C       45.17710000      54.80260000      47.37740000
C       55.05170000      45.00770000      47.44420000
C       54.88310000      54.74420000      52.78050000
C       51.55540000      56.32670000      52.02800000
C       55.99950000      51.83410000      51.50720000
C       52.14720000      51.57650000      56.20910000
C       51.54530000      43.68550000      48.13050000
C       48.57000000      56.30340000      48.16480000
C       48.54400000      43.84750000      51.94990000
C       55.83240000      47.97160000      48.45700000
C       43.97080000      51.88050000      48.49610000
C       43.94350000      47.83540000      51.20330000
C       51.60280000      48.57050000      43.74280000
C       47.80610000      51.72890000      43.80910000
C       48.35160000      48.57060000      56.56250000
C       48.58300000      56.28020000      52.03960000
C       44.09670000      51.70860000      51.48220000
C       48.22280000      51.53660000      56.23790000
C       48.64390000      43.46260000      48.17290000
C       51.54340000      56.23650000      48.14090000
C       51.53620000      43.81100000      52.01170000
C       43.98990000      47.99050000      48.27080000
C       55.84500000      51.89700000      48.52350000
C       55.95980000      47.94450000      51.49490000
C       47.75840000      48.73220000      43.61120000
C       51.70090000      51.57150000      43.73040000
C       52.08020000      48.53310000      56.39870000
