240
Lattice="100.0 0.0 0.0 0.0 100.0 0.0 0.0 0.0 100.0" Properties=species:S:1:pos:R:3 name=C-187658-4107-9 pressure=-15.1484891930211 spacegroup=C1 times_found=1 energy=-1797.57466236615 pbc="T T T"
C       41.65800000      49.31150000      50.62100000
C       50.60470000      41.32580000      49.31460000
C       49.40880000      50.71500000      41.54500000
C       41.63020000      50.71830000      49.14510000
C       58.22750000      50.62300000      50.84980000
C       58.28170000      49.16970000      49.39970000
C       50.54110000      58.29030000      50.62760000
C       49.05790000      58.32050000      49.22980000
C       49.17350000      41.42100000      50.79490000
C       49.31270000      49.12760000      58.26860000
C       50.81480000      49.25410000      41.74900000
C       50.74380000      50.59090000      58.40350000
C       58.23410000      49.18520000      50.85420000
C       49.15390000      41.45310000      49.35970000
C       50.83160000      50.71720000      41.60580000
C       58.29910000      50.60880000      49.39590000
C       41.57870000      50.73140000      50.62220000
C       41.73000000      49.29930000      49.16080000
C       49.08290000      58.26490000      50.66070000
C       50.52460000      58.32110000      49.19890000
C       50.63130000      41.27020000      50.75610000
C       50.73260000      49.11300000      58.35900000
C       49.39520000      49.25340000      41.70670000
C       49.32300000      50.58740000      58.33170000
C       46.52260000      55.81340000      48.21950000
C       48.52180000      46.75780000      55.57390000
C       55.73630000      48.28500000      46.80560000
C       46.94060000      44.30540000      51.95020000
C       53.19620000      43.93800000      48.57690000
C       53.09330000      55.71990000      51.42650000
C       48.36650000      53.43820000      43.88930000
C       51.91240000      53.04390000      55.67990000
C       51.84160000      46.98670000      44.61360000
C       55.64760000      51.57860000      53.31770000
C       44.29530000      52.01480000      46.74670000
C       44.20880000      48.51750000      53.19840000
C       52.97970000      55.61270000      48.02550000
C       52.00260000      46.69750000      55.68840000
C       44.47990000      48.52930000      46.83880000
C       53.27490000      43.82740000      51.54350000
C       46.82010000      44.20450000      48.57380000
C       46.60030000      55.69970000      51.61880000
C       51.67760000      53.36070000      44.12530000
C       48.51290000      53.16570000      55.78690000
C       48.28680000      47.06660000      44.59710000
C       44.28400000      51.93260000      53.07870000
C       55.91540000      51.56140000      46.69610000
C       55.72720000      48.20000000      53.38980000
C       45.13940000      54.31520000      47.17200000
C       47.47110000      45.31590000      54.15790000
C       54.16190000      47.34200000      45.44250000
C       45.70980000      46.34920000      53.05620000
C       54.17160000      46.46960000      46.51230000
C       54.12170000      53.42510000      53.59330000
C       46.22640000      54.35090000      46.31140000
C       52.97410000      54.26090000      53.61040000
C       53.00720000      45.63260000      46.51780000
C       54.17720000      52.62960000      54.72950000
C       46.22770000      53.22290000      45.43500000
C       46.60330000      46.39720000      54.15930000
C       54.32080000      53.66410000      46.87660000
C       53.16820000      45.40180000      53.71870000
C       46.00550000      47.51990000      45.48170000
C       54.27710000      46.30120000      53.71090000
C       45.97840000      46.65290000      46.55440000
C       45.20210000      54.21300000      52.67070000
C       52.60500000      54.72890000      45.72080000
C       46.33510000      54.17330000      53.47130000
C       47.11430000      45.79190000      46.52630000
C       46.33390000      53.02560000      54.30770000
C       53.49960000      53.67040000      45.70330000
C       54.28020000      47.13920000      54.81310000
C       47.08880000      55.43540000      46.89460000
C       47.19600000      47.31700000      55.17570000
C       55.27550000      47.00340000      47.36040000
C       47.59780000      44.30890000      53.21290000
C       52.66230000      44.49500000      47.35170000
C       52.58050000      55.30000000      52.70210000
C       47.10740000      52.87480000      44.33850000
C       53.22010000      52.48130000      55.73620000
C       53.14330000      47.54380000      44.52060000
C       55.16800000      52.83950000      52.68670000
C       44.18930000      53.30810000      47.33480000
C       44.64320000      47.24340000      52.68270000
C       52.39050000      55.65830000      46.73710000
C       53.29290000      47.29310000      55.78210000
C       44.89000000      47.21460000      47.41310000
C       52.82190000      44.28130000      52.84110000
C       47.41850000      44.66930000      47.34810000
C       47.22990000      55.22860000      52.88620000
C       52.98720000      52.81240000      44.57090000
C       47.24540000      52.63960000      55.35110000
C       46.99740000      47.67320000      44.52720000
C       44.21080000      53.24060000      52.51740000
C       55.39110000      52.77720000      47.26710000
C       55.30920000      46.90460000      52.82630000
C       56.53750000      49.14150000      52.64750000
C       52.30240000      56.53420000      49.03240000
C       49.42730000      52.38260000      56.61970000
C       56.71310000      50.63900000      47.51900000
C       43.35560000      50.92160000      52.42380000
C       43.56930000      49.44010000      47.48440000
C       52.50310000      42.86200000      50.77530000
C       47.52910000      43.30420000      49.47700000
C       47.29130000      56.56480000      50.68560000
C       49.31530000      47.66510000      43.68420000
C       50.95360000      47.37340000      56.54730000
C       50.80740000      52.63740000      43.20530000
C       43.36880000      49.42840000      52.41760000
C       47.24830000      56.62720000      49.17180000
C       50.91670000      52.39000000      56.62230000
C       43.45210000      50.95190000      47.42080000
C       56.50460000      50.64730000      52.61850000
C       56.63620000      49.15920000      47.53920000
C       47.54100000      43.32420000      50.96300000
C       52.45890000      42.92320000      49.31050000
C       52.31000000      56.55420000      50.51850000
C       50.82210000      47.63970000      43.70370000
C       49.44330000      47.42990000      56.45020000
C       49.32100000      52.64810000      43.09230000
C       48.29970000      46.04080000      45.62470000
C       45.19040000      48.66340000      45.63340000
C       45.67600000      44.79320000      48.85760000
C       48.79780000      54.33020000      55.23360000
C       51.48300000      54.57010000      44.86440000
C       52.02110000      45.62550000      54.67080000
C       45.36430000      51.87380000      54.08570000
C       55.47250000      51.34800000      45.46510000
C       55.09550000      48.28610000      54.65860000
C       45.33020000      55.06510000      51.55190000
C       54.03340000      54.57860000      48.06170000
C       54.27600000      44.41640000      50.77960000
C       51.82050000      45.94230000      45.63660000
C       55.02790000      48.46060000      45.57760000
C       54.24690000      44.46020000      49.32640000
C       51.83710000      54.04840000      54.59800000
C       48.58030000      54.63150000      44.42030000
C       48.64920000      45.52230000      54.91010000
C       55.02740000      51.51140000      54.59570000
C       45.30850000      52.04660000      45.68170000
C       44.76980000      48.81840000      54.35420000
C       54.24400000      55.15370000      51.12170000
C       45.28090000      55.13380000      48.31500000
C       45.91700000      45.36760000      51.91130000
C       57.27780000      48.51250000      48.67840000
C       48.32460000      57.36150000      48.53470000
C       48.73810000      48.47640000      57.18410000
C       57.18560000      51.28020000      51.50630000
C       42.54750000      51.49130000      48.44430000
C       42.67140000      48.72440000      51.36240000
C       48.57310000      42.44150000      51.53490000
C       51.35640000      42.29950000      48.65160000
C       51.26300000      57.26750000      51.22470000
C       48.70090000      51.54130000      42.41820000
C       51.48940000      51.34020000      57.48640000
C       51.45520000      48.63110000      42.80150000
C       42.82390000      48.72950000      48.51950000
C       51.21790000      57.35860000      48.46660000
C       51.49890000      48.40720000      57.44000000
C       42.48770000      51.48520000      51.37340000
C       57.33760000      51.27890000      48.64550000
C       57.22210000      48.51320000      51.52950000
C       51.44480000      42.17220000      51.44510000
C       48.52530000      42.53760000      48.76330000
C       48.40850000      57.23530000      51.31510000
C       51.47270000      51.52260000      42.55570000
C       48.73060000      51.32140000      57.31610000
C       48.70650000      48.64510000      42.74700000
C       56.57230000      52.34640000      50.76950000
C       50.58750000      56.66540000      52.33610000
C       52.68500000      50.61940000      57.17870000
C       56.65460000      47.43010000      49.36530000
C       43.29220000      47.62570000      50.68410000
C       42.79580000      52.69120000      49.19500000
C       50.67850000      43.04830000      47.63350000
C       49.41340000      42.83930000      52.64610000
C       48.97990000      56.87560000      47.36480000
C       52.60360000      49.43090000      43.14310000
C       47.64550000      49.19890000      56.59790000
C       47.55340000      50.90020000      42.97110000
C       42.78470000      52.68460000      50.65250000
C       49.14770000      56.61590000      52.37780000
C       47.64010000      50.63540000      56.69110000
C       43.40000000      47.63520000      49.24810000
C       56.64440000      47.41600000      50.82050000
C       56.67380000      52.34740000      49.32980000
C       49.25540000      43.13250000      47.66880000
C       50.85390000      42.78800000      52.58380000
C       50.43340000      56.96160000      47.32860000
C       47.55460000      49.46170000      43.06340000
C       52.69350000      49.16000000      57.17630000
C       52.59660000      50.88720000      43.14360000
C       44.39280000      46.81910000      48.66330000
C       48.68130000      44.19040000      46.97170000
C       46.66610000      48.91540000      43.93530000
C       43.58110000      53.60130000      51.29130000
C       55.75180000      53.09620000      48.59170000
C       55.74160000      46.54700000      51.53340000
C       48.54150000      55.64310000      53.21110000
C       51.10740000      56.19180000      46.41920000
C       51.56930000      43.77980000      53.28350000
C       46.87810000      51.35220000      55.77300000
C       53.42450000      51.56420000      44.08060000
C       53.62240000      48.53910000      56.38940000
C       55.72910000      46.59930000      48.63260000
C       51.35580000      44.08650000      46.97320000
C       53.49790000      48.79300000      43.94340000
C       55.57970000      53.16030000      51.37100000
C       43.57630000      53.62880000      48.57730000
C       44.20570000      46.86040000      51.40470000
C       51.30290000      55.73700000      53.08790000
C       48.33710000      55.95210000      46.49810000
C       48.87380000      43.75170000      53.50560000
C       53.58950000      51.25780000      56.36760000
C       46.74980000      51.59530000      43.88570000
C       46.81920000      48.59800000      55.62200000
C       44.95520000      45.71930000      49.45380000
C       49.33510000      45.08920000      46.04700000
C       45.65700000      49.62770000      44.70010000
C       44.31350000      54.66530000      50.63870000
C       54.91740000      54.10100000      49.12430000
C       55.25050000      45.47990000      50.78660000
C       49.36190000      55.03670000      54.27390000
C       50.49910000      55.48260000      45.35350000
C       51.01170000      44.64240000      54.30050000
C       45.83990000      50.82020000      54.98030000
C       54.57370000      50.84270000      44.63310000
C       54.66690000      49.20970000      55.64680000
C       55.22900000      45.51700000      49.34850000
C       50.75070000      45.04210000      46.05960000
C       54.56380000      49.41940000      44.63360000
C       54.96370000      54.21300000      50.54770000
C       44.30110000      54.68670000      49.24460000
C       45.00150000      45.82190000      50.87350000
C       50.78120000      54.95230000      54.13680000
C       49.07670000      55.44520000      45.33970000
C       49.61430000      44.58260000      54.44090000
C       54.64380000      50.60400000      55.62460000
C       45.73010000      51.02570000      44.73200000
C       45.72640000      49.39950000      55.04920000
