240
Lattice="100.0 0.0 0.0 0.0 100.0 0.0 0.0 0.0 100.0" Properties=species:S:1:pos:R:3 name=C-187658-4107-198 pressure=3.66365010321028 spacegroup=C1 times_found=1 energy=-1748.82528590107 pbc="T T T"
C       49.05940000      44.90100000      53.09930000
C       44.54690000      53.33890000      49.15540000
C       53.38110000      49.19810000      44.45100000
C       50.92710000      55.04630000      53.13070000
C       49.20020000      55.42460000      46.86870000
C       50.88520000      44.66280000      46.70170000
C       55.51360000      46.61150000      49.16200000
C       44.58380000      46.77330000      50.78100000
C       55.40370000      53.20600000      51.01360000
C       46.91920000      50.97900000      44.95820000
C       53.21410000      50.74090000      55.47490000
C       46.67150000      49.06800000      55.43030000
C       44.47330000      49.11990000      53.29900000
C       53.29890000      44.52460000      49.11340000
C       49.22860000      53.25490000      44.71480000
C       55.46240000      50.76610000      53.41340000
C       55.45810000      49.11440000      46.77360000
C       44.42910000      50.91390000      46.62890000
C       46.69000000      55.53480000      49.20210000
C       46.73200000      44.61640000      50.76020000
C       53.32310000      55.52580000      50.99440000
C       50.97580000      47.05120000      44.86550000
C       50.82900000      53.14310000      55.46240000
C       49.09820000      46.55600000      55.59220000
C       47.48830000      43.68520000      48.37940000
C       43.62120000      48.58210000      47.40820000
C       48.54500000      47.64010000      43.59730000
C       52.60300000      56.41730000      48.62800000
C       47.50200000      56.36950000      51.61420000
C       52.44010000      43.59900000      51.49660000
C       56.38710000      51.46490000      47.62400000
C       43.61140000      51.51710000      52.50670000
C       56.34840000      48.38550000      52.58650000
C       51.60950000      52.54390000      43.75410000
C       48.45620000      52.41550000      56.39740000
C       51.42730000      47.34380000      56.41930000
C       43.69930000      47.60510000      48.41690000
C       48.50340000      43.70910000      47.38830000
C       47.52860000      48.62290000      43.61280000
C       56.37320000      52.45120000      48.64470000
C       56.35900000      47.39390000      51.57280000
C       43.61460000      52.52460000      51.51140000
C       51.57600000      56.32330000      47.67000000
C       51.42470000      43.60470000      52.48330000
C       48.52040000      56.34400000      52.59690000
C       52.64910000      51.59770000      43.63610000
C       52.39920000      48.35830000      56.34350000
C       47.44610000      51.42310000      56.40220000
C       49.69280000      45.16460000      45.99930000
C       45.03960000      46.09300000      49.57600000
C       46.00600000      49.74700000      44.99800000
C       50.39600000      54.94890000      46.19840000
C       49.67030000      54.84130000      53.98690000
C       50.29240000      44.96150000      54.00780000
C       55.01550000      53.97100000      49.82780000
C       44.97270000      54.04560000      50.37330000
C       55.03040000      45.90220000      50.35210000
C       54.12500000      50.35650000      44.96000000
C       45.95480000      50.28560000      55.01780000
C       53.91550000      49.54800000      55.02550000
C       44.91370000      49.73750000      45.89180000
C       46.01650000      45.06020000      49.56300000
C       49.71300000      46.19860000      45.04780000
C       55.06680000      50.32590000      46.04420000
C       54.97130000      49.55810000      54.07350000
C       44.94170000      50.30410000      54.01410000
C       54.07490000      55.05470000      49.82840000
C       54.00130000      44.91890000      50.33390000
C       45.98090000      55.06030000      50.39070000
C       50.40880000      53.94930000      45.18710000
C       50.28690000      45.83460000      55.10880000
C       49.64170000      53.85560000      54.98560000
C       44.69520000      54.32640000      46.67990000
C       54.31290000      46.70320000      44.62900000
C       46.65590000      44.56640000      54.23870000
C       55.39290000      45.67090000      46.63580000
C       44.66880000      45.69320000      53.24580000
C       55.29490000      54.22090000      53.48550000
C       45.74530000      53.36970000      44.63830000
C       54.22090000      53.23290000      55.43720000
C       45.68600000      46.59760000      55.28780000
C       53.26610000      55.32080000      54.45420000
C       46.74250000      55.34170000      45.77770000
C       53.32050000      44.71470000      45.63690000
C       54.28860000      44.67850000      46.61630000
C       46.76180000      54.29630000      44.73270000
C       44.60970000      46.61510000      54.26110000
C       45.72290000      55.40170000      46.69790000
C       45.72270000      44.65420000      53.22790000
C       54.24320000      55.27500000      53.48330000
C       53.32530000      45.74350000      44.56930000
C       53.26100000      54.21910000      55.44690000
C       46.64090000      45.60250000      55.30440000
C       55.33190000      53.24770000      54.45420000
C       55.36110000      46.67000000      45.68920000
C       44.68530000      53.37390000      45.68050000
C       50.18600000      47.17280000      52.80230000
C       47.42560000      50.89300000      48.82110000
C       51.10830000      49.24620000      46.19800000
C       51.30630000      53.76920000      52.31320000
C       47.38820000      52.19910000      47.31240000
C       52.15470000      47.39010000      47.25880000
C       52.07210000      49.34850000      47.87980000
C       47.80830000      47.22680000      52.57960000
C       51.42870000      52.95270000      49.86990000
C       47.26610000      49.82140000      47.20420000
C       52.49980000      51.67140000      51.89110000
C       49.07250000      48.75920000      52.57010000
C       47.78240000      48.55970000      52.32970000
C       52.58990000      48.18800000      48.23690000
C       47.33800000      51.04040000      46.45720000
C       52.00630000      52.10670000      50.74550000
C       51.49990000      50.24990000      47.05930000
C       47.09620000      49.60470000      48.54500000
C       47.59810000      52.19860000      48.64780000
C       48.98240000      46.39930000      52.68730000
C       51.03390000      53.78600000      50.90370000
C       51.35740000      47.83200000      46.16400000
C       52.10780000      52.65370000      52.71220000
C       50.35670000      48.51670000      52.95500000
C       55.23620000      45.78600000      48.08190000
C       45.79520000      48.03320000      55.17150000
C       48.16540000      55.16750000      45.97660000
C       44.80780000      54.21590000      48.11780000
C       55.09620000      54.05360000      52.06380000
C       44.83120000      45.88300000      51.82050000
C       54.07970000      51.80200000      55.25220000
C       45.82620000      51.93880000      44.74180000
C       54.16540000      48.12570000      44.80610000
C       51.90000000      44.90490000      45.79820000
C       48.08610000      44.67220000      54.17480000
C       51.83560000      55.15430000      54.27870000
C       45.82990000      55.27200000      48.14270000
C       48.07210000      45.68430000      55.25760000
C       55.16380000      48.09060000      45.88770000
C       54.15710000      44.79730000      48.05750000
C       54.09750000      55.13500000      52.05940000
C       45.87080000      44.84760000      51.80820000
C       51.84220000      54.05980000      55.25360000
C       51.89520000      45.91350000      44.73490000
C       48.17990000      54.12500000      44.93930000
C       44.75430000      51.94320000      45.75980000
C       44.73690000      48.05820000      54.15380000
C       55.17240000      51.81140000      54.27560000
C       51.99710000      49.25100000      43.90780000
C       49.11980000      44.11530000      51.77010000
C       44.06570000      51.93190000      49.14470000
C       48.23070000      50.91450000      44.15250000
C       51.79200000      50.68980000      55.92160000
C       48.06610000      49.06060000      55.93630000
C       50.85950000      55.98250000      51.90430000
C       49.22650000      55.91960000      48.28000000
C       50.83860000      44.13950000      48.09400000
C       55.96490000      48.04780000      49.22110000
C       44.11710000      48.19670000      50.76670000
C       55.90840000      51.79940000      50.96930000
C       49.28240000      51.88090000      44.17320000
C       44.06960000      49.19180000      51.85280000
C       51.86330000      44.10040000      49.14320000
C       50.90590000      48.30350000      43.96630000
C       50.77520000      51.73700000      55.92860000
C       49.08040000      47.98570000      56.00060000
C       55.93290000      50.74510000      51.99130000
C       55.93990000      49.10840000      48.19480000
C       44.02260000      50.92490000      48.05910000
C       48.13750000      55.94720000      49.27140000
C       48.12820000      44.12960000      50.73440000
C       51.94080000      56.06730000      50.95330000
C       48.53530000      49.66250000      43.63610000
C       49.53840000      43.71740000      48.40690000
C       43.69390000      48.57720000      49.47940000
C       51.66740000      50.55070000      43.52160000
C       48.42960000      50.35530000      56.38600000
C       51.41720000      49.40770000      56.35310000
C       50.51690000      56.37810000      48.63790000
C       49.57120000      56.37590000      51.58580000
C       50.40350000      43.67250000      51.45290000
C       56.33340000      51.44380000      49.67470000
C       43.63340000      51.54830000      50.44180000
C       56.35430000      48.39850000      50.52960000
C       49.61380000      48.63450000      43.60190000
C       43.61460000      49.62580000      48.41130000
C       48.47510000      43.69130000      49.43950000
C       50.56920000      51.56230000      43.67010000
C       50.37400000      48.33950000      56.43100000
C       49.48830000      51.39960000      56.36570000
C       56.34730000      50.39800000      48.59430000
C       56.34190000      49.45210000      51.60750000
C       43.64830000      50.48190000      51.49750000
C       51.61510000      56.50510000      49.66830000
C       51.47590000      43.66580000      50.41930000
C       48.48150000      56.38050000      50.55370000
C       47.21140000      45.30080000      46.08760000
C       45.21110000      46.28500000      47.09200000
C       46.16960000      47.28610000      45.08570000
C       52.86860000      54.76260000      46.37610000
C       47.18660000      54.77080000      53.87960000
C       52.76290000      45.05790000      53.86450000
C       54.85490000      53.79290000      47.35320000
C       45.16270000      53.82210000      52.85960000
C       54.76970000      46.07030000      52.84110000
C       53.90960000      52.80700000      45.30290000
C       46.13380000      52.77290000      54.85710000
C       53.73510000      47.06660000      54.82550000
C       45.16010000      47.26830000      46.05980000
C       46.18690000      45.28030000      47.08490000
C       47.22130000      46.31680000      45.12330000
C       54.86940000      52.79330000      46.31390000
C       54.74990000      47.07740000      53.85830000
C       45.15050000      52.79190000      53.86270000
C       53.88410000      54.79460000      47.37100000
C       53.76010000      45.09690000      52.83160000
C       46.16630000      54.80220000      52.87220000
C       52.88040000      53.79070000      45.36590000
C       52.76140000      46.02370000      54.87540000
C       47.16300000      53.77180000      54.85830000
C       53.45470000      48.30260000      55.46530000
C       48.45090000      55.41060000      53.62340000
C       55.50830000      53.53010000      48.58690000
C       46.38870000      51.52200000      55.51050000
C       53.71280000      51.62260000      44.52390000
C       46.41500000      48.54670000      44.44160000
C       51.50110000      44.41960000      53.60260000
C       48.44890000      44.63170000      46.35590000
C       51.63420000      55.41070000      46.64440000
C       44.57710000      46.55160000      48.33810000
C       55.47180000      46.33030000      51.61600000
C       44.50180000      53.58530000      51.61060000
C       48.40040000      53.47690000      55.50990000
C       55.43890000      48.31190000      53.63010000
C       53.66840000      55.53170000      48.57850000
C       51.53340000      46.23860000      55.59620000
C       51.65120000      53.53690000      44.70560000
C       48.48720000      46.58750000      44.49950000
C       44.48030000      51.56010000      53.58460000
C       44.43710000      48.48830000      46.29590000
C       55.53770000      51.55680000      46.53570000
C       46.43340000      44.58450000      48.31410000
C       46.42500000      55.49700000      51.64980000
C       53.52310000      44.45440000      51.57760000
