240
Lattice="100.0 0.0 0.0 0.0 100.0 0.0 0.0 0.0 100.0" Properties=species:S:1:pos:R:3 name=C-187658-4107-38 pressure=19.9551098208093 energy=-1738.66585981955 spacegroup=Th times_found=1 pbc="T T T"
C       48.28410000      57.08490000      52.81300000
C       57.08490000      52.81290000      48.28360000
C       52.81330000      48.28400000      57.08480000
C       48.28360000      42.91520000      47.18700000
C       51.71630000      57.08470000      47.18660000
C       51.71600000      42.91520000      52.81340000
C       57.08480000      47.18660000      51.71610000
C       42.91530000      52.81350000      51.71620000
C       42.91510000      47.18700000      48.28410000
C       52.81310000      51.71590000      42.91510000
C       47.18660000      48.28370000      42.91530000
C       47.18700000      51.71640000      57.08480000
C       51.71640000      57.08480000      52.81300000
C       42.91520000      52.81340000      48.28390000
C       47.18690000      48.28410000      57.08490000
C       51.71590000      42.91500000      47.18700000
C       48.28400000      57.08480000      47.18660000
C       48.28370000      42.91530000      52.81340000
C       42.91510000      47.18700000      51.71640000
C       57.08490000      52.81300000      51.71590000
C       57.08470000      47.18650000      48.28380000
C       47.18670000      51.71600000      42.91520000
C       52.81300000      48.28360000      42.91520000
C       52.81340000      51.71630000      57.08470000
C       49.27480000      54.89290000      55.21280000
C       54.89280000      55.21280000      49.27430000
C       55.21300000      49.27460000      54.89260000
C       49.27430000      45.10720000      44.78720000
C       50.72550000      54.89250000      44.78690000
C       50.72540000      45.10740000      55.21310000
C       54.89250000      44.78690000      50.72550000
C       45.10750000      55.21310000      50.72540000
C       45.10710000      44.78720000      49.27480000
C       55.21290000      50.72510000      45.10720000
C       44.78690000      49.27460000      45.10740000
C       44.78720000      50.72570000      54.89280000
C       50.72570000      54.89280000      55.21280000
C       45.10740000      55.21310000      49.27450000
C       44.78710000      49.27490000      54.89280000
C       50.72520000      45.10710000      44.78720000
C       49.27460000      54.89260000      44.78690000
C       49.27450000      45.10750000      55.21310000
C       45.10720000      44.78720000      50.72570000
C       54.89290000      55.21280000      50.72520000
C       54.89250000      44.78690000      49.27460000
C       44.78700000      50.72550000      45.10740000
C       55.21280000      49.27430000      45.10720000
C       55.21310000      50.72540000      54.89260000
C       53.50570000      44.48150000      47.22550000
C       44.48170000      47.22570000      53.50600000
C       47.22540000      53.50580000      44.48170000
C       53.50610000      55.51830000      52.77440000
C       46.49400000      44.48190000      52.77480000
C       46.49420000      55.51830000      47.22530000
C       44.48170000      52.77470000      46.49420000
C       55.51810000      47.22510000      46.49410000
C       55.51840000      52.77450000      53.50570000
C       47.22540000      46.49440000      55.51840000
C       52.77480000      53.50590000      55.51810000
C       52.77440000      46.49390000      44.48180000
C       46.49390000      44.48180000      47.22560000
C       55.51820000      47.22530000      53.50590000
C       52.77460000      53.50560000      44.48160000
C       46.49430000      55.51850000      52.77450000
C       53.50570000      44.48170000      52.77470000
C       53.50600000      55.51810000      47.22520000
C       55.51830000      52.77430000      46.49400000
C       44.48160000      47.22550000      46.49430000
C       44.48190000      52.77490000      53.50590000
C       52.77460000      46.49420000      55.51830000
C       47.22560000      53.50610000      55.51820000
C       47.22520000      46.49410000      44.48190000
C       53.83250000      50.68970000      56.98470000
C       50.68990000      56.98480000      53.83210000
C       56.98490000      53.83210000      50.68930000
C       53.83220000      49.31010000      43.01520000
C       46.16760000      50.68950000      43.01530000
C       46.16780000      49.31070000      56.98480000
C       50.68930000      43.01510000      46.16780000
C       49.31060000      56.98470000      46.16750000
C       49.31030000      43.01540000      53.83250000
C       56.98460000      46.16740000      49.31040000
C       43.01530000      53.83250000      49.31040000
C       43.01510000      46.16790000      50.68980000
C       46.16780000      50.68990000      56.98480000
C       49.31070000      56.98490000      53.83210000
C       43.01540000      53.83260000      50.68960000
C       46.16750000      49.31030000      43.01530000
C       53.83220000      50.68930000      43.01520000
C       53.83240000      49.31050000      56.98470000
C       49.31010000      43.01520000      46.16790000
C       50.68970000      56.98460000      46.16750000
C       50.68940000      43.01530000      53.83250000
C       43.01510000      46.16790000      49.31060000
C       56.98490000      53.83210000      49.31020000
C       56.98460000      46.16750000      50.68960000
C       42.70690000      51.44330000      51.78850000
C       51.44290000      51.78810000      42.70680000
C       51.78820000      42.70680000      51.44320000
C       42.70670000      48.55720000      48.21180000
C       57.29320000      51.44270000      48.21140000
C       57.29320000      48.55680000      51.78830000
C       51.44310000      48.21180000      57.29320000
C       48.55720000      51.78860000      57.29320000
C       48.55680000      48.21140000      42.70690000
C       51.78860000      57.29310000      48.55680000
C       48.21140000      42.70680000      48.55720000
C       48.21190000      57.29330000      51.44280000
C       57.29320000      51.44280000      51.78820000
C       48.55690000      51.78820000      42.70680000
C       48.21140000      42.70690000      51.44320000
C       57.29310000      48.55670000      48.21150000
C       42.70680000      51.44320000      48.21170000
C       42.70680000      48.55730000      51.78860000
C       48.55710000      48.21190000      57.29330000
C       51.44320000      51.78860000      57.29310000
C       51.44280000      48.21140000      42.70680000
C       48.21180000      57.29320000      48.55680000
C       51.78810000      42.70670000      48.55720000
C       51.78860000      57.29320000      51.44280000
C       45.53890000      51.39370000      44.12440000
C       51.39350000      44.12420000      45.53910000
C       44.12420000      45.53920000      51.39400000
C       45.53900000      48.60650000      55.87580000
C       54.46120000      51.39380000      55.87560000
C       54.46090000      48.60590000      44.12430000
C       51.39400000      55.87580000      54.46090000
C       48.60620000      44.12450000      54.46120000
C       48.60630000      55.87560000      45.53880000
C       44.12440000      54.46120000      48.60620000
C       55.87550000      45.53870000      48.60630000
C       55.87580000      54.46090000      51.39350000
C       54.46100000      51.39350000      44.12420000
C       48.60600000      44.12420000      45.53910000
C       55.87560000      45.53880000      51.39380000
C       54.46110000      48.60630000      55.87560000
C       45.53910000      51.39410000      55.87570000
C       45.53880000      48.60620000      44.12440000
C       48.60650000      55.87580000      54.46090000
C       51.39370000      44.12440000      54.46120000
C       51.39390000      55.87550000      45.53880000
C       55.87580000      54.46080000      48.60600000
C       44.12420000      45.53910000      48.60650000
C       44.12450000      54.46130000      51.39370000
C       50.71480000      49.26680000      42.14120000
C       49.26680000      42.14120000      50.71520000
C       42.14120000      50.71510000      49.26720000
C       50.71510000      50.73320000      57.85880000
C       49.28520000      49.26730000      57.85880000
C       49.28490000      50.73280000      42.14120000
C       49.26730000      57.85880000      49.28490000
C       50.73270000      42.14120000      49.28530000
C       50.73320000      57.85880000      50.71470000
C       42.14120000      49.28530000      50.73310000
C       57.85880000      50.71470000      50.73280000
C       57.85880000      49.28480000      49.26690000
C       49.28490000      49.26680000      42.14120000
C       50.73270000      42.14120000      50.71510000
C       57.85880000      50.71470000      49.26690000
C       49.28520000      50.73320000      57.85880000
C       50.71510000      49.26720000      57.85880000
C       50.71480000      50.73270000      42.14120000
C       50.73320000      57.85880000      49.28480000
C       49.26680000      42.14120000      49.28530000
C       49.26730000      57.85880000      50.71470000
C       57.85880000      49.28490000      50.73280000
C       42.14120000      50.71520000      50.73310000
C       42.14120000      49.28530000      49.26720000
C       44.18960000      51.43020000      53.79300000
C       51.42990000      53.79270000      44.18930000
C       53.79280000      44.18940000      51.43000000
C       44.18930000      48.57020000      46.20720000
C       55.81050000      51.42960000      46.20690000
C       55.81060000      48.57010000      53.79290000
C       51.42990000      46.20720000      55.81060000
C       48.57030000      53.79310000      55.81050000
C       48.56990000      46.20700000      44.18960000
C       53.79310000      55.81040000      48.56990000
C       46.20690000      44.18950000      48.57030000
C       46.20730000      55.81070000      51.42980000
C       55.81070000      51.42980000      53.79280000
C       48.57010000      53.79280000      44.18940000
C       46.20690000      44.18960000      51.43010000
C       55.81050000      48.56980000      46.20700000
C       44.18940000      51.43000000      46.20720000
C       44.18950000      48.57040000      53.79310000
C       48.57010000      46.20730000      55.81070000
C       51.43010000      53.79300000      55.81040000
C       51.42970000      46.20690000      44.18950000
C       46.20720000      55.81060000      48.57000000
C       53.79270000      44.18930000      48.57020000
C       53.79310000      55.81050000      51.42970000
C       52.46760000      43.98500000      53.45940000
C       43.98510000      53.45950000      52.46780000
C       53.45920000      52.46750000      43.98480000
C       52.46790000      56.01490000      46.54050000
C       47.53200000      43.98490000      46.54100000
C       47.53250000      56.01520000      53.45910000
C       43.98480000      46.54090000      47.53240000
C       56.01510000      53.45900000      47.53200000
C       56.01500000      46.54070000      52.46780000
C       53.45930000      47.53230000      56.01500000
C       46.54090000      52.46800000      56.01500000
C       46.54060000      47.53220000      43.98510000
C       47.53210000      43.98510000      53.45940000
C       56.01520000      53.45910000      52.46760000
C       46.54070000      52.46770000      43.98500000
C       47.53240000      56.01500000      46.54060000
C       52.46750000      43.98480000      46.54090000
C       52.46800000      56.01510000      53.45900000
C       56.01490000      46.54050000      47.53220000
C       43.98500000      53.45930000      47.53230000
C       43.98490000      46.54100000      52.46800000
C       46.54080000      47.53250000      56.01520000
C       53.45940000      52.46780000      56.01490000
C       53.45910000      47.53200000      43.98500000
C       52.85660000      43.35920000      49.28850000
C       43.35930000      49.28860000      52.85700000
C       49.28830000      52.85670000      43.35920000
C       52.85710000      56.64070000      50.71140000
C       47.14300000      43.35940000      50.71190000
C       47.14330000      56.64080000      49.28820000
C       43.35920000      50.71180000      47.14320000
C       56.64070000      49.28810000      47.14300000
C       56.64080000      50.71150000      52.85670000
C       49.28840000      47.14330000      56.64080000
C       50.71190000      52.85700000      56.64060000
C       50.71150000      47.14290000      43.35930000
C       47.14290000      43.35940000      49.28860000
C       56.64070000      49.28820000      52.85680000
C       50.71160000      52.85660000      43.35920000
C       47.14330000      56.64080000      50.71150000
C       52.85670000      43.35920000      50.71180000
C       52.85700000      56.64060000      49.28810000
C       56.64070000      50.71140000      47.14300000
C       43.35920000      49.28850000      47.14330000
C       43.35940000      50.71190000      52.85700000
C       50.71170000      47.14330000      56.64080000
C       49.28860000      52.85710000      56.64070000
C       49.28810000      47.14300000      43.35940000
