240
Lattice="100.0 0.0 0.0 0.0 100.0 0.0 0.0 0.0 100.0" Properties=species:S:1:pos:R:3 name=C-187658-4107-19 pressure=228.32797349481 energy=-1793.63169570552 spacegroup=C2 times_found=1 pbc="T T T"
C       49.18480000      54.71820000      45.38170000
C       45.23230000      49.41360000      54.67790000
C       54.57630000      45.41090000      49.29170000
C       49.11260000      45.28460000      54.65690000
C       50.72910000      45.40760000      45.43700000
C       50.85940000      54.59150000      54.67560000
C       45.34770000      50.54590000      45.29950000
C       54.60040000      50.68470000      54.59600000
C       54.72980000      49.47890000      45.31320000
C       54.78970000      54.70720000      50.57230000
C       45.42610000      54.59140000      49.29230000
C       45.30740000      45.24100000      50.83490000
C       50.58870000      54.76710000      45.32180000
C       54.59170000      49.26940000      54.56350000
C       45.29090000      45.21210000      49.42770000
C       50.51890000      45.27040000      54.68720000
C       49.31390000      45.39950000      45.40440000
C       49.45550000      54.65290000      54.70010000
C       54.71620000      50.88510000      45.34350000
C       45.28170000      50.81740000      54.61780000
C       45.40860000      49.14200000      45.32410000
C       45.41040000      54.57580000      50.70700000
C       54.76100000      54.69060000      49.16510000
C       54.58720000      45.42190000      50.70900000
C       50.92740000      56.01140000      52.62740000
C       52.59070000      50.61190000      56.12390000
C       56.23590000      52.66990000      50.65320000
C       50.65730000      43.88050000      47.44300000
C       49.18280000      43.72140000      52.67870000
C       49.26250000      56.20960000      47.42000000
C       52.66530000      49.44900000      43.95220000
C       47.26940000      49.36700000      56.07590000
C       47.37920000      50.69240000      43.85300000
C       56.08280000      47.42980000      49.17840000
C       43.89530000      47.29820000      50.83940000
C       43.95660000      52.54320000      49.17310000
C       49.44940000      56.03720000      52.65200000
C       47.31480000      50.84260000      56.06380000
C       43.86840000      52.57780000      50.62920000
C       49.19830000      43.89630000      47.42930000
C       50.63160000      43.79430000      52.67480000
C       50.71280000      56.18940000      47.37380000
C       47.43060000      49.24220000      43.81930000
C       52.54770000      49.15530000      56.03780000
C       52.63700000      50.92790000      43.96790000
C       43.90980000      47.26090000      49.36270000
C       56.11080000      47.43020000      50.63830000
C       56.29720000      52.68630000      49.20480000
C       50.54940000      47.33500000      56.04800000
C       56.27910000      50.81450000      47.32180000
C       47.45910000      56.04450000      50.82620000
C       50.63450000      52.72980000      43.92390000
C       49.30810000      52.62160000      56.14670000
C       49.38760000      47.40900000      43.87620000
C       56.11910000      49.34040000      52.55760000
C       43.98850000      49.07480000      47.37220000
C       43.79050000      50.74020000      52.57940000
C       47.32770000      43.76510000      49.34710000
C       52.56780000      43.91630000      50.82230000
C       52.70430000      56.10360000      49.16030000
C       49.07050000      47.36390000      56.03220000
C       43.96330000      50.55270000      47.34750000
C       52.74140000      56.08920000      50.63710000
C       49.15890000      52.68500000      43.93590000
C       50.75830000      52.56960000      56.18050000
C       50.84420000      47.45150000      43.96250000
C       43.81010000      49.28990000      52.62580000
C       56.20570000      49.36580000      47.32570000
C       56.10380000      50.79950000      52.57110000
C       52.56750000      43.88810000      49.36240000
C       47.31120000      43.70390000      50.79550000
C       47.42470000      56.13260000      49.37010000
C       49.35040000      57.56500000      49.36210000
C       49.18170000      49.25250000      57.49120000
C       57.61290000      49.29500000      49.24050000
C       49.25970000      42.33440000      50.74530000
C       50.69350000      42.41680000      49.32310000
C       50.82490000      57.49840000      50.75760000
C       49.31050000      50.78370000      42.47000000
C       50.65870000      50.63870000      57.54700000
C       50.79420000      49.37490000      42.50120000
C       57.62400000      50.74000000      50.69780000
C       42.49540000      50.62060000      49.20490000
C       42.44710000      49.20960000      50.67980000
C       50.79350000      57.55250000      49.31970000
C       50.62420000      49.20620000      57.49890000
C       42.50130000      49.17800000      49.24190000
C       50.70190000      42.38690000      50.76020000
C       49.25700000      42.37620000      49.30280000
C       49.38230000      57.50490000      50.79440000
C       50.74840000      50.81740000      42.50870000
C       49.21590000      50.69040000      57.52980000
C       49.36170000      49.34090000      42.45300000
C       42.43520000      50.65260000      50.63720000
C       57.66590000      50.73720000      49.25530000
C       57.58280000      49.30360000      50.67760000
C       54.77440000      45.42430000      53.50400000
C       53.09300000      55.37360000      44.68660000
C       45.17180000      53.59110000      54.56450000
C       54.87900000      54.70890000      46.38840000
C       45.20410000      54.61700000      53.49390000
C       44.75350000      44.64270000      46.88940000
C       53.05690000      44.74060000      55.26130000
C       46.52880000      45.34230000      45.17810000
C       46.93810000      55.29880000      55.24290000
C       45.45720000      46.36860000      45.16650000
C       54.76630000      46.47570000      54.55300000
C       54.86550000      53.66120000      45.33660000
C       45.28890000      45.12310000      53.61160000
C       46.41120000      54.82920000      45.43480000
C       54.65870000      53.46980000      54.82200000
C       45.38520000      54.79740000      46.50530000
C       55.35910000      55.24470000      53.11060000
C       54.57410000      45.22350000      46.49680000
C       46.33650000      45.13630000      54.66350000
C       53.52280000      45.23190000      45.44770000
C       53.63280000      54.54180000      54.83350000
C       55.25870000      46.94060000      44.73940000
C       44.62480000      46.90960000      55.31330000
C       44.70280000      53.06350000      44.75650000
C       53.68630000      51.30530000      55.51630000
C       55.60870000      53.75860000      51.29870000
C       51.62100000      55.33500000      53.69290000
C       53.76240000      48.77300000      44.52360000
C       46.16550000      48.70350000      55.50250000
C       46.26170000      51.30390000      44.47050000
C       55.36100000      46.37180000      48.50570000
C       44.55180000      46.24080000      51.56790000
C       44.65820000      53.61820000      48.50870000
C       51.35210000      44.51190000      46.37030000
C       48.48930000      44.35360000      53.75620000
C       48.56550000      55.60020000      46.33310000
C       46.27020000      51.56240000      55.37480000
C       44.48760000      53.66380000      51.32720000
C       48.76500000      55.46630000      53.74300000
C       46.35080000      48.53570000      44.42620000
C       53.61610000      48.48630000      55.32790000
C       53.71280000      51.63340000      44.61240000
C       44.49550000      46.16020000      48.70250000
C       55.48580000      46.35270000      51.33240000
C       55.67260000      53.77890000      48.52670000
C       48.52910000      44.60500000      46.36040000
C       51.26180000      44.44140000      53.76130000
C       51.33230000      55.59430000      46.24980000
C       48.36470000      46.28830000      55.38770000
C       55.55840000      48.73570000      46.23930000
C       46.33850000      55.51370000      48.67210000
C       48.43950000      53.72990000      44.62480000
C       51.46530000      53.64910000      55.57360000
C       51.51270000      46.38280000      44.67260000
C       55.39530000      51.46900000      53.64000000
C       44.53460000      51.23690000      46.25650000
C       44.40480000      48.67020000      53.74990000
C       46.21870000      44.32900000      51.47350000
C       53.64520000      44.51260000      48.66830000
C       53.84190000      55.50310000      51.29730000
C       51.22500000      46.23760000      55.47680000
C       44.66470000      48.38080000      46.30680000
C       53.76150000      55.44660000      48.43200000
C       51.29850000      53.83360000      44.49730000
C       48.69710000      53.73930000      55.52910000
C       48.69370000      46.31380000      44.48390000
C       44.40010000      51.43700000      53.66630000
C       55.64730000      51.50820000      46.24410000
C       55.48720000      48.64610000      53.63030000
C       53.62590000      44.63770000      51.49510000
C       46.23930000      44.39260000      48.70140000
C       46.38380000      55.34340000      51.49060000
C       55.62880000      47.26800000      53.73770000
C       53.81210000      55.40120000      46.97420000
C       47.27320000      53.97170000      55.54860000
C       55.77620000      52.88630000      46.12140000
C       44.28670000      52.81600000      53.75280000
C       44.73320000      46.92820000      46.22970000
C       53.71120000      44.70350000      52.94970000
C       46.07610000      44.37940000      47.26960000
C       46.29640000      55.29100000      52.93990000
C       47.31910000      46.16220000      44.31410000
C       52.66510000      46.06010000      55.52630000
C       52.73160000      54.04500000      44.42310000
C       44.35610000      47.24710000      53.97860000
C       46.18970000      55.67600000      47.29700000
C       52.84260000      53.73260000      55.70640000
C       44.46010000      52.67530000      46.07990000
C       55.35560000      52.92180000      53.74180000
C       55.55710000      47.30610000      46.05890000
C       46.08880000      44.21250000      52.85210000
C       53.75620000      44.36450000      47.28930000
C       54.03870000      55.53270000      52.73560000
C       52.96290000      46.30420000      44.74130000
C       46.90990000      46.22010000      55.33980000
C       46.98420000      53.78000000      44.70200000
C       48.51360000      51.48100000      56.63460000
C       56.64880000      48.58940000      51.39270000
C       51.50220000      56.67030000      48.52240000
C       48.63030000      48.55230000      43.31950000
C       51.33720000      48.47280000      56.56870000
C       51.43120000      51.58630000      43.42540000
C       56.82090000      51.51800000      48.48860000
C       43.30120000      51.43510000      51.37840000
C       43.42680000      48.41090000      48.56630000
C       51.40420000      43.31410000      51.51460000
C       48.50060000      43.29250000      48.58850000
C       48.66660000      56.57010000      51.51690000
C       51.44770000      51.36970000      56.68050000
C       43.32900000      48.50050000      51.47720000
C       48.56770000      56.69920000      48.62090000
C       51.52720000      48.66170000      43.43160000
C       48.41260000      48.57000000      56.57460000
C       48.52010000      51.48650000      43.36510000
C       43.43050000      51.33590000      48.48240000
C       56.70800000      51.49690000      51.41190000
C       56.68550000      48.59310000      48.48600000
C       48.47910000      43.17980000      51.51190000
C       51.40810000      43.35050000      48.60800000
C       51.59150000      56.57270000      51.43330000
C       55.62190000      53.92190000      52.73050000
C       53.07360000      55.26590000      53.77010000
C       53.83830000      52.67980000      55.68600000
C       55.29530000      46.28640000      47.05110000
C       44.59710000      46.19030000      53.02570000
C       44.71070000      53.70550000      47.05940000
C       52.73010000      44.36980000      46.26290000
C       47.11110000      44.22530000      53.87880000
C       47.18650000      55.71410000      46.24650000
C       53.93930000      47.33290000      44.47420000
C       45.95340000      47.27040000      55.57670000
C       46.02980000      52.72790000      44.45080000
C       44.32530000      53.81270000      52.70220000
C       47.32660000      55.54130000      53.91940000
C       46.22080000      53.01770000      55.29740000
C       44.46590000      45.96320000      47.26420000
C       55.63380000      46.24180000      52.71150000
C       55.78920000      53.90870000      47.14810000
C       47.07640000      44.64520000      46.25840000
C       52.69140000      44.44220000      53.94170000
C       52.75550000      55.64250000      46.02120000
C       46.26670000      47.15840000      44.29350000
C       53.69420000      47.03610000      55.25920000
C       53.78150000      53.08820000      44.66020000
