240
Lattice="100.0 0.0 0.0 0.0 100.0 0.0 0.0 0.0 100.0" Properties=species:S:1:pos:R:3 name=C-2495266-1868-101 pressure=0.0127823585035352 spacegroup=C1 times_found=1 energy=-1768.18568790254 pbc="T T T"
C       54.88640000      49.33620000      45.84960000
C       45.87870000      55.08920000      49.29130000
C       49.33750000      45.98280000      54.95060000
C       55.64240000      50.58240000      54.10120000
C       45.07760000      50.68640000      45.83090000
C       45.14500000      49.33960000      54.14580000
C       45.94660000      44.91790000      50.68370000
C       54.12140000      44.81150000      49.28230000
C       54.03930000      54.81350000      50.78150000
C       49.18050000      54.14560000      44.94670000
C       50.55480000      54.27150000      54.99970000
C       50.70500000      45.91340000      45.00080000
C       45.09380000      49.30020000      45.83640000
C       54.07580000      54.79120000      49.38620000
C       50.76110000      45.99950000      54.91880000
C       45.11260000      50.72580000      54.14100000
C       54.91840000      50.74360000      45.90870000
C       55.25450000      49.26230000      54.15640000
C       54.12450000      44.79150000      50.65190000
C       45.93960000      44.91110000      49.32040000
C       45.86430000      55.10110000      50.65080000
C       50.57730000      54.18090000      44.92360000
C       49.15770000      54.21580000      55.00850000
C       49.27970000      45.89500000      44.99880000
C       53.04570000      48.53130000      44.25140000
C       44.42670000      53.13260000      48.36320000
C       48.43150000      44.39420000      53.12540000
C       53.00710000      51.73650000      55.94380000
C       46.87090000      51.53530000      44.19320000
C       46.97220000      48.53400000      55.77830000
C       44.49590000      46.86870000      51.62680000
C       55.55980000      46.77330000      48.32570000
C       55.69060000      52.96320000      51.64800000
C       48.33290000      55.69390000      46.82970000
C       51.48450000      55.77800000      53.10420000
C       51.61970000      44.33690000      46.82630000
C       46.91070000      48.46730000      44.21550000
C       55.71000000      52.98230000      48.53180000
C       51.63170000      44.36860000      53.10830000
C       46.88330000      51.59880000      55.79670000
C       53.06550000      51.69180000      44.35710000
C       53.16130000      48.60360000      55.70840000
C       55.61040000      46.70590000      51.60140000
C       44.47350000      46.85340000      48.38150000
C       44.42130000      53.14420000      51.59120000
C       51.58550000      55.55890000      46.88750000
C       48.28910000      55.74690000      53.12320000
C       48.39360000      44.33420000      46.84890000
C       44.82850000      44.70000000      52.74730000
C       53.03980000      44.98920000      44.82240000
C       44.87340000      52.80940000      44.64270000
C       44.72630000      55.31420000      47.25590000
C       54.96110000      54.86740000      53.03410000
C       55.22170000      44.63040000      47.19300000
C       52.57680000      55.49460000      55.30610000
C       46.85530000      55.05750000      44.83900000
C       47.00880000      45.01810000      55.12820000
C       44.99650000      47.22280000      55.34540000
C       55.02890000      47.21100000      44.62770000
C       55.31540000      51.69360000      54.96160000
C       55.22770000      44.57370000      52.74150000
C       46.94110000      44.94950000      44.85980000
C       55.06770000      53.08770000      45.01660000
C       55.28400000      54.99320000      47.26740000
C       44.69480000      55.33510000      52.68120000
C       44.79360000      44.67310000      47.27710000
C       46.81990000      55.11120000      55.10870000
C       52.68270000      55.28150000      44.72860000
C       53.06210000      45.02420000      55.09190000
C       55.10330000      47.16520000      55.31810000
C       44.92780000      47.17190000      44.65590000
C       44.87660000      52.85140000      55.31520000
C       52.52230000      52.97130000      44.01530000
C       44.31160000      52.67660000      52.93250000
C       52.88690000      43.94200000      52.58050000
C       52.65080000      47.27920000      55.84760000
C       47.40470000      47.14940000      44.02170000
C       47.32470000      52.93200000      56.00110000
C       44.35540000      47.32320000      47.04150000
C       55.74050000      47.19060000      52.94210000
C       55.91990000      52.53720000      47.20580000
C       52.92270000      55.61230000      47.38680000
C       47.01950000      56.08180000      52.56030000
C       47.12750000      43.96980000      47.40340000
C       47.33270000      52.86030000      43.98000000
C       56.07800000      52.46300000      52.90260000
C       47.16240000      44.00980000      52.59550000
C       47.47520000      47.21990000      55.96300000
C       52.56230000      47.20970000      44.03760000
C       52.57330000      53.10780000      55.89400000
C       55.63170000      47.28810000      46.99220000
C       44.39710000      47.35130000      52.96450000
C       44.30800000      52.65700000      47.02630000
C       47.05970000      56.04170000      47.37960000
C       52.82510000      55.90730000      52.60890000
C       52.88860000      43.94870000      47.35470000
C       53.16550000      54.16860000      43.92220000
C       44.34290000      53.44300000      54.12680000
C       54.08120000      43.81480000      53.22580000
C       53.46080000      46.13990000      55.90680000
C       46.56390000      46.03850000      44.00620000
C       46.45550000      54.02180000      55.97450000
C       44.40790000      46.56290000      45.84150000
C       55.63050000      46.48330000      54.16300000
C       55.92320000      53.41930000      46.12080000
C       54.12630000      55.56530000      46.65140000
C       45.79760000      56.15970000      53.16890000
C       45.91260000      43.87070000      46.78870000
C       46.48110000      53.96370000      43.98370000
C       55.69730000      52.89170000      54.18680000
C       45.95760000      43.90820000      53.22860000
C       46.63780000      46.10680000      55.98280000
C       53.40940000      46.10310000      43.99130000
C       53.25800000      54.31600000      55.89470000
C       55.56920000      46.56050000      45.78170000
C       44.46250000      46.60390000      54.17090000
C       44.34920000      53.41680000      45.82660000
C       45.83960000      56.12500000      46.76600000
C       53.98470000      55.86780000      53.38080000
C       54.08870000      43.84810000      46.70960000
C       49.35040000      48.49510000      55.57640000
C       55.52010000      49.17820000      48.37000000
C       48.36570000      55.62690000      49.26260000
C       49.24900000      51.64430000      44.37460000
C       50.65980000      51.77930000      55.66070000
C       50.67600000      48.44470000      44.44140000
C       55.88150000      50.52430000      51.59370000
C       44.51200000      50.70850000      48.35150000
C       44.54930000      49.29410000      51.62880000
C       48.44140000      44.42940000      50.70020000
C       51.61110000      44.37390000      49.25290000
C       51.55190000      55.50010000      50.71000000
C       50.75300000      48.52150000      55.55200000
C       44.52510000      49.27990000      48.35760000
C       51.56800000      55.45130000      49.29570000
C       50.65490000      51.67800000      44.40000000
C       49.25980000      51.74280000      55.65040000
C       49.28090000      48.41480000      44.42170000
C       44.52960000      50.72170000      51.62240000
C       55.56370000      50.58820000      48.40230000
C       55.73780000      49.10670000      51.60190000
C       51.61460000      44.37630000      50.68230000
C       48.43530000      44.41630000      49.27190000
C       48.34700000      55.64150000      50.69370000
C       47.03600000      55.70410000      48.73090000
C       48.80550000      47.15050000      55.57310000
C       55.41970000      48.67890000      47.01070000
C       47.11720000      44.32900000      51.23910000
C       52.93760000      44.25220000      48.71710000
C       52.88150000      55.47020000      51.28910000
C       48.66320000      52.96420000      44.33680000
C       51.19640000      53.12460000      55.57660000
C       51.23580000      47.10750000      44.41830000
C       56.10010000      51.06230000      52.87820000
C       44.54560000      51.27040000      47.01360000
C       44.61570000      48.73910000      52.96800000
C       52.91400000      55.35330000      48.76590000
C       51.31380000      47.19000000      55.49300000
C       44.57280000      48.71240000      47.02300000
C       52.93960000      44.23530000      51.21460000
C       47.10290000      44.31310000      48.75400000
C       47.01100000      55.72780000      51.21180000
C       51.15980000      53.01930000      44.33330000
C       48.65750000      53.04960000      55.64680000
C       48.73700000      47.07020000      44.39950000
C       44.56730000      51.29420000      52.95550000
C       55.55520000      51.20570000      47.08910000
C       55.65450000      48.57920000      52.94910000
C       44.64590000      45.22100000      54.07250000
C       54.19550000      44.41860000      45.39770000
C       45.18470000      53.65220000      43.59280000
C       44.51800000      54.80310000      45.93240000
C       55.28440000      54.20790000      54.28330000
C       55.39450000      45.17410000      45.87220000
C       53.82390000      55.93340000      54.78310000
C       45.69860000      55.59380000      45.44580000
C       45.84760000      44.45690000      54.54560000
C       45.34220000      46.39600000      56.39620000
C       54.69580000      46.40220000      43.56040000
C       54.52630000      54.78210000      55.35130000
C       55.41320000      45.10890000      54.06770000
C       45.78470000      44.40490000      45.46710000
C       54.48550000      54.25730000      44.47810000
C       56.35120000      54.69970000      46.44340000
C       44.49150000      54.83020000      54.00970000
C       44.59280000      45.18070000      45.95010000
C       45.66170000      55.63420000      54.49310000
C       54.01460000      55.43490000      45.26300000
C       54.19700000      44.38950000      54.53750000
C       54.74550000      46.36490000      56.38740000
C       45.26440000      46.33450000      43.61030000
C       45.16210000      53.70150000      56.36600000
C       48.09350000      50.70900000      44.33440000
C       44.51630000      48.08180000      50.70970000
C       50.71440000      44.43490000      48.04070000
C       48.16340000      49.39840000      55.65940000
C       51.85010000      49.38550000      44.40030000
C       51.82170000      50.86740000      55.79530000
C       44.47490000      51.91570000      49.27240000
C       55.69170000      51.73690000      50.73850000
C       55.57560000      47.95180000      49.26220000
C       50.62380000      55.62290000      51.90730000
C       49.26480000      55.59140000      48.05190000
C       49.33410000      44.48300000      51.90790000
C       51.85460000      50.78490000      44.42240000
C       55.63540000      47.91880000      50.68500000
C       49.31700000      44.44310000      48.04960000
C       51.91660000      49.47100000      55.68160000
C       48.10660000      49.32140000      44.35080000
C       48.12180000      50.78740000      55.68290000
C       55.62050000      51.75270000      49.35480000
C       44.47760000      51.92130000      50.69190000
C       44.50560000      48.07550000      49.28760000
C       49.22230000      55.63680000      51.90930000
C       50.67230000      55.52840000      48.07290000
C       50.72820000      44.46510000      51.89920000
C       54.54220000      48.52450000      55.19750000
C       55.15210000      54.30840000      48.55150000
C       48.16460000      55.13460000      54.43560000
C       54.37520000      51.76020000      44.98440000
C       45.56400000      51.57350000      55.22100000
C       45.57770000      48.46590000      44.75750000
C       55.14410000      45.33810000      51.55430000
C       44.91290000      45.46710000      48.43860000
C       44.83930000      54.53490000      51.52900000
C       48.28950000      44.94640000      45.53950000
C       51.73600000      45.02930000      54.39760000
C       51.49400000      55.18000000      45.49130000
C       45.63930000      48.51890000      55.23030000
C       44.85960000      54.51940000      48.41270000
C       51.40390000      55.33460000      54.48920000
C       45.54340000      51.52330000      44.74700000
C       54.31330000      51.43670000      55.81630000
C       54.38390000      48.51630000      44.77380000
C       44.93160000      45.48230000      51.57570000
C       55.13510000      45.38480000      48.38280000
C       55.00070000      54.24470000      51.73230000
C       51.70500000      44.97010000      45.52330000
C       48.34420000      45.02520000      54.42770000
C       48.20120000      55.07490000      45.51840000
