240
Lattice="100.0 0.0 0.0 0.0 100.0 0.0 0.0 0.0 100.0" Properties=species:S:1:pos:R:3 name=C-2495266-1868-26 pressure=-0.00134046966280904 energy=-1735.79857631443 spacegroup=Td times_found=1 pbc="T T T"
C       45.94120000      53.04800000      55.08280000
C       55.08260000      45.94090000      53.04790000
C       53.04810000      55.08270000      45.94120000
C       45.94090000      46.95210000      44.91740000
C       54.05900000      46.95170000      55.08240000
C       54.05880000      53.04820000      44.91740000
C       55.08260000      54.05890000      46.95190000
C       44.91750000      54.05890000      53.04830000
C       44.91730000      45.94120000      46.95190000
C       53.04810000      44.91720000      54.05870000
C       46.95170000      44.91750000      45.94100000
C       46.95200000      55.08250000      54.05910000
C       45.94120000      55.08260000      53.04830000
C       55.08260000      53.04820000      45.94110000
C       53.04820000      45.94090000      55.08240000
C       45.94100000      44.91750000      46.95180000
C       54.05890000      55.08260000      46.95190000
C       54.05890000      44.91730000      53.04790000
C       55.08270000      46.95170000      54.05870000
C       44.91750000      53.04810000      54.05910000
C       44.91730000      46.95200000      45.94110000
C       53.04810000      54.05900000      44.91740000
C       46.95170000      45.94130000      44.91730000
C       46.95200000      54.05880000      55.08280000
C       45.02430000      50.82100000      55.92790000
C       55.92780000      45.02400000      50.82080000
C       50.82110000      55.92790000      45.02430000
C       45.02400000      49.17910000      44.07230000
C       54.97600000      49.17870000      55.92770000
C       54.97580000      50.82120000      44.07210000
C       55.92790000      54.97580000      49.17890000
C       44.07230000      54.97590000      50.82140000
C       44.07210000      45.02420000      49.17890000
C       50.82110000      44.07200000      54.97570000
C       49.17870000      44.07230000      45.02400000
C       49.17910000      55.92770000      54.97610000
C       45.02420000      55.92790000      50.82140000
C       55.92770000      50.82120000      45.02400000
C       50.82120000      45.02390000      55.92770000
C       45.02400000      44.07230000      49.17890000
C       54.97590000      55.92780000      49.17900000
C       54.97580000      44.07210000      50.82080000
C       55.92790000      49.17870000      54.97570000
C       44.07230000      50.82100000      54.97600000
C       44.07210000      49.17910000      45.02420000
C       50.82100000      54.97600000      44.07230000
C       49.17870000      45.02430000      44.07210000
C       49.17910000      54.97570000      55.92800000
C       48.40640000      57.14800000      49.41210000
C       49.41200000      48.40620000      57.14800000
C       57.14800000      49.41190000      48.40620000
C       48.40630000      42.85200000      50.58790000
C       51.59360000      42.85200000      49.41170000
C       51.59380000      57.14800000      50.58820000
C       49.41180000      51.59390000      42.85200000
C       50.58830000      51.59350000      57.14800000
C       50.58790000      48.40650000      42.85190000
C       57.14810000      50.58800000      51.59350000
C       42.85200000      50.58820000      48.40650000
C       42.85200000      49.41200000      51.59380000
C       48.40650000      49.41170000      57.14800000
C       49.41200000      57.14810000      48.40650000
C       57.14800000      48.40630000      49.41170000
C       48.40620000      50.58830000      42.85200000
C       51.59350000      49.41210000      42.85190000
C       51.59380000      50.58790000      57.14800000
C       49.41190000      42.85200000      51.59350000
C       50.58820000      57.14800000      51.59380000
C       50.58800000      42.85200000      48.40610000
C       57.14800000      51.59360000      50.58800000
C       42.85200000      48.40640000      50.58820000
C       42.85200000      51.59380000      49.41210000
C       48.49320000      46.41240000      55.74590000
C       55.74590000      48.49320000      46.41240000
C       46.41260000      55.74610000      48.49340000
C       48.49310000      53.58770000      44.25410000
C       51.50700000      53.58730000      55.74610000
C       51.50670000      46.41260000      44.25390000
C       55.74610000      51.50670000      53.58740000
C       44.25400000      51.50700000      46.41270000
C       44.25410000      48.49310000      53.58760000
C       46.41250000      44.25400000      51.50680000
C       53.58740000      44.25400000      48.49290000
C       53.58760000      55.74590000      51.50690000
C       48.49320000      55.74610000      46.41270000
C       55.74590000      46.41250000      48.49290000
C       46.41260000      48.49300000      55.74600000
C       48.49320000      44.25390000      53.58740000
C       51.50700000      55.74590000      53.58760000
C       51.50670000      44.25410000      46.41230000
C       55.74610000      53.58740000      51.50680000
C       44.25400000      46.41250000      51.50690000
C       44.25400000      53.58760000      48.49340000
C       46.41240000      51.50700000      44.25410000
C       53.58730000      48.49330000      44.25390000
C       53.58760000      51.50660000      55.74600000
C       43.09960000      49.23120000      48.22760000
C       48.22730000      43.09960000      49.23090000
C       49.23090000      48.22760000      43.09960000
C       43.09970000      50.76900000      51.77270000
C       56.90040000      50.76890000      48.22730000
C       56.90040000      49.23090000      51.77240000
C       48.22750000      56.90040000      50.76920000
C       51.77260000      56.90040000      49.23120000
C       51.77250000      43.09960000      50.76870000
C       49.23120000      51.77240000      56.90050000
C       50.76880000      51.77270000      43.09960000
C       50.76910000      48.22730000      56.90030000
C       43.09960000      48.22760000      49.23120000
C       48.22730000      49.23130000      43.09960000
C       49.23090000      43.09970000      48.22730000
C       43.09960000      51.77260000      50.76910000
C       56.90040000      48.22730000      50.76870000
C       56.90040000      51.77250000      49.23100000
C       48.22760000      50.76880000      56.90050000
C       51.77270000      49.23090000      56.90030000
C       51.77240000      50.76910000      43.09960000
C       49.23120000      56.90040000      51.77280000
C       50.76890000      43.09950000      51.77240000
C       50.76900000      56.90040000      48.22760000
C       46.00150000      51.91880000      55.95670000
C       55.95650000      46.00120000      51.91870000
C       51.91890000      55.95660000      46.00150000
C       46.00120000      48.08130000      44.04350000
C       53.99870000      48.08080000      55.95640000
C       53.99850000      51.91910000      44.04340000
C       55.95650000      53.99860000      48.08100000
C       44.04360000      53.99870000      51.91920000
C       44.04340000      46.00150000      48.08110000
C       51.91900000      44.04330000      53.99840000
C       48.08090000      44.04360000      46.00130000
C       48.08120000      55.95640000      53.99880000
C       46.00150000      55.95650000      51.91920000
C       55.95650000      51.91900000      46.00130000
C       51.91900000      46.00120000      55.95640000
C       46.00130000      44.04360000      48.08100000
C       53.99870000      55.95650000      48.08110000
C       53.99860000      44.04340000      51.91870000
C       55.95660000      48.08090000      53.99850000
C       44.04360000      51.91890000      53.99880000
C       44.04340000      48.08120000      46.00140000
C       51.91890000      53.99880000      44.04350000
C       48.08090000      46.00160000      44.04340000
C       48.08120000      53.99850000      55.95670000
C       47.38240000      45.31430000      53.66130000
C       53.66120000      47.38250000      45.31420000
C       45.31430000      53.66150000      47.38260000
C       47.38240000      54.68580000      46.33880000
C       52.61770000      54.68550000      53.66140000
C       52.61740000      45.31440000      46.33850000
C       53.66150000      52.61740000      54.68560000
C       46.33860000      52.61770000      45.31450000
C       46.33870000      47.38230000      54.68570000
C       45.31440000      46.33870000      52.61760000
C       54.68560000      46.33870000      47.38220000
C       54.68580000      53.66120000      52.61760000
C       47.38240000      53.66150000      45.31450000
C       53.66120000      45.31440000      47.38220000
C       45.31440000      47.38240000      53.66140000
C       47.38250000      46.33860000      54.68560000
C       52.61770000      53.66120000      54.68570000
C       52.61740000      46.33880000      45.31420000
C       53.66140000      54.68550000      52.61760000
C       46.33870000      45.31430000      52.61750000
C       46.33870000      54.68580000      47.38260000
C       45.31430000      52.61770000      46.33880000
C       54.68550000      47.38250000      46.33850000
C       54.68580000      52.61740000      53.66130000
C       43.30060000      51.58620000      47.42140000
C       47.42120000      43.30070000      51.58590000
C       51.58590000      47.42140000      43.30060000
C       43.30070000      48.41400000      52.57890000
C       56.69920000      48.41390000      47.42110000
C       56.69940000      51.58590000      52.57870000
C       47.42130000      56.69940000      48.41420000
C       52.57890000      56.69920000      51.58620000
C       52.57860000      43.30070000      48.41370000
C       51.58620000      52.57860000      56.69940000
C       48.41380000      52.57900000      43.30080000
C       48.41410000      47.42110000      56.69930000
C       43.30070000      47.42130000      51.58610000
C       47.42110000      51.58630000      43.30080000
C       51.58590000      43.30070000      47.42100000
C       43.30070000      52.57890000      48.41420000
C       56.69930000      47.42120000      48.41370000
C       56.69940000      52.57860000      51.58600000
C       47.42140000      48.41380000      56.69930000
C       52.57890000      51.58580000      56.69930000
C       52.57860000      48.41410000      43.30060000
C       51.58620000      56.69920000      52.57890000
C       48.41390000      43.30060000      52.57860000
C       48.41400000      56.69940000      47.42150000
C       56.40730000      49.05700000      53.05710000
C       53.05730000      56.40730000      49.05730000
C       49.05730000      53.05710000      56.40740000
C       56.40720000      50.94280000      46.94270000
C       43.59280000      50.94280000      53.05740000
C       43.59270000      49.05730000      46.94290000
C       53.05720000      43.59270000      50.94260000
C       46.94270000      43.59280000      49.05710000
C       46.94290000      56.40730000      50.94310000
C       49.05700000      46.94300000      43.59270000
C       50.94290000      46.94260000      56.40720000
C       50.94270000      53.05740000      43.59280000
C       56.40730000      53.05720000      49.05710000
C       53.05730000      49.05700000      56.40720000
C       49.05730000      56.40720000      53.05740000
C       56.40720000      46.94270000      50.94260000
C       43.59280000      53.05730000      50.94310000
C       43.59270000      46.94290000      49.05720000
C       53.05710000      50.94300000      43.59270000
C       46.94260000      49.05740000      43.59280000
C       46.94290000      50.94270000      56.40740000
C       49.05700000      43.59280000      46.94260000
C       50.94290000      56.40730000      46.94290000
C       50.94280000      43.59260000      53.05700000
C       43.88560000      49.80980000      53.95790000
C       53.95770000      43.88550000      49.80960000
C       49.80980000      53.95790000      43.88570000
C       43.88550000      50.19030000      46.04240000
C       56.11450000      50.18990000      53.95760000
C       56.11440000      49.80990000      46.04210000
C       53.95780000      56.11440000      50.19020000
C       46.04230000      56.11450000      49.81010000
C       46.04220000      43.88560000      50.19010000
C       49.81000000      46.04210000      56.11440000
C       50.19000000      46.04240000      43.88540000
C       50.19030000      53.95760000      56.11460000
C       43.88560000      53.95780000      49.81010000
C       53.95760000      49.81000000      43.88550000
C       49.80990000      43.88540000      53.95760000
C       43.88550000      46.04230000      50.19020000
C       56.11450000      53.95770000      50.19010000
C       56.11440000      46.04220000      49.80960000
C       53.95790000      50.18990000      56.11440000
C       46.04240000      49.80980000      56.11450000
C       46.04210000      50.19030000      43.88560000
C       49.80990000      56.11460000      46.04240000
C       50.19000000      43.88560000      46.04210000
C       50.19030000      56.11430000      53.95790000
