240
Lattice="100.0 0.0 0.0 0.0 100.0 0.0 0.0 0.0 100.0" Properties=species:S:1:pos:R:3 name=C-2495266-1868-125 pressure=1.04184696232316 spacegroup=Td times_found=1 energy=-1784.77532459571 pbc="T T T"
C       56.31370000      54.31490000      52.30530000
C       54.31470000      52.30520000      56.31380000
C       52.30510000      56.31380000      54.31480000
C       56.31380000      45.68510000      47.69500000
C       43.68630000      54.31480000      47.69470000
C       43.68620000      45.68520000      52.30510000
C       54.31500000      47.69480000      43.68640000
C       45.68530000      52.30510000      43.68620000
C       45.68500000      47.69490000      56.31370000
C       52.30520000      43.68620000      45.68530000
C       47.69490000      56.31370000      45.68510000
C       47.69470000      43.68630000      54.31490000
C       56.31370000      52.30520000      54.31490000
C       54.31480000      56.31370000      52.30520000
C       52.30510000      54.31490000      56.31370000
C       56.31380000      47.69480000      45.68530000
C       43.68620000      47.69490000      54.31470000
C       43.68640000      52.30520000      45.68500000
C       54.31490000      43.68620000      47.69500000
C       45.68510000      43.68630000      52.30520000
C       45.68520000      56.31370000      47.69470000
C       52.30530000      45.68510000      43.68640000
C       47.69470000      45.68520000      56.31370000
C       47.69490000      54.31480000      43.68620000
C       52.77860000      48.22310000      53.79240000
C       48.22300000      53.79230000      52.77860000
C       53.79240000      52.77870000      48.22310000
C       52.77880000      51.77690000      46.20770000
C       47.22140000      48.22300000      46.20770000
C       47.22120000      51.77700000      53.79220000
C       48.22310000      46.20770000      47.22130000
C       51.77700000      53.79230000      47.22130000
C       51.77690000      46.20770000      52.77880000
C       53.79230000      47.22130000      51.77700000
C       46.20770000      52.77870000      51.77680000
C       46.20770000      47.22130000      48.22300000
C       52.77870000      53.79230000      48.22310000
C       48.22300000      52.77870000      53.79230000
C       53.79230000      48.22310000      52.77880000
C       52.77870000      46.20770000      51.77700000
C       47.22130000      46.20770000      48.22310000
C       47.22130000      53.79230000      51.77680000
C       48.22310000      47.22130000      46.20770000
C       51.77690000      47.22130000      53.79240000
C       51.77700000      52.77870000      46.20770000
C       53.79240000      51.77690000      47.22140000
C       46.20760000      51.77700000      52.77860000
C       46.20770000      48.22310000      47.22120000
C       50.79780000      45.17010000      52.77930000
C       45.17000000      52.77920000      50.79780000
C       52.77930000      50.79780000      45.17010000
C       50.79790000      54.82990000      47.22080000
C       49.20220000      45.17000000      47.22080000
C       49.20210000      54.83000000      52.77920000
C       45.17010000      47.22080000      49.20210000
C       54.83000000      52.77920000      49.20220000
C       54.82990000      47.22080000      50.79800000
C       52.77910000      49.20220000      54.83000000
C       47.22070000      50.79790000      54.82990000
C       47.22090000      49.20210000      45.17000000
C       50.79800000      52.77920000      45.17000000
C       45.17000000      50.79790000      52.77910000
C       52.77920000      45.17010000      50.79800000
C       50.79780000      47.22080000      54.83000000
C       49.20220000      47.22070000      45.17010000
C       49.20200000      52.77930000      54.82990000
C       45.17010000      49.20210000      47.22070000
C       54.82990000      49.20210000      52.77930000
C       54.83000000      50.79780000      47.22090000
C       52.77920000      54.82990000      49.20210000
C       47.22080000      54.83000000      50.79780000
C       47.22080000      45.17010000      49.20210000
C       42.63110000      52.31240000      46.71730000
C       52.31260000      46.71740000      42.63110000
C       46.71740000      42.63100000      52.31250000
C       42.63100000      47.68760000      53.28240000
C       57.36890000      52.31250000      53.28260000
C       57.36900000      47.68750000      46.71760000
C       52.31230000      53.28260000      57.36900000
C       47.68740000      46.71750000      57.36900000
C       47.68770000      53.28250000      42.63090000
C       46.71750000      57.36900000      47.68740000
C       53.28260000      42.63100000      47.68770000
C       53.28250000      57.36900000      52.31250000
C       42.63100000      46.71750000      52.31240000
C       52.31250000      42.63100000      46.71760000
C       46.71760000      52.31240000      42.63090000
C       42.63110000      53.28250000      47.68740000
C       57.36890000      53.28250000      52.31260000
C       57.36900000      46.71740000      47.68770000
C       52.31240000      57.36900000      53.28250000
C       47.68760000      57.36900000      46.71740000
C       47.68750000      42.63110000      53.28260000
C       46.71730000      47.68760000      57.36890000
C       53.28270000      47.68750000      42.63110000
C       53.28240000      52.31250000      57.36900000
C       53.93030000      54.92610000      50.05130000
C       54.92600000      50.05130000      53.93040000
C       50.05110000      53.93030000      54.92610000
C       53.93030000      45.07390000      49.94890000
C       46.06970000      54.92610000      49.94870000
C       46.06970000      45.07390000      50.05120000
C       54.92620000      49.94870000      46.06980000
C       45.07400000      50.05120000      46.06960000
C       45.07380000      49.94880000      53.93020000
C       50.05130000      46.06970000      45.07390000
C       49.94890000      53.93020000      45.07390000
C       49.94870000      46.06980000      54.92610000
C       53.93020000      50.05130000      54.92620000
C       54.92610000      53.93030000      50.05130000
C       50.05120000      54.92610000      53.93020000
C       53.93040000      49.94870000      45.07400000
C       46.06960000      49.94880000      54.92600000
C       46.06980000      50.05120000      45.07380000
C       54.92610000      46.06970000      49.94890000
C       45.07390000      46.06970000      50.05120000
C       45.07390000      53.93030000      49.94860000
C       50.05130000      45.07390000      46.06980000
C       49.94870000      45.07390000      53.93030000
C       49.94890000      54.92610000      46.06970000
C       50.91260000      43.97310000      46.02020000
C       43.97320000      46.02010000      50.91250000
C       46.02020000      50.91250000      43.97310000
C       50.91250000      56.02680000      53.97980000
C       49.08740000      43.97320000      53.97990000
C       49.08760000      56.02680000      46.02010000
C       43.97320000      53.97990000      49.08730000
C       56.02680000      46.02010000      49.08760000
C       56.02680000      53.97990000      50.91260000
C       46.02000000      49.08750000      56.02670000
C       53.97980000      50.91260000      56.02690000
C       53.98000000      49.08740000      43.97330000
C       50.91260000      46.02010000      43.97320000
C       43.97330000      50.91250000      46.02000000
C       46.02010000      43.97320000      50.91250000
C       50.91240000      53.97990000      56.02680000
C       49.08760000      53.97980000      43.97310000
C       49.08740000      46.02020000      56.02680000
C       43.97310000      49.08750000      53.97980000
C       56.02690000      49.08740000      46.02020000
C       56.02670000      50.91250000      53.98000000
C       46.02020000      56.02680000      49.08730000
C       53.97990000      56.02680000      50.91250000
C       53.97990000      43.97320000      49.08760000
C       43.46820000      49.42060000      51.59870000
C       49.42070000      51.59880000      43.46820000
C       51.59890000      43.46820000      49.42070000
C       43.46830000      50.57940000      48.40100000
C       56.53180000      49.42060000      48.40130000
C       56.53170000      50.57940000      51.59900000
C       49.42050000      48.40120000      56.53180000
C       50.57930000      51.59890000      56.53180000
C       50.57950000      48.40110000      43.46830000
C       51.59890000      56.53180000      50.57940000
C       48.40110000      43.46820000      50.57940000
C       48.40120000      56.53180000      49.42050000
C       43.46820000      51.59890000      49.42050000
C       49.42060000      43.46820000      51.59890000
C       51.59900000      49.42060000      43.46830000
C       43.46820000      48.40120000      50.57930000
C       56.53180000      48.40110000      49.42070000
C       56.53180000      51.59890000      50.57950000
C       49.42070000      56.53180000      48.40110000
C       50.57940000      56.53180000      51.59880000
C       50.57940000      43.46820000      48.40120000
C       51.59870000      50.57940000      56.53180000
C       48.40130000      50.57930000      43.46820000
C       48.40100000      49.42070000      56.53170000
C       56.95930000      52.88830000      50.97110000
C       52.88820000      50.97110000      56.95940000
C       50.97100000      56.95930000      52.88830000
C       56.95930000      47.11170000      49.02920000
C       43.04070000      52.88830000      49.02890000
C       43.04070000      47.11170000      50.97090000
C       52.88840000      49.02890000      43.04070000
C       47.11180000      50.97090000      43.04060000
C       47.11150000      49.02910000      56.95930000
C       50.97100000      43.04070000      47.11180000
C       49.02910000      56.95930000      47.11160000
C       49.02890000      43.04070000      52.88840000
C       56.95930000      50.97100000      52.88840000
C       52.88830000      56.95930000      50.97100000
C       50.97090000      52.88840000      56.95930000
C       56.95940000      49.02900000      47.11180000
C       43.04060000      49.02900000      52.88820000
C       43.04070000      50.97100000      47.11150000
C       52.88830000      43.04070000      49.02910000
C       47.11160000      43.04070000      50.97100000
C       47.11170000      56.95930000      49.02890000
C       50.97110000      47.11160000      43.04070000
C       49.02890000      47.11170000      56.95930000
C       49.02910000      52.88830000      43.04060000
C       44.56910000      54.43180000      46.58440000
C       54.43190000      46.58450000      44.56920000
C       46.58450000      44.56910000      54.43180000
C       44.56900000      45.56820000      53.41540000
C       55.43090000      54.43190000      53.41550000
C       55.43100000      45.56810000      46.58470000
C       54.43180000      53.41550000      55.43100000
C       45.56800000      46.58460000      55.43090000
C       45.56830000      53.41540000      44.56890000
C       46.58470000      55.43090000      45.56800000
C       53.41550000      44.56900000      45.56830000
C       53.41540000      55.43100000      54.43190000
C       44.56900000      46.58460000      54.43180000
C       54.43190000      44.56900000      46.58470000
C       46.58470000      54.43180000      44.56890000
C       44.56910000      53.41540000      45.56800000
C       55.43090000      53.41550000      54.43190000
C       55.43100000      46.58450000      45.56830000
C       54.43180000      55.43100000      53.41550000
C       45.56820000      55.43090000      46.58440000
C       45.56810000      44.56910000      53.41540000
C       46.58450000      45.56820000      55.43090000
C       53.41550000      45.56810000      44.56920000
C       53.41540000      54.43190000      55.43100000
C       49.36740000      51.62760000      55.68820000
C       51.62760000      55.68830000      49.36740000
C       55.68820000      49.36750000      51.62770000
C       49.36760000      48.37240000      44.31170000
C       50.63260000      51.62750000      44.31170000
C       50.63240000      48.37250000      55.68830000
C       51.62750000      44.31170000      50.63260000
C       48.37250000      55.68830000      50.63250000
C       48.37250000      44.31170000      49.36750000
C       55.68830000      50.63250000      48.37260000
C       44.31180000      49.36750000      48.37240000
C       44.31170000      50.63260000      51.62740000
C       49.36740000      55.68830000      51.62750000
C       51.62740000      49.36750000      55.68830000
C       55.68830000      51.62750000      49.36760000
C       49.36750000      44.31170000      48.37250000
C       50.63250000      44.31170000      51.62760000
C       50.63260000      55.68820000      48.37240000
C       51.62770000      50.63250000      44.31180000
C       48.37240000      50.63260000      55.68820000
C       48.37260000      49.36740000      44.31170000
C       55.68820000      48.37240000      50.63270000
C       44.31170000      48.37250000      49.36740000
C       44.31170000      51.62760000      50.63240000
