240
Lattice="100.0 0.0 0.0 0.0 100.0 0.0 0.0 0.0 100.0" Properties=species:S:1:pos:R:3 name=C-2495266-1868-11 pressure=-26.707928122374 spacegroup=Th times_found=1 energy=-1663.38623267811 pbc="T T T"
C       43.76210000      48.65560000      52.99960000
C       48.65570000      52.99960000      43.76220000
C       52.99970000      43.76220000      48.65570000
C       56.23780000      51.34440000      52.99960000
C       43.76210000      51.34430000      47.00040000
C       56.23790000      48.65570000      47.00040000
C       51.34440000      47.00040000      43.76210000
C       48.65570000      47.00040000      56.23780000
C       51.34430000      52.99960000      56.23790000
C       47.00030000      56.23780000      48.65570000
C       52.99960000      56.23790000      51.34440000
C       47.00040000      43.76210000      51.34430000
C       43.76220000      48.65560000      47.00040000
C       48.65560000      52.99960000      56.23790000
C       52.99970000      43.76220000      51.34430000
C       56.23790000      51.34440000      47.00040000
C       43.76210000      51.34430000      52.99960000
C       56.23790000      48.65570000      52.99960000
C       51.34430000      47.00040000      56.23780000
C       48.65570000      47.00040000      43.76210000
C       51.34430000      52.99960000      43.76220000
C       47.00030000      56.23780000      51.34430000
C       52.99960000      56.23790000      48.65570000
C       47.00040000      43.76210000      48.65560000
C       49.29840000      54.25330000      56.41180000
C       54.25330000      56.41180000      49.29850000
C       56.41180000      49.29850000      54.25340000
C       50.70150000      45.74660000      56.41180000
C       49.29850000      45.74670000      43.58820000
C       50.70150000      54.25340000      43.58820000
C       45.74670000      43.58820000      49.29840000
C       54.25340000      43.58820000      50.70150000
C       45.74660000      56.41180000      50.70150000
C       43.58820000      50.70150000      54.25340000
C       56.41180000      50.70160000      45.74660000
C       43.58820000      49.29840000      45.74660000
C       49.29850000      54.25340000      43.58820000
C       54.25330000      56.41180000      50.70160000
C       56.41180000      49.29850000      45.74660000
C       50.70160000      45.74670000      43.58820000
C       49.29850000      45.74660000      56.41180000
C       50.70150000      54.25330000      56.41180000
C       45.74670000      43.58820000      50.70150000
C       54.25340000      43.58820000      49.29850000
C       45.74660000      56.41180000      49.29850000
C       43.58820000      50.70150000      45.74660000
C       56.41180000      50.70160000      54.25340000
C       43.58820000      49.29840000      54.25330000
C       47.04750000      44.98160000      47.95510000
C       44.98170000      47.95510000      47.04740000
C       47.95520000      47.04740000      44.98160000
C       52.95250000      55.01840000      47.95520000
C       47.04740000      55.01830000      52.04490000
C       52.95260000      44.98170000      52.04480000
C       55.01830000      52.04490000      47.04740000
C       44.98160000      52.04480000      52.95260000
C       55.01840000      47.95520000      52.95260000
C       52.04490000      52.95260000      44.98170000
C       47.95510000      52.95250000      55.01840000
C       52.04490000      47.04740000      55.01830000
C       47.04750000      44.98160000      52.04480000
C       44.98170000      47.95510000      52.95260000
C       47.95510000      47.04740000      55.01830000
C       52.95250000      55.01840000      52.04490000
C       47.04740000      55.01830000      47.95510000
C       52.95260000      44.98170000      47.95510000
C       55.01830000      52.04490000      52.95260000
C       44.98160000      52.04480000      47.04740000
C       55.01840000      47.95520000      47.04740000
C       52.04480000      52.95260000      55.01840000
C       47.95510000      52.95260000      44.98170000
C       52.04490000      47.04750000      44.98160000
C       48.01110000      45.69390000      45.65550000
C       45.69390000      45.65550000      48.01100000
C       45.65550000      48.01100000      45.69380000
C       51.98890000      54.30620000      45.65550000
C       48.01100000      54.30610000      54.34450000
C       51.98900000      45.69390000      54.34450000
C       54.30610000      54.34450000      48.01110000
C       45.69380000      54.34450000      51.98900000
C       54.30620000      45.65550000      51.98900000
C       54.34450000      51.98900000      45.69390000
C       45.65550000      51.98890000      54.30610000
C       54.34450000      48.01110000      54.30620000
C       48.01110000      45.69380000      54.34450000
C       45.69390000      45.65540000      51.98890000
C       45.65550000      48.01100000      54.30610000
C       51.98890000      54.30610000      54.34450000
C       48.01100000      54.30610000      45.65550000
C       51.98900000      45.69390000      45.65550000
C       54.30610000      54.34450000      51.98900000
C       45.69380000      54.34450000      48.01100000
C       54.30620000      45.65550000      48.01100000
C       54.34450000      51.98900000      54.30620000
C       45.65550000      51.98890000      45.69390000
C       54.34450000      48.01110000      45.69390000
C       56.46830000      48.54110000      50.71270000
C       48.54100000      50.71270000      56.46830000
C       50.71270000      56.46830000      48.54110000
C       43.53170000      51.45890000      50.71270000
C       56.46830000      51.45900000      49.28730000
C       43.53170000      48.54100000      49.28730000
C       51.45900000      49.28730000      56.46830000
C       48.54110000      49.28730000      43.53170000
C       51.45900000      50.71270000      43.53170000
C       49.28730000      43.53170000      48.54100000
C       50.71280000      43.53170000      51.45890000
C       49.28720000      56.46830000      51.45900000
C       56.46830000      48.54110000      49.28730000
C       48.54110000      50.71270000      43.53170000
C       50.71270000      56.46830000      51.45900000
C       43.53170000      51.45890000      49.28730000
C       56.46830000      51.45900000      50.71270000
C       43.53170000      48.54100000      50.71270000
C       51.45900000      49.28730000      43.53170000
C       48.54100000      49.28730000      56.46830000
C       51.45890000      50.71270000      56.46830000
C       49.28730000      43.53170000      51.45890000
C       50.71280000      43.53170000      48.54100000
C       49.28720000      56.46830000      48.54110000
C       53.63240000      54.57950000      54.64030000
C       54.57950000      54.64030000      53.63240000
C       54.64030000      53.63240000      54.57950000
C       46.36760000      45.42040000      54.64030000
C       53.63250000      45.42050000      45.35970000
C       46.36760000      54.57950000      45.35970000
C       45.42050000      45.35960000      53.63240000
C       54.57960000      45.35970000      46.36760000
C       45.42050000      54.64030000      46.36760000
C       45.35970000      46.36750000      54.57950000
C       54.64040000      46.36760000      45.42050000
C       45.35970000      53.63240000      45.42050000
C       53.63240000      54.57960000      45.35970000
C       54.57950000      54.64040000      46.36760000
C       54.64030000      53.63250000      45.42050000
C       46.36760000      45.42050000      45.35970000
C       53.63240000      45.42050000      54.64030000
C       46.36750000      54.57950000      54.64030000
C       45.42050000      45.35970000      46.36750000
C       54.57950000      45.35970000      53.63240000
C       45.42040000      54.64030000      53.63240000
C       45.35970000      46.36760000      45.42050000
C       54.64030000      46.36760000      54.57950000
C       45.35960000      53.63240000      54.57950000
C       50.72370000      44.51800000      47.45940000
C       44.51800000      47.45940000      50.72370000
C       47.45940000      50.72370000      44.51800000
C       49.27630000      55.48200000      47.45940000
C       50.72360000      55.48200000      52.54060000
C       49.27640000      44.51800000      52.54060000
C       55.48200000      52.54060000      50.72370000
C       44.51790000      52.54060000      49.27630000
C       55.48210000      47.45940000      49.27630000
C       52.54060000      49.27640000      44.51800000
C       47.45940000      49.27630000      55.48200000
C       52.54060000      50.72370000      55.48210000
C       50.72370000      44.51800000      52.54060000
C       44.51800000      47.45940000      49.27630000
C       47.45940000      50.72360000      55.48200000
C       49.27630000      55.48200000      52.54060000
C       50.72360000      55.48200000      47.45940000
C       49.27640000      44.51800000      47.45940000
C       55.48200000      52.54060000      49.27630000
C       44.51790000      52.54060000      50.72370000
C       55.48210000      47.45940000      50.72370000
C       52.54060000      49.27630000      55.48210000
C       47.45940000      49.27630000      44.51800000
C       52.54060000      50.72370000      44.51800000
C       49.26000000      54.92450000      55.12530000
C       54.92450000      55.12540000      49.26010000
C       55.12530000      49.26010000      54.92460000
C       50.74000000      45.07540000      55.12530000
C       49.26010000      45.07550000      44.87460000
C       50.73990000      54.92460000      44.87470000
C       45.07550000      44.87460000      49.26000000
C       54.92460000      44.87470000      50.73990000
C       45.07540000      55.12530000      50.73990000
C       44.87460000      50.73990000      54.92460000
C       55.12530000      50.74000000      45.07540000
C       44.87470000      49.26010000      45.07540000
C       49.26000000      54.92460000      44.87470000
C       54.92450000      55.12540000      50.74000000
C       55.12540000      49.26010000      45.07540000
C       50.74000000      45.07550000      44.87470000
C       49.26010000      45.07540000      55.12530000
C       50.73990000      54.92460000      55.12540000
C       45.07550000      44.87460000      50.73990000
C       54.92460000      44.87470000      49.26010000
C       45.07540000      55.12530000      49.26010000
C       44.87470000      50.73990000      45.07540000
C       55.12530000      50.73990000      54.92460000
C       44.87470000      49.26000000      54.92450000
C       51.83290000      43.22110000      49.27110000
C       43.22110000      49.27110000      51.83280000
C       49.27120000      51.83280000      43.22110000
C       48.16710000      56.77890000      49.27120000
C       51.83280000      56.77900000      50.72890000
C       48.16720000      43.22100000      50.72880000
C       56.77890000      50.72890000      51.83280000
C       43.22110000      50.72880000      48.16720000
C       56.77900000      49.27120000      48.16720000
C       50.72890000      48.16720000      43.22110000
C       49.27120000      48.16720000      56.77890000
C       50.72880000      51.83280000      56.77900000
C       51.83290000      43.22110000      50.72880000
C       43.22110000      49.27110000      48.16720000
C       49.27110000      51.83280000      56.77890000
C       48.16710000      56.77890000      50.72890000
C       51.83280000      56.77900000      49.27120000
C       48.16720000      43.22110000      49.27110000
C       56.77890000      50.72890000      48.16720000
C       43.22100000      50.72880000      51.83280000
C       56.77900000      49.27120000      51.83280000
C       50.72880000      48.16720000      56.77890000
C       49.27120000      48.16720000      43.22100000
C       50.72880000      51.83290000      43.22110000
C       45.18430000      52.96430000      48.12090000
C       52.96430000      48.12090000      45.18440000
C       48.12090000      45.18440000      52.96430000
C       54.81570000      47.03570000      48.12090000
C       45.18440000      47.03570000      51.87910000
C       54.81560000      52.96430000      51.87910000
C       47.03570000      51.87910000      45.18440000
C       52.96430000      51.87910000      54.81560000
C       47.03570000      48.12090000      54.81560000
C       51.87900000      54.81560000      52.96430000
C       48.12090000      54.81560000      47.03570000
C       51.87910000      45.18440000      47.03570000
C       45.18430000      52.96430000      51.87910000
C       52.96430000      48.12090000      54.81560000
C       48.12090000      45.18440000      47.03570000
C       54.81570000      47.03570000      51.87910000
C       45.18440000      47.03570000      48.12090000
C       54.81560000      52.96430000      48.12090000
C       47.03570000      51.87910000      54.81560000
C       52.96430000      51.87910000      45.18440000
C       47.03570000      48.12090000      45.18440000
C       51.87910000      54.81570000      47.03570000
C       48.12090000      54.81560000      52.96430000
C       51.87910000      45.18440000      52.96430000
