240
Lattice="100.0 0.0 0.0 0.0 100.0 0.0 0.0 0.0 100.0" Properties=species:S:1:pos:R:3 name=C-2495266-1868-164 pressure=-0.915028237271282 spacegroup=Oh times_found=1 energy=-1780.46931413002 pbc="T T T"
C       51.65980000      43.02820000      51.65880000
C       43.02760000      51.65850000      51.65730000
C       51.66190000      51.66110000      43.02930000
C       48.33900000      56.97110000      51.66030000
C       51.65940000      56.97210000      48.34240000
C       48.34180000      43.02850000      48.33850000
C       56.97120000      48.34090000      51.66180000
C       43.02920000      48.33990000      48.33760000
C       56.97210000      51.66070000      48.34330000
C       48.34320000      48.34160000      43.02740000
C       51.65720000      48.33930000      56.97190000
C       48.33770000      51.65800000      56.97140000
C       51.66100000      43.02890000      48.33970000
C       43.02880000      51.65910000      48.33820000
C       51.65680000      51.65840000      56.97260000
C       48.34020000      56.97180000      48.34120000
C       51.65820000      56.97150000      51.66150000
C       48.34060000      43.02780000      51.65760000
C       56.97240000      48.34150000      48.34270000
C       43.02790000      48.33930000      51.65670000
C       56.97080000      51.66010000      51.66240000
C       48.33810000      48.33890000      56.97070000
C       51.66230000      48.34200000      43.02860000
C       48.34280000      51.66070000      43.02810000
C       54.66240000      52.89440000      54.66670000
C       52.89250000      54.66390000      54.66640000
C       54.66290000      54.66440000      52.89730000
C       45.33420000      47.10380000      54.66220000
C       54.66650000      47.10670000      45.33670000
C       45.33690000      52.89510000      45.33440000
C       47.10410000      45.33430000      54.66250000
C       52.89700000      45.33680000      45.33570000
C       47.10640000      54.66500000      45.33540000
C       45.33500000      45.33450000      52.89210000
C       54.66610000      45.33660000      47.10610000
C       45.33610000      54.66450000      47.10440000
C       54.66580000      52.89620000      45.33780000
C       52.89590000      54.66570000      45.33750000
C       54.66500000      54.66550000      47.10790000
C       45.33760000      47.10560000      45.33330000
C       54.66310000      47.10490000      54.66560000
C       45.33350000      52.89330000      54.66330000
C       47.10750000      45.33610000      45.33360000
C       52.89360000      45.33500000      54.66460000
C       47.10300000      54.66320000      54.66430000
C       45.33710000      45.33560000      47.10270000
C       54.66390000      45.33550000      52.89560000
C       45.33390000      54.66340000      52.89390000
C       50.73500000      55.77070000      53.96980000
C       55.77070000      53.96900000      50.74000000
C       53.96620000      50.73650000      55.77300000
C       49.26210000      44.22780000      53.96710000
C       50.73920000      44.22950000      46.03070000
C       49.26370000      55.77210000      46.03240000
C       44.22880000      46.03080000      50.73430000
C       55.77210000      46.03240000      49.26420000
C       44.22840000      53.96790000      49.26150000
C       46.02950000      49.26130000      55.76980000
C       53.97060000      49.26440000      44.22990000
C       46.03360000      50.73780000      44.22730000
C       50.73790000      55.77220000      46.03290000
C       55.77120000      53.96920000      49.26570000
C       53.97050000      50.73870000      44.23020000
C       49.26500000      44.22930000      46.03020000
C       50.73630000      44.22790000      53.96760000
C       49.26080000      55.77050000      53.96930000
C       44.22930000      46.03100000      49.26000000
C       55.77160000      46.03210000      50.73850000
C       44.22790000      53.96760000      50.73580000
C       46.03380000      49.26350000      44.22700000
C       53.96640000      49.26220000      55.77270000
C       46.02940000      50.73560000      55.77010000
C       48.44970000      43.49720000      53.05730000
C       43.49820000      53.05860000      48.44830000
C       53.06170000      48.45170000      43.49880000
C       51.54810000      56.50160000      53.06090000
C       48.45040000      56.50240000      46.94160000
C       51.55180000      43.49870000      46.94020000
C       56.50290000      46.94190000      48.45190000
C       43.49780000      46.93990000      51.54700000
C       56.50110000      53.05950000      51.55290000
C       46.94310000      51.55080000      43.49720000
C       53.05650000      51.54900000      56.50340000
C       46.93870000      48.44850000      56.50060000
C       48.45190000      43.49840000      46.93910000
C       43.49710000      53.05810000      51.54810000
C       53.05690000      48.44920000      56.50280000
C       51.55030000      56.50280000      46.94270000
C       48.44820000      56.50130000      53.05980000
C       51.54960000      43.49760000      53.05840000
C       56.50180000      46.94140000      51.55170000
C       43.49890000      46.94050000      48.44710000
C       56.50220000      53.06010000      48.45300000
C       46.93830000      51.54830000      56.50120000
C       53.06130000      51.55150000      43.49940000
C       46.94350000      48.45100000      43.49660000
C       47.05220000      56.26080000      52.94610000
C       56.26250000      52.94730000      47.05690000
C       52.94400000      47.05310000      56.26220000
C       52.94560000      43.73810000      52.94590000
C       47.05580000      43.73850000      47.05170000
C       52.94640000      56.26260000      47.05630000
C       43.73970000      47.05390000      47.05120000
C       56.26100000      47.05420000      52.94770000
C       43.73690000      52.94470000      52.94430000
C       47.05140000      52.94450000      56.26120000
C       52.94790000      52.94750000      43.73990000
C       47.05660000      47.05490000      43.73660000
C       47.05440000      56.26190000      47.05410000
C       56.26030000      52.94610000      52.94880000
C       52.94860000      47.05550000      43.73880000
C       52.94780000      43.73920000      47.05390000
C       47.05360000      43.73740000      52.94370000
C       52.94420000      56.26150000      52.94830000
C       43.73750000      47.05270000      52.94310000
C       56.26310000      47.05530000      47.05570000
C       43.73900000      52.94580000      47.05230000
C       47.05600000      52.94690000      43.73780000
C       52.94340000      52.94510000      56.26340000
C       47.05210000      47.05250000      56.26010000
C       55.25980000      53.59180000      53.59450000
C       53.58950000      53.59130000      55.26350000
C       53.59000000      55.26120000      53.59420000
C       44.73760000      46.40680000      53.58930000
C       55.26320000      46.40940000      46.40940000
C       44.73940000      53.59200000      46.40690000
C       46.40660000      46.40670000      55.25950000
C       53.59420000      46.40950000      44.73910000
C       46.40960000      53.59250000      44.73790000
C       46.40740000      44.73740000      53.58960000
C       53.59380000      44.73960000      46.40840000
C       46.40880000      55.26180000      46.40780000
C       55.26240000      53.59320000      46.41070000
C       53.59340000      53.59330000      44.74050000
C       53.59260000      55.26260000      46.41040000
C       44.74020000      46.40820000      46.40550000
C       55.26060000      46.40800000      53.59310000
C       44.73680000      53.59060000      53.59060000
C       46.41050000      46.40870000      44.73650000
C       53.59040000      46.40750000      55.26210000
C       46.40580000      53.59050000      55.26090000
C       46.41000000      44.73880000      46.40580000
C       53.59120000      44.73820000      53.59220000
C       46.40620000      55.26040000      53.59160000
C       45.14650000      45.14520000      48.54080000
C       45.14740000      48.54390000      45.14340000
C       48.54590000      45.14620000      45.14400000
C       54.85460000      54.85540000      48.54630000
C       45.14430000      54.85370000      51.45560000
C       54.85460000      45.14570000      51.45730000
C       54.85620000      51.45790000      45.14750000
C       45.14350000      51.45500000      54.85310000
C       54.85300000      48.54320000      54.85610000
C       51.45770000      54.85570000      45.14690000
C       48.54120000      54.85350000      54.85500000
C       51.45520000      45.14470000      54.85420000
C       45.14540000      45.14460000      51.45370000
C       45.14380000      48.54210000      54.85250000
C       48.54230000      45.14430000      54.85310000
C       54.85350000      54.85480000      51.45920000
C       45.14540000      54.85430000      48.54270000
C       54.85570000      45.14630000      48.54440000
C       54.85260000      51.45610000      54.85660000
C       45.14700000      51.45680000      45.14390000
C       54.85650000      48.54500000      45.14690000
C       51.45410000      54.85380000      54.85600000
C       48.54480000      54.85530000      45.14580000
C       51.45880000      45.14650000      45.14500000
C       56.50070000      51.55010000      53.06180000
C       51.54720000      53.05800000      56.50320000
C       53.05780000      56.50210000      51.55230000
C       43.49700000      48.44870000      53.05640000
C       56.50330000      48.45140000      46.94300000
C       43.49890000      51.54980000      46.93880000
C       48.44800000      46.93950000      56.50090000
C       51.55270000      46.94230000      43.49800000
C       48.45210000      53.06020000      43.49800000
C       46.94110000      43.49730000      51.54760000
C       53.06040000      43.49860000      48.44990000
C       46.94070000      56.50200000      48.45020000
C       56.50300000      51.55130000      46.94360000
C       51.55200000      53.06050000      43.49910000
C       53.05890000      56.50270000      48.45240000
C       43.49930000      48.44990000      46.93820000
C       56.50110000      48.45020000      53.06120000
C       43.49670000      51.54860000      53.05700000
C       48.45280000      46.94200000      43.49680000
C       51.54790000      46.93980000      56.50200000
C       48.44730000      53.05770000      56.50200000
C       46.94220000      43.49790000      48.44770000
C       53.05930000      43.49800000      51.54980000
C       46.93960000      56.50140000      51.55010000
C       53.96940000      44.22920000      49.26320000
C       44.22730000      49.26140000      53.96620000
C       49.26450000      53.96950000      44.22910000
C       46.03120000      55.77110000      49.26250000
C       53.96750000      55.77170000      50.73970000
C       46.03190000      44.22800000      50.73460000
C       55.76980000      50.73700000      53.97070000
C       44.23000000      50.73720000      46.02960000
C       55.77290000      49.26430000      46.03350000
C       50.73970000      46.03280000      44.22810000
C       49.26120000      46.03040000      55.77030000
C       50.73460000      53.96740000      55.77240000
C       53.96880000      44.22890000      50.73750000
C       44.23020000      49.26300000      46.02930000
C       49.26030000      53.96730000      55.77190000
C       46.03060000      55.77080000      50.73680000
C       53.96810000      55.77200000      49.26540000
C       46.03250000      44.22830000      49.26030000
C       55.77270000      50.73860000      46.03380000
C       44.22710000      50.73570000      53.96650000
C       55.77000000      49.26280000      53.97040000
C       50.73550000      46.03050000      55.77090000
C       49.26540000      46.03260000      44.22760000
C       50.73880000      53.96960000      44.22970000
C       57.29430000      49.27310000      49.27460000
C       49.26950000      49.27060000      57.29360000
C       49.27150000      57.29400000      49.27320000
C       42.70620000      50.72720000      49.26960000
C       57.29360000      50.72860000      50.73070000
C       42.70580000      49.27110000      50.72510000
C       50.72510000      50.72660000      57.29440000
C       49.27470000      50.72920000      42.70590000
C       50.73060000      49.27360000      42.70610000
C       50.72900000      42.70620000      49.27100000
C       49.27270000      42.70580000      50.72620000
C       50.72680000      57.29390000      50.72960000
C       57.29380000      49.27280000      50.73040000
C       49.27490000      49.27340000      42.70560000
C       49.27100000      57.29380000      50.72900000
C       42.70570000      50.72690000      50.72540000
C       57.29420000      50.72890000      49.27490000
C       42.70640000      49.27140000      49.26930000
C       50.73050000      50.72940000      42.70640000
C       49.26940000      50.72640000      57.29390000
C       50.72530000      49.27080000      57.29410000
C       50.72850000      42.70600000      50.72680000
C       49.27320000      42.70610000      49.27040000
C       50.72730000      57.29420000      49.27380000
