240
Lattice="100.0 0.0 0.0 0.0 100.0 0.0 0.0 0.0 100.0" Properties=species:S:1:pos:R:3 name=C-2495266-1868-130 pressure=-28.5063139747602 spacegroup=C1 times_found=1 energy=-1764.6167066068 pbc="T T T"
C       56.52470000      47.10190000      50.51690000
C       46.91840000      50.85300000      56.56410000
C       50.83950000      56.22540000      47.16190000
C       56.41970000      52.90390000      49.03720000
C       43.72420000      47.14870000      49.24080000
C       43.48160000      52.84490000      51.00470000
C       47.25400000      49.33190000      43.82860000
C       52.97420000      50.64770000      43.10450000
C       52.61550000      49.34290000      56.22100000
C       50.63000000      43.80930000      52.83250000
C       49.37910000      56.57110000      53.03160000
C       49.55370000      43.41400000      47.14920000
C       43.76450000      47.15100000      50.68940000
C       52.64520000      50.78410000      56.21720000
C       49.39740000      56.13410000      47.25180000
C       43.44700000      52.84050000      49.57090000
C       56.43440000      47.07030000      49.07960000
C       56.52190000      52.90480000      50.47530000
C       52.98120000      49.22100000      43.12200000
C       47.21390000      50.77750000      43.75090000
C       46.89450000      49.41940000      56.67170000
C       49.18650000      43.71110000      52.85190000
C       50.80950000      56.45070000      52.97560000
C       50.98660000      43.46710000      47.14000000
C       45.71130000      44.72380000      52.78620000
C       45.34830000      53.13430000      46.54170000
C       53.28870000      46.26210000      45.14580000
C       46.05270000      54.31700000      47.30450000
C       54.42870000      44.59720000      47.08270000
C       54.03820000      54.45130000      52.85870000
C       45.44520000      47.07550000      54.10950000
C       54.60990000      53.12530000      53.49920000
C       54.54870000      46.99620000      45.75640000
C       52.82420000      54.29170000      55.27350000
C       46.69890000      46.38460000      54.76840000
C       47.24620000      54.22810000      44.84600000
C       53.95590000      45.65820000      52.84720000
C       54.51860000      52.89700000      45.72030000
C       47.27230000      45.99660000      45.66280000
C       54.35620000      55.30820000      47.01460000
C       46.51330000      45.29560000      46.85850000
C       46.28890000      54.75670000      53.34930000
C       54.54330000      46.97180000      53.49750000
C       44.55260000      52.87940000      54.46720000
C       44.85160000      47.22420000      45.79890000
C       46.96680000      54.14020000      54.63890000
C       52.66980000      45.87220000      55.19790000
C       53.25710000      53.61440000      45.09400000
C       50.35350000      45.39890000      55.57350000
C       45.46160000      55.36390000      51.06890000
C       55.62000000      50.67900000      45.00330000
C       51.00570000      54.51410000      44.46990000
C       49.57160000      45.38670000      44.68450000
C       49.15850000      54.88110000      55.79430000
C       45.53840000      44.51070000      49.01470000
C       54.92000000      55.81870000      49.27500000
C       54.80800000      44.36170000      50.79530000
C       55.07840000      49.30740000      54.25200000
C       44.01710000      50.62050000      55.01080000
C       44.48840000      49.55060000      45.40100000
C       48.91610000      45.50740000      55.49660000
C       54.83250000      55.66270000      50.71980000
C       44.57780000      50.98050000      45.56740000
C       49.56680000      54.64440000      44.44460000
C       51.01860000      45.38740000      44.57950000
C       50.61070000      54.92880000      55.89180000
C       54.96180000      44.14400000      49.36550000
C       45.45970000      55.27560000      49.61950000
C       45.35860000      44.40350000      50.44270000
C       44.19070000      49.18270000      54.88220000
C       55.09610000      50.77280000      54.24830000
C       55.63170000      49.21660000      45.00930000
C       49.35330000      57.62630000      50.80600000
C       57.55890000      50.72070000      49.00510000
C       50.55610000      49.38230000      57.69450000
C       49.42010000      42.19000000      49.29820000
C       50.77130000      57.51760000      49.30880000
C       50.81500000      42.40850000      50.79360000
C       57.68100000      49.26570000      50.46870000
C       42.24910000      50.66840000      50.87350000
C       42.33490000      49.23160000      49.38080000
C       50.72340000      50.65910000      42.09990000
C       49.27680000      49.21500000      42.40710000
C       49.10350000      50.85830000      57.71320000
C       50.81040000      57.58880000      50.77670000
C       42.20650000      50.70180000      49.42150000
C       49.08460000      49.40400000      57.79860000
C       50.87110000      42.26460000      49.33320000
C       49.32650000      57.47980000      49.33970000
C       49.37160000      42.32670000      50.76740000
C       42.38250000      49.20650000      50.82550000
C       57.67710000      50.73770000      50.45660000
C       57.56290000      49.25680000      49.01620000
C       49.26930000      50.65830000      42.32640000
C       50.72360000      49.19660000      42.15120000
C       50.57080000      50.82090000      57.65470000
C       56.92060000      48.21720000      48.36410000
C       48.02520000      48.70750000      57.26800000
C       48.68740000      56.71330000      48.38210000
C       57.09320000      51.75190000      51.17840000
C       43.12600000      48.21650000      51.43730000
C       42.79850000      51.77420000      48.79530000
C       48.31690000      51.39810000      42.99350000
C       51.81740000      48.50440000      42.63130000
C       51.58540000      51.46000000      56.98250000
C       48.60330000      42.96660000      51.71880000
C       51.49320000      56.94590000      51.80380000
C       51.60190000      42.82150000      48.29660000
C       42.99690000      48.27990000      48.63310000
C       51.52390000      48.69510000      56.99080000
C       51.47300000      56.93920000      48.27580000
C       42.80630000      51.70050000      51.61020000
C       57.09370000      48.26440000      51.20560000
C       56.90750000      51.74570000      48.34020000
C       51.81490000      51.36100000      42.58200000
C       48.34360000      48.59460000      43.21440000
C       48.08000000      51.54160000      57.06730000
C       51.39950000      43.18730000      51.77260000
C       48.66840000      57.13290000      51.88880000
C       48.78600000      42.76490000      48.22100000
C       56.50130000      50.69800000      46.13700000
C       50.42970000      46.36820000      56.65560000
C       46.39910000      56.46550000      50.92680000
C       56.30560000      49.30370000      53.46640000
C       43.10620000      50.60180000      53.88420000
C       43.38890000      49.45280000      46.35110000
C       50.90650000      53.65830000      43.29580000
C       49.41850000      46.35920000      43.63730000
C       49.10930000      53.77070000      56.70490000
C       46.42490000      43.35320000      49.08490000
C       53.79790000      56.73450000      49.31220000
C       53.70920000      43.43500000      50.84810000
C       43.41120000      50.90740000      46.44180000
C       48.97400000      46.39520000      56.65320000
C       53.72810000      56.58070000      50.77700000
C       43.30280000      49.14340000      53.75180000
C       56.31840000      50.75020000      53.45910000
C       56.51360000      49.22320000      46.14330000
C       49.45110000      53.70650000      43.33660000
C       50.86340000      46.28120000      43.44410000
C       50.58240000      53.80110000      56.79950000
C       53.86390000      43.19870000      49.39860000
C       46.46530000      56.29240000      49.47880000
C       46.32170000      43.31520000      50.53770000
C       48.51920000      45.20070000      45.54300000
C       45.46750000      45.47150000      47.96220000
C       45.28020000      48.40840000      45.18080000
C       48.19560000      54.98450000      54.81550000
C       51.50270000      45.20670000      54.78990000
C       52.10960000      54.59770000      45.36680000
C       45.28420000      54.51700000      52.20520000
C       54.86170000      45.40540000      51.68930000
C       55.08720000      54.95300000      48.15960000
C       44.89110000      51.73140000      55.19610000
C       54.25060000      48.15480000      54.43550000
C       54.69410000      51.68970000      44.84640000
C       52.16050000      45.25010000      45.42540000
C       55.13130000      44.98950000      48.23130000
C       54.71480000      48.19540000      44.86620000
C       51.69510000      55.07040000      54.98280000
C       47.85070000      45.39420000      54.55430000
C       48.43990000      54.84030000      45.26470000
C       54.90450000      54.65180000      51.65270000
C       45.10590000      45.16480000      51.59840000
C       45.25650000      54.43630000      48.55460000
C       54.30290000      51.94530000      54.43560000
C       45.19900000      48.25700000      54.98810000
C       45.53090000      52.03880000      45.49570000
C       44.23420000      52.86470000      47.36680000
C       52.98330000      47.06470000      44.01900000
C       46.88640000      44.07270000      52.74820000
C       44.57170000      47.11990000      52.95010000
C       55.70680000      52.83520000      52.66410000
C       55.47450000      47.04270000      46.88380000
C       52.70040000      53.08990000      55.85760000
C       46.94390000      47.21570000      55.88590000
C       47.28740000      53.07050000      44.16350000
C       47.18000000      55.22730000      47.32480000
C       53.25880000      43.94410000      47.17270000
C       52.96490000      55.42970000      52.89250000
C       55.44640000      52.87980000      46.84560000
C       47.29810000      47.11510000      44.73930000
C       52.84610000      44.72640000      52.82600000
C       55.66740000      47.22670000      52.68680000
C       43.92020000      52.80420000      53.28510000
C       44.16500000      47.26010000      46.95360000
C       46.95980000      53.03460000      55.58840000
C       52.58650000      47.05110000      55.83080000
C       52.97060000      52.81020000      43.96640000
C       53.15550000      55.90410000      47.12960000
C       47.34470000      44.18740000      47.12980000
C       47.15580000      55.83010000      53.03880000
C       47.36410000      56.16520000      48.44040000
C       56.38120000      48.19780000      47.04640000
C       48.00760000      47.34330000      56.79820000
C       47.21150000      43.25670000      51.60910000
C       52.80890000      56.39450000      51.77920000
C       52.97520000      43.14550000      48.33970000
C       56.56910000      51.73130000      52.53750000
C       43.58420000      48.19910000      52.78770000
C       43.28380000      51.83330000      47.43630000
C       48.40420000      52.78830000      43.30250000
C       51.85590000      47.17150000      43.17410000
C       51.58160000      52.84150000      56.71540000
C       52.86510000      56.70400000      48.28660000
C       43.32590000      48.38920000      47.24940000
C       51.45850000      47.31090000      56.67730000
C       52.72830000      43.70440000      51.77610000
C       47.30700000      56.67390000      51.92050000
C       47.42260000      43.23810000      48.16180000
C       43.10160000      51.65540000      52.98930000
C       56.55130000      48.31170000      52.55770000
C       56.36230000      51.73550000      47.02490000
C       51.86470000      52.71250000      43.09150000
C       48.39400000      47.27290000      43.77090000
C       48.09210000      52.86380000      56.53110000
C       51.59520000      44.59790000      53.54420000
C       44.23640000      53.52360000      52.09070000
C       53.69390000      51.61310000      43.88030000
C       51.95710000      55.56430000      46.42950000
C       48.58150000      44.19830000      46.48210000
C       48.35360000      55.88060000      53.76770000
C       44.45790000      46.49850000      48.12410000
C       55.66070000      53.66790000      48.06410000
C       55.77420000      46.43640000      51.53370000
C       53.26440000      48.25610000      55.47550000
C       46.16890000      51.82230000      55.79260000
C       46.54370000      48.34320000      44.59490000
C       48.04460000      44.40030000      53.51420000
C       55.79630000      53.60180000      51.49360000
C       46.55250000      51.88910000      44.47960000
C       48.39300000      55.39120000      46.54450000
C       52.06100000      44.22650000      46.44690000
C       51.77360000      55.66290000      53.70560000
C       55.68650000      46.28140000      48.11800000
C       44.24240000      53.50790000      48.60620000
C       44.49640000      46.41470000      51.68480000
C       46.20300000      48.40360000      55.93400000
C       53.32630000      51.86180000      55.47760000
C       53.70830000      48.26100000      43.90690000
