240
Lattice="100.0 0.0 0.0 0.0 100.0 0.0 0.0 0.0 100.0" Properties=species:S:1:pos:R:3 name=C-2495266-1868-4 pressure=0.0147118536154001 energy=-1781.79518574654 spacegroup=Th times_found=1 pbc="T T T"
C       45.35560000      44.88670000      53.98130000
C       44.88690000      53.98220000      45.35620000
C       53.98140000      45.35600000      44.88640000
C       45.35720000      55.11440000      46.01820000
C       54.64330000      44.88570000      46.01860000
C       54.64400000      55.11320000      53.98190000
C       44.88550000      46.01890000      54.64330000
C       55.11400000      53.98100000      54.64390000
C       55.11360000      46.01790000      45.35660000
C       53.98190000      54.64310000      55.11410000
C       46.01760000      45.35680000      55.11350000
C       46.01920000      54.64410000      44.88600000
C       54.64280000      44.88560000      53.98180000
C       55.11450000      53.98110000      45.35670000
C       46.01810000      45.35690000      44.88590000
C       54.64440000      55.11330000      46.01870000
C       45.35600000      44.88680000      46.01810000
C       45.35670000      55.11430000      53.98140000
C       55.11310000      46.01780000      54.64380000
C       44.88640000      53.98210000      54.64340000
C       44.88600000      46.01900000      45.35610000
C       46.01860000      54.64400000      55.11360000
C       53.98080000      45.35590000      55.11400000
C       53.98240000      54.64320000      44.88650000
C       48.55680000      45.22250000      44.73010000
C       45.22180000      44.73080000      48.55670000
C       44.73040000      48.55770000      45.22200000
C       48.55730000      54.77780000      55.26970000
C       51.44210000      45.22210000      55.26980000
C       51.44380000      54.77760000      44.73040000
C       45.22280000      55.27030000      51.44270000
C       54.77700000      44.72970000      51.44310000
C       54.77830000      55.26920000      48.55740000
C       44.73020000      51.44350000      54.77740000
C       55.26930000      48.55640000      54.77790000
C       55.27020000      51.44240000      45.22260000
C       51.44270000      45.22220000      44.73030000
C       54.77720000      44.72970000      48.55730000
C       55.26980000      48.55650000      45.22260000
C       51.44320000      54.77750000      55.26990000
C       48.55620000      45.22240000      55.26960000
C       48.55790000      54.77790000      44.73020000
C       54.77820000      55.26920000      51.44330000
C       45.22170000      44.73080000      51.44260000
C       45.22300000      55.27030000      48.55690000
C       55.26960000      51.44230000      54.77800000
C       44.72980000      48.55760000      54.77740000
C       44.73070000      51.44360000      45.22210000
C       56.01460000      53.02610000      48.55080000
C       53.02620000      48.55010000      56.01440000
C       48.55100000      56.01440000      53.02670000
C       56.01380000      46.97260000      51.44980000
C       43.98600000      53.02740000      51.44930000
C       43.98550000      46.97400000      48.55010000
C       53.02720000      51.44930000      43.98600000
C       46.97350000      48.55090000      43.98560000
C       46.97310000      51.44980000      56.01410000
C       48.55000000      43.98600000      46.97310000
C       51.45040000      56.01410000      46.97340000
C       51.44870000      43.98560000      53.02670000
C       43.98620000      53.02740000      48.55020000
C       46.97280000      48.55070000      56.01400000
C       51.45000000      56.01400000      53.02690000
C       43.98540000      46.97390000      51.44920000
C       56.01450000      53.02600000      51.44990000
C       56.01400000      46.97260000      48.55070000
C       46.97380000      51.44990000      43.98560000
C       53.02690000      48.55020000      43.98590000
C       53.02650000      51.44910000      56.01440000
C       51.44900000      43.98560000      46.97330000
C       48.55130000      56.01440000      46.97330000
C       48.54960000      43.98590000      53.02660000
C       47.12890000      56.60510000      48.67920000
C       56.60480000      48.67860000      47.12850000
C       48.67860000      47.12820000      56.60470000
C       47.12730000      43.39560000      51.32050000
C       52.87250000      56.60440000      51.32090000
C       52.87120000      43.39490000      48.67940000
C       56.60470000      51.32000000      52.87230000
C       43.39490000      48.68000000      52.87150000
C       43.39550000      51.32150000      47.12780000
C       48.68000000      52.87210000      43.39520000
C       51.32080000      47.12800000      43.39530000
C       51.32070000      52.87170000      56.60490000
C       52.87270000      56.60440000      48.67950000
C       43.39530000      48.68000000      47.12770000
C       51.32000000      47.12790000      56.60480000
C       52.87110000      43.39490000      51.32080000
C       47.12880000      56.60510000      51.32060000
C       47.12750000      43.39560000      48.67910000
C       43.39520000      51.32140000      52.87150000
C       56.60450000      48.67850000      52.87220000
C       56.60510000      51.32000000      47.12850000
C       51.32140000      52.87180000      43.39530000
C       48.67930000      47.12830000      43.39510000
C       48.67920000      52.87200000      56.60470000
C       45.83210000      55.47040000      47.23550000
C       55.46980000      47.23510000      45.83160000
C       47.23490000      45.83160000      55.46970000
C       45.83060000      44.53060000      52.76400000
C       54.16910000      55.46940000      52.76460000
C       54.16820000      44.52970000      47.23590000
C       55.47000000      52.76360000      54.16900000
C       44.52960000      47.23630000      54.16830000
C       44.53070000      52.76500000      45.83110000
C       47.23650000      54.16900000      44.53000000
C       52.76410000      45.83110000      44.53020000
C       52.76450000      54.16830000      55.47010000
C       54.16940000      55.46940000      47.23600000
C       44.53000000      47.23640000      45.83100000
C       52.76350000      45.83100000      55.47000000
C       54.16790000      44.52960000      52.76450000
C       45.83180000      55.47030000      52.76410000
C       45.83090000      44.53060000      47.23540000
C       44.53020000      52.76490000      54.16840000
C       55.46930000      47.23500000      54.16890000
C       55.47040000      52.76370000      45.83170000
C       52.76510000      54.16840000      44.53030000
C       47.23550000      45.83170000      44.52990000
C       47.23590000      54.16890000      55.46980000
C       43.52200000      51.84740000      49.31130000
C       51.84690000      49.31150000      43.52180000
C       49.31080000      43.52180000      51.84650000
C       43.52150000      48.15410000      50.68800000
C       56.47850000      51.84590000      50.68880000
C       56.47810000      48.15260000      49.31190000
C       51.84640000      50.68810000      56.47840000
C       48.15290000      49.31170000      56.47820000
C       48.15380000      50.68870000      43.52160000
C       49.31240000      56.47840000      48.15340000
C       50.68780000      43.52170000      48.15330000
C       50.68900000      56.47820000      51.84680000
C       56.47850000      51.84590000      49.31200000
C       48.15360000      49.31190000      43.52160000
C       50.68760000      43.52160000      51.84660000
C       56.47800000      48.15260000      50.68870000
C       43.52190000      51.84740000      50.68810000
C       43.52150000      48.15410000      49.31120000
C       48.15310000      50.68850000      56.47820000
C       51.84620000      49.31130000      56.47840000
C       51.84710000      50.68830000      43.52180000
C       50.68920000      56.47820000      48.15350000
C       49.31100000      43.52180000      48.15320000
C       49.31220000      56.47830000      51.84670000
C       43.91720000      47.37870000      52.84710000
C       47.37870000      52.84780000      43.91750000
C       52.84690000      43.91730000      47.37810000
C       43.91810000      52.62270000      47.15230000
C       56.08230000      47.37740000      47.15290000
C       56.08250000      52.62130000      52.84780000
C       47.37740000      47.15280000      56.08220000
C       52.62200000      52.84710000      56.08260000
C       52.62200000      47.15240000      43.91770000
C       52.84800000      56.08200000      52.62220000
C       47.15180000      43.91790000      52.62180000
C       47.15340000      56.08270000      47.37790000
C       56.08190000      47.37730000      52.84770000
C       52.62260000      52.84720000      43.91780000
C       47.15200000      43.91800000      47.37780000
C       56.08280000      52.62130000      47.15290000
C       43.91750000      47.37870000      47.15220000
C       43.91770000      52.62260000      52.84710000
C       52.62130000      47.15220000      56.08250000
C       47.37800000      52.84760000      56.08230000
C       47.37800000      47.15290000      43.91740000
C       47.15310000      56.08270000      52.62190000
C       52.84660000      43.91730000      52.62210000
C       52.84820000      56.08210000      47.37820000
C       50.72160000      51.60830000      43.23050000
C       51.60750000      43.23030000      50.72110000
C       43.23050000      50.72180000      51.60800000
C       50.72050000      48.39150000      56.76950000
C       49.27870000      51.60830000      56.76950000
C       49.27910000      48.39180000      43.23040000
C       51.60910000      56.76930000      49.27910000
C       48.39090000      43.23070000      49.27870000
C       48.39240000      56.76970000      50.72110000
C       43.23050000      49.27970000      48.39130000
C       56.76970000      50.72040000      48.39200000
C       56.76930000      49.27810000      51.60870000
C       49.27950000      51.60850000      43.23050000
C       48.39090000      43.23070000      50.72090000
C       56.76950000      50.72030000      51.60870000
C       49.27840000      48.39170000      56.76950000
C       50.72090000      51.60820000      56.76960000
C       50.72130000      48.39170000      43.23050000
C       48.39250000      56.76970000      49.27890000
C       51.60760000      43.23030000      49.27890000
C       51.60910000      56.76930000      50.72130000
C       56.76950000      49.27820000      48.39200000
C       43.23070000      50.72190000      48.39130000
C       43.23030000      49.27960000      51.60800000
C       54.19160000      50.76090000      44.52370000
C       50.76050000      44.52340000      54.19120000
C       44.52390000      54.19180000      50.76110000
C       54.19090000      49.23810000      55.47670000
C       45.80860000      50.76180000      55.47630000
C       45.80900000      49.23920000      44.52330000
C       50.76220000      55.47650000      45.80890000
C       49.23830000      44.52360000      45.80870000
C       49.23900000      55.47650000      54.19130000
C       44.52310000      45.80940000      49.23830000
C       55.47700000      54.19060000      49.23900000
C       55.47600000      45.80810000      50.76160000
C       45.80910000      50.76190000      44.52330000
C       49.23780000      44.52350000      54.19110000
C       55.47690000      54.19060000      50.76170000
C       45.80840000      49.23910000      55.47630000
C       54.19100000      50.76080000      55.47670000
C       54.19140000      49.23820000      44.52370000
C       49.23950000      55.47660000      45.80880000
C       50.76100000      44.52350000      45.80870000
C       50.76170000      55.47640000      54.19130000
C       55.47610000      45.80820000      49.23890000
C       44.52400000      54.19190000      49.23840000
C       44.52300000      45.80940000      50.76100000
C       43.78320000      50.67760000      54.07140000
C       50.67770000      54.07180000      43.78340000
C       54.07100000      43.78290000      50.67710000
C       43.78350000      49.32380000      45.92790000
C       56.21690000      50.67630000      45.92860000
C       56.21640000      49.32230000      54.07210000
C       50.67610000      45.92810000      56.21660000
C       49.32320000      54.07180000      56.21670000
C       49.32290000      45.92840000      43.78330000
C       54.07250000      56.21620000      49.32340000
C       45.92760000      43.78380000      49.32280000
C       45.92890000      56.21710000      50.67680000
C       56.21650000      50.67620000      54.07210000
C       49.32390000      54.07190000      43.78340000
C       45.92750000      43.78380000      50.67660000
C       56.21680000      49.32240000      45.92860000
C       43.78360000      50.67770000      45.92790000
C       43.78310000      49.32370000      54.07140000
C       49.32230000      45.92820000      56.21660000
C       50.67710000      54.07160000      56.21670000
C       50.67680000      45.92820000      43.78330000
C       45.92900000      56.21710000      49.32290000
C       54.07110000      43.78290000      49.32320000
C       54.07240000      56.21620000      50.67720000
