240
Lattice="100.0 0.0 0.0 0.0 100.0 0.0 0.0 0.0 100.0" Properties=species:S:1:pos:R:3 name=C-2495266-1868-76 pressure=5.11429820770459 energy=-1779.62914391031 spacegroup=Oh times_found=1 pbc="T T T"
C       53.74070000      44.23000000      48.25340000
C       44.23150000      48.25490000      53.74370000
C       48.25270000      53.74150000      44.23070000
C       46.25790000      55.77000000      48.25630000
C       53.74220000      55.76990000      51.74370000
C       46.25910000      44.23010000      51.74660000
C       55.77140000      51.74510000      53.73930000
C       44.22860000      51.74520000      46.26080000
C       55.76850000      48.25480000      46.25630000
C       51.74290000      46.25850000      44.22940000
C       48.25710000      46.25850000      55.77060000
C       51.74740000      53.74140000      55.76930000
C       44.22940000      53.74160000      48.25710000
C       48.25630000      44.23010000      53.74210000
C       53.73920000      48.25480000      44.22860000
C       55.76920000      46.25850000      48.25260000
C       55.77070000      53.74140000      51.74290000
C       44.23070000      46.25860000      51.74740000
C       51.74660000      55.76990000      53.74080000
C       51.74360000      44.23010000      46.25780000
C       48.25350000      55.77000000      46.25920000
C       46.25630000      51.74520000      44.23150000
C       46.26070000      48.25490000      55.77140000
C       53.74370000      51.74510000      55.76850000
C       56.03190000      49.99990000      48.00190000
C       50.00230000      48.00430000      56.03270000
C       48.00430000      56.03270000      50.00080000
C       43.96650000      50.00010000      48.00660000
C       56.03350000      49.99990000      51.99340000
C       43.96810000      50.00010000      51.99810000
C       50.00240000      51.99570000      56.03270000
C       49.99770000      51.99570000      43.96730000
C       49.99760000      48.00430000      43.96730000
C       51.99570000      43.96730000      49.99920000
C       48.00420000      43.96730000      50.00070000
C       51.99580000      56.03270000      49.99930000
C       49.99930000      56.03270000      48.00430000
C       48.00660000      50.00000000      56.03350000
C       56.03270000      48.00420000      49.99770000
C       49.99920000      43.96730000      48.00430000
C       50.00080000      56.03270000      51.99570000
C       50.00070000      43.96730000      51.99570000
C       51.99810000      50.00000000      56.03190000
C       51.99340000      50.00000000      43.96650000
C       48.00190000      50.00000000      43.96810000
C       43.96730000      51.99580000      50.00230000
C       43.96730000      48.00430000      50.00230000
C       56.03270000      51.99570000      49.99770000
C       43.84420000      51.39900000      47.58650000
C       51.39660000      47.58420000      43.84460000
C       47.58460000      43.84520000      51.39990000
C       56.15390000      48.60100000      47.58180000
C       43.84610000      48.60110000      52.41820000
C       56.15580000      51.39890000      52.41350000
C       48.59870000      52.41590000      43.84570000
C       51.40140000      52.41580000      56.15430000
C       48.60340000      47.58410000      56.15540000
C       52.41650000      56.15480000      51.39810000
C       47.58370000      56.15490000      48.60200000
C       52.41520000      43.84510000      48.60010000
C       51.39800000      43.84520000      47.58360000
C       47.58180000      51.39900000      43.84610000
C       43.84570000      47.58420000      51.40130000
C       48.60020000      56.15490000      47.58470000
C       48.60190000      43.84520000      52.41640000
C       51.40000000      56.15480000      52.41530000
C       52.41350000      48.60100000      43.84420000
C       52.41820000      51.39890000      56.15390000
C       47.58650000      48.60100000      56.15580000
C       56.15540000      52.41580000      51.39660000
C       56.15430000      47.58410000      48.59860000
C       43.84460000      52.41590000      48.60340000
C       50.72900000      54.70130000      44.28060000
C       54.70150000      44.28080000      50.72930000
C       44.28270000      50.73120000      54.70350000
C       49.26660000      45.29880000      44.28110000
C       50.73330000      45.29870000      55.71890000
C       49.27110000      54.70120000      55.71950000
C       45.29910000      55.71920000      50.73300000
C       54.70100000      55.71910000      49.26700000
C       45.29840000      44.28090000      49.27060000
C       55.72100000      49.26880000      54.69900000
C       44.27900000      49.26890000      45.30100000
C       55.71740000      50.73110000      45.29650000
C       54.69900000      50.73110000      44.27900000
C       44.28120000      54.70130000      50.73340000
C       50.73290000      44.28080000      54.70090000
C       45.29650000      49.26890000      44.28270000
C       45.30100000      50.73120000      55.72100000
C       54.70350000      49.26880000      55.71730000
C       55.71940000      45.29870000      50.72890000
C       55.71890000      54.70120000      49.26660000
C       44.28050000      45.29880000      49.27100000
C       49.27070000      55.71920000      54.70160000
C       49.26700000      44.28090000      45.29900000
C       50.72940000      55.71920000      45.29850000
C       53.95870000      47.04640000      45.01950000
C       47.04790000      45.02110000      53.96180000
C       45.02000000      53.96070000      47.04840000
C       46.03740000      52.95360000      45.02260000
C       53.96260000      52.95350000      54.97740000
C       46.04120000      47.04650000      54.98040000
C       52.95510000      54.97890000      53.95950000
C       47.04500000      54.97900000      46.04050000
C       52.95190000      45.02110000      46.03820000
C       54.97770000      46.03930000      47.04450000
C       45.02220000      46.03940000      52.95540000
C       54.98010000      53.96060000      52.95160000
C       47.04460000      53.96070000      45.02230000
C       45.02260000      47.04650000      53.96260000
C       53.95950000      45.02110000      47.04490000
C       52.95160000      46.03930000      45.01990000
C       52.95550000      53.96060000      54.97780000
C       47.04830000      46.03930000      54.98000000
C       54.98050000      52.95350000      53.95870000
C       54.97730000      47.04640000      46.03740000
C       45.01960000      52.95360000      46.04130000
C       46.03820000      54.97900000      47.04800000
C       46.04040000      45.02110000      52.95510000
C       53.96190000      54.97890000      52.95200000
C       55.71880000      45.29870000      49.26660000
C       45.30100000      49.26890000      55.72100000
C       49.26710000      55.71920000      45.29910000
C       44.28060000      54.70130000      49.27110000
C       55.71950000      54.70120000      50.72900000
C       44.28110000      45.29880000      50.73340000
C       54.70350000      50.73110000      55.71730000
C       45.29650000      50.73120000      44.28270000
C       54.69900000      49.26880000      44.27900000
C       50.72930000      44.28080000      45.29840000
C       49.27060000      44.28080000      54.70150000
C       50.73300000      55.71910000      54.70100000
C       45.29850000      55.71920000      49.27070000
C       49.27100000      45.29870000      55.71940000
C       55.71730000      49.26880000      45.29650000
C       54.70090000      44.28080000      49.26700000
C       54.70160000      55.71910000      50.72940000
C       45.29900000      44.28090000      50.73300000
C       50.73340000      54.70120000      55.71890000
C       50.72890000      45.29880000      44.28050000
C       49.26670000      54.70130000      44.28110000
C       44.27900000      50.73120000      45.30100000
C       44.28260000      49.26890000      54.70350000
C       55.72100000      50.73110000      54.69900000
C       55.04490000      48.99000000      49.99800000
C       48.99200000      50.00000000      55.04530000
C       49.99970000      55.04490000      48.99000000
C       44.95510000      51.01000000      50.00200000
C       55.04490000      51.00990000      49.99810000
C       44.95510000      48.99010000      50.00190000
C       51.01190000      50.00000000      55.04450000
C       48.98810000      50.00000000      44.95550000
C       51.00800000      50.00000000      44.95470000
C       49.99960000      44.95510000      48.99000000
C       50.00030000      44.95510000      51.01000000
C       50.00040000      55.04490000      51.01000000
C       48.99010000      55.04490000      50.00040000
C       50.00190000      48.99000000      55.04490000
C       55.04450000      50.00000000      48.98810000
C       51.00990000      44.95510000      49.99960000
C       51.01000000      55.04490000      49.99960000
C       48.99000000      44.95510000      50.00040000
C       50.00200000      51.01000000      55.04490000
C       49.99800000      48.99000000      44.95510000
C       49.99810000      51.01000000      44.95510000
C       44.95470000      50.00010000      48.99200000
C       44.95550000      50.00010000      51.01190000
C       55.04530000      49.99990000      51.00800000
C       52.95540000      46.03930000      54.97770000
C       46.04050000      54.97890000      52.95510000
C       54.97740000      52.95350000      46.03740000
C       47.04840000      53.96070000      54.98010000
C       52.95170000      53.96070000      45.02000000
C       47.04450000      46.03940000      45.02220000
C       53.96180000      45.02100000      52.95200000
C       46.03810000      45.02110000      47.04800000
C       53.95960000      54.97890000      47.04490000
C       45.01950000      47.04650000      46.04120000
C       54.98040000      47.04640000      53.95870000
C       45.02270000      52.95360000      53.96260000
C       46.04130000      52.95360000      54.98050000
C       54.98000000      46.03930000      52.95160000
C       52.95210000      54.97890000      46.03820000
C       53.96260000      47.04640000      54.97740000
C       53.95880000      52.95350000      45.01960000
C       46.03740000      47.04650000      45.02260000
C       45.02230000      53.96070000      52.95550000
C       45.01990000      46.03940000      47.04840000
C       54.97780000      53.96060000      47.04460000
C       47.04490000      45.02110000      46.04050000
C       47.04810000      54.97890000      53.96180000
C       52.95500000      45.02100000      53.95950000
C       46.25630000      48.25490000      44.23150000
C       48.25340000      44.23010000      46.25920000
C       44.22930000      46.25860000      48.25710000
C       53.73930000      51.74510000      44.22860000
C       46.26080000      51.74520000      55.77140000
C       53.74370000      48.25480000      55.76850000
C       51.74370000      55.76990000      46.25790000
C       48.25640000      55.76990000      53.74220000
C       51.74650000      44.23000000      53.74080000
C       55.76930000      53.74140000      48.25260000
C       44.23080000      53.74150000      51.74740000
C       55.77060000      46.25840000      51.74290000
C       48.25260000      46.25860000      44.23070000
C       44.22860000      48.25490000      46.26070000
C       46.25780000      44.23010000      48.25630000
C       51.74290000      53.74150000      44.22940000
C       51.74730000      46.25850000      55.76930000
C       48.25710000      53.74150000      55.77060000
C       55.76850000      51.74510000      46.25630000
C       55.77140000      48.25480000      53.73920000
C       44.23150000      51.74520000      53.74370000
C       53.74090000      55.76990000      48.25340000
C       53.74210000      44.23000000      51.74370000
C       46.25930000      55.77000000      51.74660000
C       56.15540000      47.58410000      51.39660000
C       47.58650000      51.39900000      56.15580000
C       51.39810000      56.15480000      47.58360000
C       43.84570000      52.41590000      51.40140000
C       56.15430000      52.41580000      48.59870000
C       43.84460000      47.58420000      48.60340000
C       52.41820000      48.60100000      56.15390000
C       47.58180000      48.60110000      43.84610000
C       52.41350000      51.39900000      43.84420000
C       48.60000000      43.84520000      47.58470000
C       51.39980000      43.84510000      52.41530000
C       48.60200000      56.15480000      52.41640000
C       47.58480000      56.15490000      51.39990000
C       51.40130000      47.58410000      56.15430000
C       56.15390000      51.39890000      47.58180000
C       52.41630000      43.84510000      51.39800000
C       52.41540000      56.15480000      48.60010000
C       47.58350000      43.84520000      48.60190000
C       48.60340000      52.41580000      56.15540000
C       48.59860000      47.58420000      43.84570000
C       51.39660000      52.41590000      43.84460000
C       43.84420000      48.60110000      47.58650000
C       43.84610000      51.39900000      52.41820000
C       56.15580000      48.60100000      52.41350000
