240
Lattice="100.0 0.0 0.0 0.0 100.0 0.0 0.0 0.0 100.0" Properties=species:S:1:pos:R:3 name=C-2495266-1868-111 pressure=-0.0550936347794921 energy=-1813.34118118912 spacegroup=Oh times_found=1 pbc="T T T"
C       46.25500000      54.77260000      52.75260000
C       54.77170000      52.74950000      46.25160000
C       52.75050000      46.25040000      54.77020000
C       53.75080000      54.76800000      47.24720000
C       53.74540000      45.22750000      52.75230000
C       46.24890000      45.23190000      47.24790000
C       45.23160000      52.75540000      53.74830000
C       45.22780000      47.25030000      46.25230000
C       54.76890000      47.24480000      53.74780000
C       47.24500000      46.25350000      45.22990000
C       47.25010000      53.74980000      54.77040000
C       52.75440000      53.74630000      45.22940000
C       52.75510000      54.76860000      46.25170000
C       46.25390000      52.75480000      54.77050000
C       54.76820000      46.24910000      52.75220000
C       47.25060000      54.77200000      53.74810000
C       52.74980000      45.22810000      53.74800000
C       47.24450000      45.23130000      46.25220000
C       53.74940000      52.75010000      45.22940000
C       46.25000000      47.24970000      45.23000000
C       53.74670000      47.24540000      54.77010000
C       45.22730000      46.25470000      47.24790000
C       54.77240000      53.74520000      47.24720000
C       45.23210000      53.75100000      52.75270000
C       55.66730000      51.63200000      46.41280000
C       51.63360000      46.41230000      55.66650000
C       46.41670000      55.66870000      51.63550000
C       44.33470000      51.63890000      53.58710000
C       44.33230000      48.36790000      46.41360000
C       55.66570000      48.36130000      53.58650000
C       48.36210000      46.41410000      44.33370000
C       48.36710000      53.58790000      55.66650000
C       51.63720000      53.58570000      44.33330000
C       53.59010000      55.66430000      48.36420000
C       53.58350000      44.33140000      51.63530000
C       46.40970000      44.33560000      48.36490000
C       46.41450000      51.63770000      55.66670000
C       55.66440000      46.40980000      51.63520000
C       51.63860000      55.66540000      46.41300000
C       53.58740000      51.63320000      44.33330000
C       46.41190000      48.36660000      44.33380000
C       53.58620000      48.36250000      55.66630000
C       44.33130000      46.41660000      48.36500000
C       55.66850000      53.58340000      48.36420000
C       44.33580000      53.59020000      51.63570000
C       48.36820000      55.66750000      53.58680000
C       51.63220000      44.33260000      53.58680000
C       48.36100000      44.33440000      46.41340000
C       50.00400000      56.90320000      47.92730000
C       56.90200000      47.92330000      49.99960000
C       47.92790000      50.00140000      56.90330000
C       50.00430000      56.90320000      52.07240000
C       49.99570000      43.09680000      47.92760000
C       49.99600000      43.09680000      52.07270000
C       43.09560000      47.93160000      50.00050000
C       43.09800000      52.07670000      50.00040000
C       56.90440000      52.06840000      49.99950000
C       52.07210000      49.99860000      43.09670000
C       52.07290000      49.99890000      56.90310000
C       47.92710000      50.00110000      43.09690000
C       47.93160000      56.90440000      50.00000000
C       49.99920000      47.92760000      56.90320000
C       56.90310000      49.99580000      47.92710000
C       52.07670000      56.90200000      49.99970000
C       47.92330000      43.09800000      50.00030000
C       52.06840000      43.09560000      50.00000000
C       49.99830000      47.92730000      43.09680000
C       50.00080000      52.07240000      43.09680000
C       50.00170000      52.07270000      56.90320000
C       43.09690000      50.00420000      52.07290000
C       56.90330000      49.99590000      52.07210000
C       43.09670000      50.00410000      47.92790000
C       51.02460000      57.80290000      49.99980000
C       57.80360000      49.99530000      51.01950000
C       50.00110000      51.02010000      57.80350000
C       48.98470000      57.80410000      49.99990000
C       48.97540000      42.19710000      50.00020000
C       51.01530000      42.19590000      50.00010000
C       42.19640000      50.00470000      48.98050000
C       42.19660000      50.00470000      51.02040000
C       57.80340000      49.99530000      48.97960000
C       50.00010000      51.01980000      42.19650000
C       49.99990000      48.98020000      57.80350000
C       49.99890000      48.97990000      42.19650000
C       50.00470000      57.80350000      51.01980000
C       51.02040000      49.99960000      57.80340000
C       57.80410000      51.01530000      49.99950000
C       50.00460000      57.80350000      48.97990000
C       49.99530000      42.19650000      48.98020000
C       49.99540000      42.19650000      51.02010000
C       48.97960000      50.00040000      42.19660000
C       51.01950000      49.99920000      42.19640000
C       48.98050000      50.00080000      57.80360000
C       42.19710000      51.02460000      50.00050000
C       57.80290000      48.97540000      49.99950000
C       42.19590000      48.98470000      50.00050000
C       49.27690000      55.64880000      45.36290000
C       55.64560000      45.35960000      49.27350000
C       45.36290000      49.27670000      55.64880000
C       50.72990000      55.64810000      54.63680000
C       50.72250000      44.35100000      45.36310000
C       49.27070000      44.35210000      54.63720000
C       44.34880000      45.36640000      50.72670000
C       44.35430000      54.64040000      49.27400000
C       55.65130000      54.63360000      50.72580000
C       54.63620000      49.27090000      44.35130000
C       54.63780000      50.72350000      55.64820000
C       45.36310000      50.72890000      44.35180000
C       45.36640000      55.65120000      49.27400000
C       49.27140000      45.36360000      55.64860000
C       55.64780000      49.27030000      45.36270000
C       54.64040000      55.64570000      50.72580000
C       45.35970000      44.35430000      50.72660000
C       54.63360000      44.34870000      49.27360000
C       50.72310000      45.36250000      44.35160000
C       49.27620000      54.63730000      44.35150000
C       50.72930000      54.63670000      55.64830000
C       44.35140000      49.27730000      54.63730000
C       55.64920000      50.72290000      54.63660000
C       44.35170000      50.72950000      45.36330000
C       50.72380000      45.36270000      55.64850000
C       45.36640000      55.65130000      50.72640000
C       55.64860000      50.72270000      45.36270000
C       49.27070000      45.36330000      44.35170000
C       49.27690000      54.63750000      55.64840000
C       50.72860000      54.63640000      44.35140000
C       54.64030000      55.64570000      49.27340000
C       54.63360000      44.34880000      50.72600000
C       45.35960000      44.35430000      49.27420000
C       44.35220000      50.72970000      54.63730000
C       44.35080000      49.27710000      45.36340000
C       55.64830000      49.27050000      54.63670000
C       55.64570000      45.35960000      50.72600000
C       50.72930000      55.64790000      45.36280000
C       45.36380000      50.72910000      55.64870000
C       44.34870000      45.36640000      49.27420000
C       55.65120000      54.63360000      49.27330000
C       44.35440000      54.64040000      50.72650000
C       49.27750000      55.64900000      54.63690000
C       50.72310000      44.35120000      54.63710000
C       49.27010000      44.35190000      45.36320000
C       54.63710000      50.72330000      44.35120000
C       45.36220000      49.27650000      44.35180000
C       54.63690000      49.27110000      55.64820000
C       51.34580000      47.63020000      56.36790000
C       47.63480000      56.36940000      51.34690000
C       56.36860000      51.34300000      47.63040000
C       48.65130000      47.63150000      43.63220000
C       48.65490000      52.37010000      56.36800000
C       51.34790000      52.36820000      43.63190000
C       52.37290000      56.36650000      48.65280000
C       52.36540000      43.63070000      51.34690000
C       47.62700000      43.63340000      48.65340000
C       43.63300000      51.35070000      52.36950000
C       43.63110000      48.65690000      47.63130000
C       56.36730000      48.64940000      52.36880000
C       56.36660000      47.62710000      51.34650000
C       51.35060000      56.36710000      47.63060000
C       47.63210000      51.34840000      56.36810000
C       43.63060000      47.63460000      48.65360000
C       56.36930000      52.36530000      48.65270000
C       43.63360000      52.37300000      51.34720000
C       48.65710000      56.36880000      52.36910000
C       51.34320000      43.63130000      52.36920000
C       48.64920000      43.63280000      47.63110000
C       52.36960000      51.34530000      43.63190000
C       47.62970000      48.65440000      43.63220000
C       52.36870000      48.65180000      56.36780000
C       46.25460000      54.77250000      47.24770000
C       54.76840000      47.24460000      46.25170000
C       47.24560000      46.25370000      54.77060000
C       53.75110000      54.76810000      52.75210000
C       53.74500000      45.22740000      47.24740000
C       46.24920000      45.23200000      52.75280000
C       45.22830000      47.25050000      53.74840000
C       45.23110000      52.75520000      46.25220000
C       54.77220000      52.74970000      53.74770000
C       52.74990000      46.25020000      45.22960000
C       52.75500000      53.74650000      54.77010000
C       47.24950000      53.74960000      45.22980000
C       47.25020000      54.77190000      46.25200000
C       46.25060000      47.24990000      54.77060000
C       54.76790000      46.24900000      47.24730000
C       52.75550000      54.76870000      53.74780000
C       47.24490000      45.23140000      53.74830000
C       52.74940000      45.22800000      46.25190000
C       53.74610000      47.24520000      45.22950000
C       46.25330000      52.75460000      45.22990000
C       53.75000000      52.75030000      54.77000000
C       45.22760000      46.25480000      52.75280000
C       54.77270000      53.74530000      52.75210000
C       45.23180000      53.75090000      47.24780000
C       43.63270000      51.35060000      47.63120000
C       51.34510000      47.62990000      43.63200000
C       47.62710000      43.63350000      51.34720000
C       56.36890000      51.34310000      52.36870000
C       56.36700000      48.64930000      47.63050000
C       43.63140000      48.65700000      52.36960000
C       48.65210000      47.63180000      56.36810000
C       48.65420000      52.36980000      43.63210000
C       51.34870000      52.36850000      56.36780000
C       52.36520000      43.63060000      48.65310000
C       52.37300000      56.36660000      51.34660000
C       47.63460000      56.36930000      48.65310000
C       47.63130000      51.34820000      43.63220000
C       43.63070000      47.63470000      51.34730000
C       51.34290000      43.63120000      47.63090000
C       52.37030000      51.34560000      56.36780000
C       47.63040000      48.65470000      56.36810000
C       52.36790000      48.65160000      43.63190000
C       56.36640000      47.62700000      48.65280000
C       43.63340000      52.37290000      48.65350000
C       56.36940000      52.36540000      51.34640000
C       48.64940000      43.63290000      52.36940000
C       51.35080000      56.36720000      52.36890000
C       48.65680000      56.36870000      47.63080000
C       53.58330000      44.33130000      48.36450000
C       44.33270000      48.36800000      53.58720000
C       48.36640000      53.58770000      44.33350000
C       46.40990000      44.33570000      51.63580000
C       46.41650000      55.66860000      48.36470000
C       53.59030000      55.66440000      51.63510000
C       55.66530000      48.36110000      46.41290000
C       55.66770000      51.63210000      53.58640000
C       44.33430000      51.63870000      46.41350000
C       51.63790000      53.58590000      55.66630000
C       51.63290000      46.41210000      44.33350000
C       48.36280000      46.41430000      55.66670000
C       48.36140000      44.33460000      53.58700000
C       53.58550000      48.36230000      44.33330000
C       44.33560000      53.59020000      48.36480000
C       51.63180000      44.33250000      46.41320000
C       48.36780000      55.66740000      46.41320000
C       51.63900000      55.66560000      53.58660000
C       46.41260000      48.36680000      55.66670000
C       53.58810000      51.63340000      55.66620000
C       46.41380000      51.63750000      44.33370000
C       55.66870000      53.58340000      51.63500000
C       44.33150000      46.41660000      51.63580000
C       55.66420000      46.40980000      48.36430000
