240
Lattice="100.0 0.0 0.0 0.0 100.0 0.0 0.0 0.0 100.0" Properties=species:S:1:pos:R:3 name=C-2495266-1868-126 pressure=7.74425439259258 energy=-1698.60931097773 spacegroup=Td times_found=1 pbc="T T T"
C       48.30230000      55.91230000      46.15840000
C       46.15870000      48.30260000      55.91250000
C       55.91240000      46.15860000      48.30240000
C       48.30260000      44.08770000      53.84160000
C       51.69750000      44.08750000      46.15870000
C       51.69750000      55.91250000      53.84130000
C       46.15840000      51.69730000      44.08760000
C       53.84160000      51.69770000      55.91230000
C       53.84140000      48.30240000      44.08750000
C       55.91240000      53.84160000      51.69730000
C       44.08750000      53.84130000      48.30250000
C       44.08770000      46.15850000      51.69780000
C       48.30270000      46.15870000      55.91260000
C       46.15840000      55.91230000      48.30240000
C       55.91240000      48.30250000      46.15850000
C       48.30230000      53.84130000      44.08750000
C       51.69750000      46.15840000      44.08760000
C       51.69760000      53.84160000      55.91230000
C       46.15870000      44.08760000      51.69780000
C       53.84140000      55.91250000      51.69730000
C       53.84150000      44.08760000      48.30250000
C       55.91250000      51.69770000      53.84130000
C       44.08770000      48.30250000      53.84160000
C       44.08750000      51.69730000      46.15860000
C       53.15020000      50.63170000      43.75560000
C       43.75560000      53.15030000      50.63180000
C       50.63190000      43.75580000      53.15050000
C       53.15050000      49.36840000      56.24430000
C       46.84950000      49.36800000      43.75580000
C       46.84980000      50.63190000      56.24440000
C       43.75570000      46.84950000      49.36850000
C       56.24440000      46.84980000      50.63170000
C       56.24430000      53.15040000      49.36800000
C       50.63160000      56.24430000      46.84950000
C       49.36820000      56.24440000      53.15020000
C       49.36830000      43.75560000      46.84980000
C       53.15050000      43.75570000      50.63190000
C       43.75570000      50.63170000      53.15050000
C       50.63160000      53.15020000      43.75560000
C       53.15020000      56.24440000      49.36800000
C       46.84970000      43.75560000      49.36850000
C       46.84960000      56.24430000      50.63170000
C       43.75560000      49.36810000      46.84980000
C       56.24420000      50.63180000      46.84950000
C       56.24440000      49.36840000      53.15020000
C       50.63200000      46.84980000      56.24440000
C       49.36830000      53.15050000      56.24430000
C       49.36810000      46.84950000      43.75580000
C       48.24690000      46.07100000      44.12700000
C       44.12680000      48.24670000      46.07140000
C       46.07130000      44.12670000      48.24720000
C       48.24700000      53.92890000      55.87310000
C       51.75290000      53.92870000      44.12670000
C       51.75330000      46.07140000      55.87330000
C       44.12690000      51.75310000      53.92890000
C       55.87310000      51.75310000      46.07100000
C       55.87330000      48.24710000      53.92870000
C       46.07110000      55.87320000      51.75300000
C       53.92870000      55.87320000      48.24670000
C       53.92890000      44.12690000      51.75320000
C       48.24690000      44.12670000      46.07140000
C       44.12680000      46.07110000      48.24710000
C       46.07110000      48.24670000      44.12690000
C       48.24690000      55.87330000      53.92870000
C       51.75330000      44.12690000      53.92890000
C       51.75290000      55.87310000      46.07100000
C       44.12680000      53.92880000      51.75310000
C       55.87330000      46.07130000      51.75310000
C       55.87310000      53.92890000      48.24670000
C       46.07130000      51.75320000      55.87320000
C       53.92900000      48.24710000      55.87310000
C       53.92860000      51.75300000      44.12670000
C       43.94060000      50.80190000      55.08510000
C       55.08510000      43.94060000      50.80190000
C       50.80170000      55.08480000      43.94030000
C       43.94040000      49.19790000      44.91520000
C       56.05970000      49.19830000      55.08490000
C       56.05940000      50.80190000      44.91490000
C       55.08490000      56.05960000      49.19780000
C       44.91490000      56.05950000      50.80180000
C       44.91510000      43.94040000      49.19840000
C       50.80210000      44.91520000      56.05970000
C       49.19810000      44.91490000      43.94060000
C       49.19820000      55.08510000      56.05940000
C       43.94040000      55.08490000      50.80190000
C       55.08480000      50.80180000      43.94030000
C       50.80210000      43.94060000      55.08510000
C       43.94050000      44.91490000      49.19840000
C       56.05940000      55.08510000      49.19790000
C       56.05960000      44.91510000      50.80190000
C       55.08510000      49.19840000      56.05950000
C       44.91510000      50.80200000      56.05960000
C       44.91490000      49.19790000      43.94060000
C       50.80170000      56.05940000      44.91490000
C       49.19810000      43.94030000      44.91520000
C       49.19810000      56.05970000      55.08480000
C       51.53830000      52.49990000      56.25690000
C       56.25710000      51.53840000      52.49950000
C       52.49960000      56.25710000      51.53800000
C       51.53820000      47.50020000      43.74300000
C       48.46190000      47.50040000      56.25710000
C       48.46160000      52.49950000      43.74300000
C       56.25700000      48.46180000      47.50020000
C       43.74310000      48.46170000      52.49990000
C       43.74290000      51.53810000      47.50040000
C       52.49980000      43.74300000      48.46190000
C       47.50040000      43.74300000      51.53850000
C       47.50020000      56.25700000      48.46160000
C       51.53820000      56.25710000      52.49950000
C       56.25700000      52.49980000      51.53810000
C       52.49980000      51.53850000      56.25690000
C       51.53830000      43.74290000      47.50040000
C       48.46160000      56.25690000      47.50020000
C       48.46190000      43.74300000      52.49990000
C       56.25700000      47.50040000      48.46170000
C       43.74290000      52.49960000      48.46180000
C       43.74310000      47.50020000      51.53850000
C       52.49960000      48.46160000      43.74290000
C       47.50010000      51.53800000      43.74300000
C       47.50050000      48.46190000      56.25710000
C       49.82620000      47.96130000      56.14120000
C       56.14110000      49.82610000      47.96100000
C       47.96100000      56.14110000      49.82590000
C       49.82590000      52.03870000      43.85880000
C       50.17410000      52.03900000      56.14110000
C       50.17390000      47.96100000      43.85890000
C       56.14120000      50.17410000      52.03870000
C       43.85880000      50.17380000      47.96130000
C       43.85890000      49.82600000      52.03900000
C       47.96120000      43.85880000      50.17420000
C       52.03900000      43.85890000      49.82610000
C       52.03880000      56.14120000      50.17380000
C       49.82590000      56.14110000      47.96100000
C       56.14120000      47.96120000      49.82590000
C       47.96130000      49.82610000      56.14120000
C       49.82620000      43.85890000      52.03900000
C       50.17390000      56.14120000      52.03870000
C       50.17400000      43.85880000      47.96130000
C       56.14110000      52.03900000      50.17380000
C       43.85890000      47.96100000      50.17420000
C       43.85880000      52.03880000      49.82610000
C       47.96100000      50.17380000      43.85890000
C       52.03870000      49.82590000      43.85880000
C       52.03900000      50.17420000      56.14110000
C       55.01460000      52.92900000      53.99910000
C       53.99930000      55.01460000      52.92860000
C       52.92890000      53.99950000      55.01430000
C       55.01450000      47.07120000      46.00070000
C       44.98560000      47.07120000      53.99950000
C       44.98540000      52.92860000      46.00070000
C       53.99930000      44.98550000      47.07120000
C       46.00080000      44.98550000      52.92900000
C       46.00060000      55.01440000      47.07110000
C       52.92880000      46.00060000      44.98550000
C       47.07140000      46.00080000      55.01470000
C       47.07100000      53.99910000      44.98550000
C       55.01450000      53.99950000      52.92860000
C       53.99940000      52.92900000      55.01430000
C       52.92880000      55.01470000      53.99910000
C       55.01450000      46.00070000      47.07120000
C       44.98540000      53.99910000      47.07120000
C       44.98560000      46.00070000      52.92900000
C       53.99920000      47.07110000      44.98550000
C       46.00050000      52.92860000      44.98550000
C       46.00090000      47.07120000      55.01470000
C       52.92880000      44.98540000      46.00080000
C       47.07100000      55.01440000      46.00060000
C       47.07140000      44.98550000      53.99950000
C       45.72430000      49.64700000      56.28120000
C       56.28110000      45.72430000      49.64690000
C       49.64670000      56.28090000      45.72400000
C       45.72400000      50.35290000      43.71900000
C       54.27600000      50.35330000      56.28100000
C       54.27570000      49.64680000      43.71880000
C       56.28100000      54.27590000      50.35290000
C       43.71890000      54.27570000      49.64690000
C       43.71900000      45.72410000      50.35340000
C       49.64710000      43.71900000      54.27600000
C       50.35310000      43.71880000      45.72430000
C       50.35310000      56.28120000      54.27570000
C       45.72410000      56.28100000      49.64680000
C       56.28100000      49.64690000      45.72400000
C       49.64710000      45.72430000      56.28120000
C       45.72430000      43.71890000      50.35340000
C       54.27570000      56.28110000      50.35290000
C       54.27590000      43.71900000      49.64700000
C       56.28120000      50.35330000      54.27570000
C       43.71900000      49.64690000      54.27600000
C       43.71880000      50.35290000      45.72430000
C       49.64670000      54.27570000      43.71880000
C       50.35300000      45.72400000      43.71900000
C       50.35320000      54.27600000      56.28090000
C       47.10330000      53.92650000      54.96850000
C       54.96870000      47.10350000      53.92630000
C       53.92620000      54.96850000      47.10310000
C       47.10330000      46.07350000      45.03160000
C       52.89690000      46.07380000      54.96860000
C       52.89650000      53.92630000      45.03130000
C       54.96840000      52.89670000      46.07340000
C       45.03150000      52.89670000      53.92640000
C       45.03140000      47.10310000      46.07380000
C       53.92650000      45.03160000      52.89670000
C       46.07360000      45.03130000      47.10350000
C       46.07360000      54.96860000      52.89670000
C       47.10330000      54.96860000      53.92630000
C       54.96840000      53.92640000      47.10310000
C       53.92650000      47.10350000      54.96850000
C       47.10330000      45.03130000      46.07380000
C       52.89650000      54.96850000      46.07340000
C       52.89690000      45.03160000      53.92640000
C       54.96870000      46.07380000      52.89670000
C       45.03150000      53.92640000      52.89670000
C       45.03150000      46.07350000      47.10350000
C       53.92620000      52.89660000      45.03130000
C       46.07360000      47.10310000      45.03160000
C       46.07370000      52.89680000      54.96860000
C       50.01140000      51.01080000      44.73280000
C       44.73290000      50.01150000      51.01110000
C       51.01110000      44.73290000      50.01170000
C       50.01170000      48.98920000      55.26720000
C       49.98830000      48.98890000      44.73290000
C       49.98850000      51.01110000      55.26710000
C       44.73280000      49.98830000      48.98910000
C       55.26720000      49.98860000      51.01090000
C       55.26710000      50.01160000      48.98890000
C       51.01090000      55.26720000      49.98830000
C       48.98890000      55.26710000      50.01140000
C       48.98910000      44.73280000      49.98860000
C       50.01170000      44.73290000      51.01110000
C       44.73280000      51.01090000      50.01160000
C       51.01090000      50.01140000      44.73280000
C       50.01140000      55.26710000      48.98890000
C       49.98850000      44.73280000      48.98920000
C       49.98840000      55.26720000      51.01080000
C       44.73290000      48.98890000      49.98860000
C       55.26710000      51.01110000      49.98830000
C       55.26720000      48.98910000      50.01150000
C       51.01110000      49.98860000      55.26710000
C       48.98910000      50.01170000      55.26720000
C       48.98890000      49.98830000      44.73290000
