240
Lattice="100.0 0.0 0.0 0.0 100.0 0.0 0.0 0.0 100.0" Properties=species:S:1:pos:R:3 name=C-2495266-1868-123 pressure=13.7916675053736 energy=-1763.9306307957 spacegroup=C1 times_found=1 pbc="T T T"
C       49.15050000      54.18610000      56.51610000
C       54.16950000      56.36790000      49.18720000
C       55.97330000      49.52940000      53.92120000
C       50.36460000      45.70440000      56.34530000
C       49.07940000      45.92690000      43.51550000
C       50.92620000      54.20050000      43.48520000
C       45.93200000      43.49970000      49.10100000
C       54.26740000      43.58900000      50.73710000
C       46.09330000      55.31350000      50.40730000
C       43.12470000      50.36060000      54.51520000
C       56.74440000      50.41740000      45.70470000
C       43.18420000      49.55750000      45.91430000
C       49.49880000      54.31770000      43.34850000
C       54.16600000      56.31710000      50.60920000
C       56.70520000      48.99230000      45.80820000
C       50.50800000      45.82500000      43.36080000
C       48.99760000      45.85440000      56.49010000
C       50.58280000      54.23320000      56.58500000
C       45.83590000      43.42430000      50.51770000
C       54.28350000      43.57180000      49.30320000
C       46.09010000      55.32940000      48.97340000
C       43.23120000      50.98660000      46.01950000
C       56.30800000      50.88100000      53.96150000
C       43.28220000      48.94470000      54.35870000
C       49.24510000      48.22870000      57.23510000
C       48.19590000      56.71880000      49.12460000
C       57.40750000      49.13040000      48.13120000
C       50.65240000      51.81710000      56.85730000
C       49.31940000      51.96200000      43.30750000
C       50.59490000      48.20590000      43.23160000
C       51.98160000      43.34650000      49.29710000
C       48.27080000      43.08760000      50.70560000
C       51.86620000      57.01670000      50.67310000
C       42.77650000      50.82140000      48.43460000
C       57.39310000      50.67840000      51.71280000
C       42.81920000      49.09900000      51.99040000
C       49.12580000      48.27650000      43.37200000
C       48.20260000      56.60460000      50.57280000
C       57.25060000      49.22640000      51.79680000
C       50.78630000      51.87380000      43.39840000
C       49.17340000      51.84630000      56.85060000
C       50.67860000      48.16310000      56.93590000
C       51.92350000      43.42190000      50.76850000
C       48.32870000      43.03660000      49.23790000
C       51.86110000      57.08510000      49.22530000
C       42.72770000      50.56970000      52.11260000
C       57.32820000      50.60010000      48.05710000
C       42.76100000      49.35110000      48.30250000
C       54.27680000      47.81950000      54.54840000
C       48.16530000      55.10560000      54.57320000
C       54.78430000      54.28980000      47.90840000
C       45.06120000      51.59500000      55.36990000
C       54.77110000      51.56130000      45.00650000
C       45.15450000      48.45890000      45.06740000
C       51.95570000      44.79220000      54.86280000
C       48.17990000      44.96730000      45.45800000
C       51.91600000      55.26820000      45.36800000
C       45.21880000      45.62810000      47.94220000
C       55.36160000      45.42100000      51.77210000
C       45.21620000      54.07050000      52.39060000
C       54.53540000      47.82200000      45.30680000
C       48.43410000      55.61350000      45.01530000
C       54.92910000      54.31210000      51.70730000
C       45.30560000      52.14450000      45.26480000
C       54.25960000      52.53210000      54.44210000
C       45.37130000      47.93650000      55.15520000
C       51.77260000      44.79330000      45.16840000
C       47.36930000      45.32290000      54.40370000
C       51.71370000      55.18030000      54.62770000
C       44.94190000      45.34250000      51.64590000
C       55.36360000      45.38010000      48.24880000
C       45.62700000      54.17450000      46.85270000
C       53.01060000      56.59270000      48.50790000
C       56.47880000      48.67620000      52.88220000
C       48.44260000      53.00940000      56.36320000
C       47.15580000      43.45800000      48.50590000
C       53.11750000      43.83560000      51.45900000
C       47.13190000      55.87990000      51.19250000
C       43.01450000      51.17070000      53.38920000
C       56.87240000      51.20940000      46.84790000
C       43.14180000      48.75630000      47.05330000
C       51.19750000      46.90750000      56.50930000
C       48.40790000      47.09970000      43.80880000
C       51.55850000      53.02650000      43.81240000
C       53.01670000      56.46750000      51.35630000
C       56.87660000      48.37890000      47.01140000
C       48.67100000      53.21820000      43.54930000
C       46.99600000      43.37170000      51.30240000
C       53.15310000      43.78460000      48.55500000
C       47.13310000      56.08140000      48.36670000
C       43.18110000      51.57320000      47.27500000
C       57.05810000      51.39980000      52.86060000
C       43.32390000      48.34240000      53.12240000
C       51.27280000      46.97460000      43.43360000
C       48.51280000      47.04870000      57.08080000
C       51.31230000      53.05210000      56.55450000
C       50.77650000      43.44620000      51.55470000
C       42.83720000      51.47400000      51.05220000
C       51.49740000      50.70260000      43.44270000
C       49.27130000      56.94990000      51.42100000
C       50.74920000      57.24190000      48.41460000
C       49.46250000      43.03190000      48.44970000
C       57.49650000      48.37180000      50.72940000
C       42.86020000      48.44930000      49.34630000
C       57.23170000      51.46630000      49.13850000
C       48.40570000      49.44770000      43.46530000
C       51.51340000      49.26560000      56.72550000
C       48.38210000      50.73320000      56.93870000
C       50.90050000      43.17670000      48.48210000
C       42.90540000      51.57140000      49.60150000
C       51.51040000      50.72440000      56.68830000
C       49.28850000      57.18610000      48.36400000
C       50.73200000      57.07250000      51.45990000
C       49.33100000      43.32760000      51.57550000
C       57.53910000      48.34380000      49.26740000
C       42.86840000      48.38050000      50.80160000
C       57.30320000      51.50880000      50.58420000
C       48.37110000      49.30890000      57.14220000
C       51.47010000      49.26210000      43.35760000
C       48.44860000      50.89830000      43.41520000
C       55.39560000      44.44750000      49.26540000
C       44.41700000      48.93490000      55.24730000
C       49.51730000      55.48770000      44.18510000
C       45.28290000      54.43600000      48.22640000
C       54.91430000      55.09690000      50.56160000
C       44.96910000      44.57500000      50.47450000
C       55.46520000      52.07930000      53.99020000
C       44.38980000      51.06930000      45.14910000
C       55.46260000      48.88430000      45.09690000
C       50.60230000      44.75750000      44.32120000
C       47.79510000      45.78060000      55.63280000
C       50.64680000      55.23020000      55.55070000
C       55.38330000      44.46690000      50.77320000
C       44.30550000      49.59620000      45.00290000
C       49.15670000      55.21130000      55.51980000
C       45.25160000      54.58520000      51.14410000
C       54.87740000      55.12930000      49.05680000
C       45.11590000      44.67830000      49.00070000
C       55.53760000      50.36290000      44.91730000
C       44.25450000      50.40230000      55.41980000
C       54.94000000      48.98460000      54.58480000
C       50.84830000      44.64090000      55.64650000
C       49.11130000      44.86530000      44.45620000
C       51.00220000      55.33580000      44.33370000
C       51.97700000      44.43780000      53.48340000
C       44.08580000      53.16190000      52.38710000
C       53.44410000      51.76160000      44.56940000
C       48.24390000      55.84580000      53.37520000
C       51.84850000      56.15760000      46.46710000
C       48.34260000      44.12800000      46.56020000
C       56.24490000      46.51790000      51.75290000
C       44.21910000      46.70790000      48.09650000
C       55.79590000      53.21270000      47.98130000
C       46.48370000      48.35160000      44.58120000
C       53.21980000      47.98480000      55.53080000
C       46.42230000      51.77870000      55.78550000
C       51.98650000      44.30570000      46.50280000
C       44.24170000      53.43650000      48.59090000
C       53.29480000      51.96630000      55.44330000
C       48.37360000      56.38640000      46.21530000
C       51.81800000      55.89010000      53.39080000
C       47.99770000      44.38660000      53.39970000
C       56.29000000      46.43900000      48.27260000
C       44.17800000      46.51510000      51.80390000
C       55.92120000      53.28280000      51.72110000
C       46.48880000      48.04540000      56.05190000
C       53.34870000      47.98900000      44.45780000
C       46.57700000      52.17930000      44.50880000
C       49.37250000      57.01370000      46.91330000
C       57.08840000      46.94900000      49.28710000
C       47.00640000      49.24840000      56.60600000
C       50.92750000      43.63790000      47.10330000
C       49.27320000      43.93270000      52.94700000
C       50.75220000      56.61870000      52.83930000
C       43.60330000      52.88430000      49.71390000
C       56.58640000      52.78710000      50.57490000
C       43.50310000      47.08020000      50.72280000
C       52.82870000      50.73020000      55.96980000
C       47.10210000      50.98290000      43.98180000
C       52.82720000      49.18890000      43.93530000
C       49.28940000      56.55180000      52.82090000
C       57.06190000      46.98380000      50.74530000
C       47.07230000      49.49320000      44.03410000
C       50.78680000      43.97730000      52.90900000
C       49.47170000      43.49470000      47.05790000
C       50.82680000      56.95550000      46.97950000
C       43.51430000      52.76350000      51.18250000
C       56.49180000      52.75050000      49.12240000
C       43.53700000      47.13700000      49.26050000
C       52.82930000      50.65760000      44.00580000
C       47.02600000      50.69550000      56.41160000
C       52.78350000      49.21480000      56.01730000
C       54.33000000      45.57380000      52.81020000
C       44.48740000      52.59550000      54.64170000
C       52.93740000      54.21490000      45.58260000
C       46.34750000      54.45320000      53.22800000
C       53.70750000      54.69060000      46.89540000
C       46.33610000      45.36820000      46.94520000
C       54.73250000      46.86100000      53.53320000
C       44.70650000      47.44060000      45.85940000
C       55.31600000      52.57780000      45.73370000
C       47.08390000      45.92640000      45.63030000
C       52.91700000      45.64990000      55.35380000
C       47.08980000      54.10600000      54.54050000
C       54.36840000      45.51880000      47.16280000
C       44.93920000      53.03340000      46.33860000
C       52.67240000      54.16650000      54.84030000
C       46.63150000      54.89540000      46.24320000
C       53.96160000      54.62980000      52.78380000
C       45.84940000      45.02650000      52.67590000
C       54.90150000      46.81390000      46.36730000
C       45.20890000      46.93750000      54.09000000
C       53.73100000      53.82870000      53.95740000
C       46.09200000      45.82170000      53.82550000
C       52.73370000      45.66720000      44.74900000
C       47.37930000      54.60400000      45.04520000
C       43.73190000      52.41340000      53.51480000
C       52.73990000      53.02710000      44.69750000
C       53.16230000      44.64910000      52.67440000
C       55.88860000      47.38550000      52.81000000
C       43.94650000      47.55740000      46.98410000
C       56.08780000      52.41930000      46.83960000
C       47.23220000      47.10110000      44.71160000
C       52.49600000      46.83750000      55.91580000
C       47.21650000      52.98800000      55.54000000
C       47.16280000      55.45920000      52.55700000
C       52.94650000      55.87040000      47.29640000
C       47.19720000      44.26070000      47.35040000
C       43.99640000      52.70320000      47.37030000
C       52.46900000      53.08730000      55.76360000
C       53.19440000      44.58060000      47.30400000
C       56.08550000      47.20950000      47.12380000
C       44.20150000      47.21030000      53.04200000
C       56.25670000      52.59060000      52.87010000
C       47.28920000      46.95920000      56.33790000
C       52.52810000      46.86900000      44.14440000
C       47.44650000      53.35630000      44.32300000
C       47.27300000      55.93290000      46.97280000
C       52.97180000      55.69870000      52.56470000
C       46.92930000      44.11080000      52.49000000
