240
Lattice="100.0 0.0 0.0 0.0 100.0 0.0 0.0 0.0 100.0" Properties=species:S:1:pos:R:3 name=C-2495266-1868-12 pressure=0.0466505394604826 energy=-1865.40672570038 spacegroup=Oh times_found=1 pbc="T T T"
C       52.96800000      43.60950000      51.34700000
C       43.60940000      51.34690000      52.96790000
C       51.34700000      52.96790000      43.60940000
C       47.03200000      56.39060000      51.34690000
C       52.96780000      56.39060000      48.65300000
C       47.03220000      43.60930000      48.65300000
C       56.39060000      48.65310000      52.96790000
C       43.60940000      48.65290000      47.03210000
C       56.39060000      51.34710000      47.03210000
C       48.65310000      47.03210000      43.60940000
C       51.34700000      47.03220000      56.39060000
C       48.65290000      52.96790000      56.39060000
C       52.96800000      43.60940000      48.65310000
C       43.60940000      51.34690000      47.03210000
C       51.34690000      52.96790000      56.39060000
C       47.03200000      56.39050000      48.65300000
C       52.96780000      56.39070000      51.34700000
C       47.03220000      43.60940000      51.34700000
C       56.39060000      48.65310000      47.03210000
C       43.60940000      48.65290000      52.96790000
C       56.39060000      51.34710000      52.96790000
C       48.65300000      47.03210000      56.39060000
C       51.34710000      47.03210000      43.60940000
C       48.65300000      52.96780000      43.60940000
C       49.28530000      44.19520000      45.92200000
C       44.19530000      45.92190000      49.28520000
C       45.92200000      49.28510000      44.19530000
C       50.71470000      55.80470000      45.92190000
C       49.28510000      55.80470000      54.07800000
C       50.71490000      44.19530000      54.07810000
C       55.80470000      54.07810000      49.28520000
C       44.19520000      54.07790000      50.71480000
C       55.80480000      45.92210000      50.71480000
C       54.07800000      50.71480000      44.19530000
C       45.92200000      50.71480000      55.80470000
C       54.07800000      49.28530000      55.80470000
C       49.28530000      44.19530000      54.07810000
C       44.19530000      45.92190000      50.71480000
C       45.92200000      49.28520000      55.80470000
C       50.71470000      55.80480000      54.07800000
C       49.28510000      55.80470000      45.92190000
C       50.71490000      44.19530000      45.92200000
C       55.80470000      54.07810000      50.71480000
C       44.19520000      54.07790000      49.28520000
C       55.80480000      45.92210000      49.28520000
C       54.07800000      50.71490000      55.80470000
C       45.92200000      50.71470000      44.19530000
C       54.07800000      49.28520000      44.19530000
C       49.30010000      51.74750000      56.82440000
C       51.74730000      56.82440000      49.30010000
C       56.82440000      49.30030000      51.74750000
C       50.69980000      48.25260000      56.82440000
C       49.30020000      48.25250000      43.17560000
C       50.69980000      51.74740000      43.17560000
C       48.25270000      43.17560000      49.30020000
C       51.74760000      43.17560000      50.69990000
C       48.25240000      56.82440000      50.69980000
C       43.17560000      50.69970000      51.74740000
C       56.82440000      50.69990000      48.25260000
C       43.17560000      49.30010000      48.25250000
C       49.30020000      51.74740000      43.17560000
C       51.74730000      56.82440000      50.69980000
C       56.82440000      49.30030000      48.25260000
C       50.69990000      48.25250000      43.17560000
C       49.30020000      48.25260000      56.82440000
C       50.69980000      51.74750000      56.82440000
C       48.25270000      43.17560000      50.69990000
C       51.74760000      43.17560000      49.30020000
C       48.25240000      56.82440000      49.30010000
C       43.17560000      50.69970000      48.25250000
C       56.82440000      50.69990000      51.74750000
C       43.17560000      49.30010000      51.74740000
C       51.74740000      50.69990000      56.82440000
C       50.69970000      56.82440000      51.74740000
C       56.82440000      51.74760000      50.69980000
C       48.25250000      49.30020000      56.82440000
C       51.74750000      49.30020000      43.17560000
C       48.25260000      50.69970000      43.17560000
C       49.30030000      43.17560000      51.74750000
C       50.69990000      43.17560000      48.25260000
C       49.30010000      56.82440000      48.25250000
C       43.17560000      48.25240000      50.69980000
C       56.82440000      48.25270000      49.30020000
C       43.17560000      51.74730000      49.30020000
C       51.74750000      50.69980000      43.17560000
C       50.69970000      56.82440000      48.25250000
C       56.82440000      51.74760000      49.30020000
C       48.25260000      49.30010000      43.17560000
C       51.74740000      49.30030000      56.82440000
C       48.25250000      50.69980000      56.82440000
C       49.30030000      43.17560000      48.25260000
C       50.69990000      43.17560000      51.74750000
C       49.30010000      56.82440000      51.74740000
C       43.17560000      48.25240000      49.30020000
C       56.82440000      48.25270000      50.69980000
C       43.17560000      51.74730000      50.69980000
C       47.28940000      47.28940000      56.12140000
C       47.28930000      56.12130000      47.28930000
C       56.12140000      47.28950000      47.28940000
C       52.71060000      52.71070000      56.12130000
C       47.28930000      52.71050000      43.87860000
C       52.71070000      47.28940000      43.87870000
C       52.71070000      43.87870000      47.28940000
C       47.28950000      43.87860000      52.71070000
C       52.71050000      56.12140000      52.71060000
C       43.87860000      52.71050000      47.28930000
C       56.12130000      52.71070000      52.71060000
C       43.87870000      47.28930000      52.71060000
C       47.28940000      47.28930000      43.87870000
C       47.28930000      56.12130000      52.71060000
C       56.12140000      47.28950000      52.71070000
C       52.71060000      52.71060000      43.87860000
C       47.28930000      52.71060000      56.12130000
C       52.71070000      47.28950000      56.12140000
C       52.71070000      43.87870000      52.71070000
C       47.28950000      43.87860000      47.28940000
C       52.71050000      56.12140000      47.28930000
C       43.87860000      52.71050000      52.71060000
C       56.12130000      52.71070000      47.28940000
C       43.87870000      47.28930000      47.28940000
C       55.19970000      53.45800000      53.45790000
C       53.45790000      53.45800000      55.19980000
C       53.45780000      55.19990000      53.45790000
C       44.80030000      46.54200000      53.45790000
C       55.19980000      46.54210000      46.54210000
C       44.80020000      53.45780000      46.54200000
C       46.54210000      46.54210000      55.19980000
C       53.45800000      46.54210000      44.80030000
C       46.54200000      53.45780000      44.80020000
C       46.54220000      44.80020000      53.45790000
C       53.45800000      44.80030000      46.54210000
C       46.54200000      55.19970000      46.54200000
C       55.19970000      53.45800000      46.54210000
C       53.45790000      53.45790000      44.80020000
C       53.45780000      55.19980000      46.54210000
C       44.80030000      46.54200000      46.54210000
C       55.19980000      46.54220000      53.45800000
C       44.80020000      53.45790000      53.45790000
C       46.54210000      46.54200000      44.80020000
C       53.45800000      46.54220000      55.19980000
C       46.54200000      53.45790000      55.19970000
C       46.54220000      44.80010000      46.54210000
C       53.45800000      44.80030000      53.45800000
C       46.54200000      55.19970000      53.45790000
C       54.91560000      48.53510000      45.08440000
C       48.53510000      45.08440000      54.91560000
C       45.08440000      54.91550000      48.53500000
C       45.08440000      51.46480000      45.08440000
C       54.91550000      51.46500000      54.91560000
C       45.08440000      48.53500000      54.91560000
C       51.46480000      54.91560000      54.91550000
C       48.53500000      54.91550000      45.08440000
C       51.46500000      45.08440000      45.08450000
C       54.91570000      45.08450000      48.53510000
C       45.08450000      45.08440000      51.46500000
C       54.91550000      54.91570000      51.46490000
C       54.91560000      48.53520000      54.91560000
C       48.53520000      45.08440000      45.08450000
C       45.08430000      54.91550000      51.46490000
C       45.08440000      51.46490000      54.91560000
C       54.91560000      51.46500000      45.08440000
C       45.08450000      48.53500000      45.08440000
C       51.46490000      54.91560000      45.08440000
C       48.53500000      54.91560000      54.91550000
C       51.46500000      45.08450000      54.91560000
C       54.91560000      45.08450000      51.46500000
C       45.08450000      45.08430000      48.53510000
C       54.91550000      54.91560000      48.53500000
C       54.07790000      55.80480000      50.71480000
C       55.80470000      50.71490000      54.07800000
C       50.71470000      54.07810000      55.80470000
C       45.92210000      44.19520000      50.71480000
C       54.07810000      44.19530000      49.28520000
C       45.92190000      55.80460000      49.28510000
C       44.19530000      49.28510000      54.07800000
C       55.80470000      49.28530000      45.92200000
C       44.19530000      50.71470000      45.92200000
C       49.28520000      45.92200000      55.80470000
C       50.71490000      45.92200000      44.19530000
C       49.28510000      54.07800000      44.19530000
C       54.07790000      55.80480000      49.28520000
C       55.80470000      50.71490000      45.92200000
C       50.71480000      54.07800000      44.19530000
C       45.92210000      44.19520000      49.28520000
C       54.07810000      44.19540000      50.71490000
C       45.92190000      55.80470000      50.71480000
C       44.19530000      49.28510000      45.92200000
C       55.80470000      49.28530000      54.07800000
C       44.19530000      50.71470000      54.07800000
C       49.28530000      45.92190000      44.19530000
C       50.71490000      45.92200000      55.80470000
C       49.28510000      54.07800000      55.80470000
C       54.60710000      47.16230000      54.60710000
C       47.16210000      54.60710000      54.60710000
C       54.60700000      54.60720000      47.16220000
C       45.39280000      52.83770000      54.60710000
C       54.60710000      52.83780000      45.39290000
C       45.39290000      47.16210000      45.39290000
C       52.83790000      45.39300000      54.60710000
C       47.16230000      45.39280000      45.39290000
C       52.83770000      54.60710000      45.39290000
C       45.39300000      45.39280000      47.16220000
C       54.60720000      45.39300000      52.83780000
C       45.39280000      54.60710000      52.83770000
C       54.60720000      47.16230000      45.39290000
C       47.16210000      54.60700000      45.39290000
C       54.60700000      54.60720000      52.83780000
C       45.39290000      52.83770000      45.39290000
C       54.60710000      52.83790000      54.60710000
C       45.39290000      47.16220000      54.60710000
C       52.83790000      45.39290000      45.39290000
C       47.16230000      45.39290000      54.60710000
C       52.83770000      54.60720000      54.60710000
C       45.39300000      45.39280000      52.83780000
C       54.60720000      45.39290000      47.16230000
C       45.39280000      54.60700000      47.16220000
C       47.03210000      51.34700000      56.39060000
C       51.34690000      56.39060000      47.03210000
C       56.39060000      47.03220000      51.34700000
C       52.96790000      48.65310000      56.39060000
C       47.03220000      48.65290000      43.60940000
C       52.96790000      51.34700000      43.60940000
C       48.65310000      43.60940000      47.03220000
C       51.34710000      43.60940000      52.96790000
C       48.65290000      56.39060000      52.96780000
C       43.60930000      52.96780000      51.34700000
C       56.39060000      52.96800000      48.65300000
C       43.60940000      47.03200000      48.65300000
C       47.03210000      51.34690000      43.60940000
C       51.34690000      56.39060000      52.96780000
C       56.39070000      47.03220000      48.65300000
C       52.96790000      48.65300000      43.60940000
C       47.03210000      48.65300000      56.39060000
C       52.96780000      51.34710000      56.39060000
C       48.65310000      43.60940000      52.96790000
C       51.34710000      43.60940000      47.03220000
C       48.65290000      56.39060000      47.03210000
C       43.60940000      52.96780000      48.65300000
C       56.39060000      52.96800000      51.34700000
C       43.60940000      47.03200000      51.34700000
