240
Lattice="100.0 0.0 0.0 0.0 100.0 0.0 0.0 0.0 100.0" Properties=species:S:1:pos:R:3 name=C-2495266-1868-168 pressure=-0.0155804126031587 energy=-1780.64301829385 spacegroup=Oh times_found=1 pbc="T T T"
C       49.28210000      42.19240000      49.28360000
C       42.19230000      49.28450000      49.28310000
C       49.28340000      49.28310000      42.19240000
C       50.71540000      42.19230000      50.71700000
C       50.71800000      57.80750000      49.28300000
C       49.28450000      57.80780000      50.71640000
C       57.80750000      49.28210000      50.71700000
C       57.80780000      50.71540000      49.28350000
C       42.19250000      50.71800000      50.71640000
C       50.71630000      49.28350000      57.80770000
C       50.71700000      50.71630000      42.19240000
C       49.28320000      50.71710000      57.80760000
C       49.28460000      57.80770000      49.28300000
C       42.19250000      50.71790000      49.28300000
C       49.28370000      50.71650000      42.19230000
C       50.71790000      57.80760000      50.71640000
C       50.71550000      42.19220000      49.28360000
C       49.28200000      42.19250000      50.71700000
C       57.80770000      50.71550000      50.71690000
C       57.80750000      49.28200000      49.28360000
C       42.19220000      49.28460000      50.71650000
C       50.71660000      50.71690000      57.80760000
C       50.71680000      49.28290000      42.19240000
C       49.28300000      49.28370000      57.80760000
C       48.59620000      56.81650000      51.40450000
C       56.81650000      51.40370000      48.59530000
C       51.40440000      48.59520000      56.81630000
C       51.40600000      56.81600000      48.59500000
C       51.40370000      43.18360000      51.40510000
C       48.59410000      43.18390000      48.59540000
C       43.18390000      51.40600000      51.40460000
C       43.18360000      48.59620000      48.59500000
C       56.81600000      48.59410000      51.40510000
C       48.59510000      48.59510000      43.18380000
C       48.59520000      51.40530000      56.81620000
C       51.40530000      51.40440000      43.18370000
C       48.59400000      43.18400000      51.40500000
C       56.81610000      48.59400000      48.59540000
C       51.40490000      51.40490000      56.81620000
C       51.40380000      43.18350000      48.59550000
C       51.40590000      56.81610000      51.40460000
C       48.59630000      56.81640000      48.59490000
C       43.18350000      48.59630000      51.40470000
C       43.18400000      51.40590000      48.59490000
C       56.81640000      51.40380000      51.40500000
C       48.59560000      51.40480000      43.18370000
C       48.59470000      48.59560000      56.81630000
C       51.40480000      48.59470000      43.18380000
C       44.22500000      45.22680000      49.26960000
C       45.22590000      49.27020000      44.22560000
C       49.26890000      44.22560000      45.22610000
C       55.77350000      45.22500000      50.73070000
C       55.77510000      54.77320000      49.26960000
C       44.22650000      54.77510000      50.73000000
C       54.77380000      49.26910000      55.77450000
C       54.77440000      50.72940000      44.22580000
C       45.22580000      50.73130000      55.77410000
C       50.72930000      44.22580000      54.77440000
C       50.73140000      55.77400000      45.22570000
C       49.27040000      55.77460000      54.77390000
C       44.22650000      54.77500000      49.26930000
C       45.22620000      50.73090000      44.22550000
C       49.27070000      55.77420000      45.22560000
C       55.77500000      54.77320000      50.73040000
C       55.77350000      45.22490000      49.27000000
C       44.22490000      45.22680000      50.73040000
C       54.77410000      50.72980000      55.77440000
C       54.77420000      49.26870000      44.22590000
C       45.22560000      49.27060000      55.77420000
C       50.73110000      55.77440000      54.77390000
C       50.72960000      44.22540000      45.22610000
C       49.26860000      44.22600000      54.77430000
C       46.36400000      45.32690000      47.38890000
C       45.32610000      47.38940000      46.36460000
C       47.38840000      46.36490000      45.32650000
C       53.63450000      45.32590000      52.61150000
C       53.63610000      54.67290000      47.38880000
C       46.36540000      54.67430000      52.61090000
C       54.67310000      47.38820000      53.63550000
C       54.67410000      52.61030000      46.36470000
C       45.32670000      52.61210000      53.63510000
C       52.61050000      46.36440000      54.67380000
C       52.61190000      53.63470000      45.32630000
C       47.38930000      53.63590000      54.67340000
C       46.36550000      54.67410000      47.38850000
C       45.32690000      52.61180000      46.36450000
C       47.38950000      53.63560000      45.32620000
C       53.63600000      54.67310000      52.61110000
C       53.63460000      45.32570000      47.38910000
C       46.36390000      45.32710000      52.61120000
C       54.67390000      52.61060000      53.63540000
C       54.67330000      47.38790000      46.36490000
C       45.32590000      47.38970000      53.63530000
C       52.61160000      53.63510000      54.67350000
C       52.61070000      46.36410000      45.32660000
C       47.38810000      46.36530000      54.67370000
C       52.61030000      45.32610000      53.63560000
C       45.32690000      53.63620000      52.61090000
C       53.63590000      52.61040000      45.32640000
C       47.38820000      45.32670000      46.36480000
C       47.38950000      54.67410000      53.63510000
C       52.61200000      54.67300000      46.36460000
C       54.67430000      53.63450000      47.38880000
C       54.67290000      46.36400000      52.61150000
C       45.32590000      46.36540000      47.38880000
C       46.36500000      52.61190000      54.67340000
C       46.36440000      47.38920000      45.32640000
C       53.63470000      47.38840000      54.67380000
C       52.61180000      54.67330000      53.63520000
C       45.32570000      46.36550000      52.61120000
C       53.63500000      47.38810000      45.32660000
C       47.38970000      54.67390000      46.36440000
C       47.38800000      45.32700000      53.63540000
C       52.61050000      45.32590000      46.36490000
C       54.67310000      46.36380000      47.38910000
C       54.67410000      53.63460000      52.61120000
C       45.32710000      53.63600000      47.38850000
C       46.36410000      47.38960000      54.67360000
C       46.36530000      52.61160000      45.32620000
C       53.63560000      52.61080000      54.67360000
C       44.22570000      50.73150000      54.77390000
C       50.73130000      54.77380000      44.22560000
C       54.77320000      44.22500000      50.73070000
C       55.77460000      50.72930000      45.22600000
C       55.77400000      49.26890000      54.77430000
C       44.22570000      49.27040000      45.22570000
C       49.27020000      54.77450000      55.77410000
C       49.26900000      45.22580000      44.22590000
C       50.72940000      45.22600000      55.77450000
C       45.22500000      44.22640000      49.26970000
C       45.22680000      55.77510000      50.73000000
C       54.77510000      55.77350000      49.26960000
C       44.22540000      49.27070000      54.77400000
C       50.72980000      45.22550000      44.22590000
C       54.77500000      55.77360000      50.73030000
C       55.77430000      49.26850000      45.22610000
C       55.77430000      50.72960000      54.77430000
C       44.22600000      50.73110000      45.22570000
C       49.26870000      45.22620000      55.77440000
C       49.27060000      54.77400000      44.22550000
C       50.73100000      54.77420000      55.77410000
C       45.22680000      55.77500000      49.26930000
C       45.22490000      44.22650000      50.73040000
C       54.77320000      44.22490000      49.27000000
C       53.61010000      48.53740000      55.61670000
C       48.53860000      55.61690000      53.61030000
C       55.61720000      53.60960000      48.53780000
C       46.38940000      48.53810000      44.38340000
C       46.38950000      51.46300000      55.61640000
C       53.61090000      51.46140000      44.38350000
C       51.46320000      55.61620000      46.38930000
C       51.46120000      44.38340000      53.61080000
C       48.53700000      44.38360000      46.38960000
C       44.38400000      53.61150000      51.46190000
C       44.38290000      46.39030000      48.53770000
C       55.61590000      46.38860000      51.46250000
C       53.61060000      51.46190000      55.61660000
C       48.53680000      44.38380000      53.61070000
C       55.61600000      46.38850000      48.53810000
C       46.38990000      51.46260000      44.38330000
C       46.38910000      48.53860000      55.61650000
C       53.61050000      48.53700000      44.38360000
C       51.46140000      44.38310000      46.38970000
C       51.46300000      55.61640000      53.61040000
C       48.53880000      55.61660000      46.38920000
C       44.38280000      46.39040000      51.46220000
C       44.38410000      53.61140000      48.53750000
C       55.61710000      53.60970000      51.46230000
C       49.25210000      47.43930000      56.30600000
C       47.43990000      56.30630000      49.25240000
C       56.30590000      49.25160000      47.43910000
C       50.74700000      47.43860000      43.69420000
C       50.74750000      52.56120000      56.30590000
C       49.25340000      52.56100000      43.69390000
C       52.56210000      56.30560000      50.74710000
C       52.56010000      43.69360000      49.25310000
C       47.43790000      43.69450000      50.74740000
C       43.69380000      49.25390000      52.56090000
C       43.69420000      50.74820000      47.43870000
C       56.30600000      50.74630000      52.56130000
C       49.25300000      52.56140000      56.30580000
C       47.43790000      43.69440000      49.25290000
C       56.30620000      50.74610000      47.43910000
C       50.74790000      52.56070000      43.69400000
C       50.74660000      47.43900000      56.30610000
C       49.25250000      47.43880000      43.69410000
C       52.56010000      43.69370000      50.74760000
C       52.56210000      56.30550000      49.25260000
C       47.43990000      56.30640000      50.74690000
C       43.69410000      50.74840000      52.56090000
C       43.69400000      49.25370000      47.43870000
C       56.30580000      49.25180000      52.56130000
C       46.38860000      44.38400000      48.53790000
C       44.38330000      48.53850000      46.38940000
C       48.53740000      46.38950000      44.38360000
C       53.60960000      44.38290000      51.46250000
C       53.61150000      55.61590000      48.53770000
C       46.39030000      55.61720000      51.46190000
C       55.61620000      48.53700000      53.61070000
C       55.61690000      51.46120000      46.38960000
C       44.38360000      51.46330000      53.61030000
C       51.46150000      46.38950000      55.61670000
C       51.46300000      53.61010000      44.38340000
C       48.53820000      53.61100000      55.61640000
C       46.39040000      55.61710000      48.53750000
C       44.38380000      51.46300000      46.38930000
C       48.53850000      53.61050000      44.38330000
C       53.61140000      55.61600000      51.46210000
C       53.60970000      44.38280000      48.53810000
C       46.38850000      44.38410000      51.46230000
C       55.61670000      51.46150000      53.61060000
C       55.61640000      48.53670000      46.38970000
C       44.38310000      48.53880000      53.61040000
C       51.46260000      53.61050000      55.61640000
C       51.46180000      46.38900000      44.38360000
C       48.53700000      46.38990000      55.61660000
C       47.43920000      50.74740000      43.69390000
C       50.74630000      43.69380000      47.43920000
C       43.69360000      47.43990000      50.74710000
C       52.56100000      50.74710000      56.30600000
C       52.56120000      49.25210000      43.69410000
C       47.43860000      49.25340000      56.30590000
C       49.25170000      43.69430000      52.56130000
C       49.25380000      56.30600000      47.43870000
C       50.74820000      56.30590000      52.56090000
C       56.30560000      47.43790000      49.25300000
C       56.30630000      52.56010000      50.74730000
C       43.69450000      52.56210000      49.25250000
C       47.43900000      49.25290000      43.69400000
C       50.74830000      56.30570000      47.43870000
C       43.69440000      52.56210000      50.74700000
C       52.56080000      49.25260000      56.30610000
C       52.56140000      50.74660000      43.69410000
C       47.43880000      50.74790000      56.30590000
C       49.25370000      56.30620000      52.56080000
C       49.25180000      43.69410000      47.43910000
C       50.74620000      43.69400000      52.56130000
C       56.30640000      52.56010000      49.25290000
C       56.30550000      47.43790000      50.74750000
C       43.69370000      47.43990000      49.25270000
