240
Lattice="100.0 0.0 0.0 0.0 100.0 0.0 0.0 0.0 100.0" Properties=species:S:1:pos:R:3 name=C-2509655-3548-7 pressure=-9.09306995796381 spacegroup=Th times_found=1 energy=-1760.6755016858 pbc="T T T"
C       51.45420000      44.50030000      45.82400000
C       45.82440000      51.45360000      44.49990000
C       44.50020000      45.82380000      51.45320000
C       51.45310000      55.49980000      54.17620000
C       48.54640000      55.49990000      45.82400000
C       48.54620000      44.50000000      54.17570000
C       45.82370000      48.54600000      55.49950000
C       54.17640000      48.54660000      44.50040000
C       54.17550000      51.45370000      55.50020000
C       44.50010000      54.17580000      48.54600000
C       55.49960000      54.17620000      51.45420000
C       55.50010000      45.82430000      48.54660000
C       48.54680000      44.50020000      45.82380000
C       54.17630000      51.45400000      44.50050000
C       55.49990000      45.82420000      51.45400000
C       48.54580000      55.49970000      54.17600000
C       51.45380000      55.50000000      45.82430000
C       51.45360000      44.50010000      54.17600000
C       54.17560000      48.54640000      55.50010000
C       45.82450000      48.54630000      44.49980000
C       45.82360000      51.45340000      55.49960000
C       55.49980000      54.17620000      48.54680000
C       44.49990000      54.17570000      51.45340000
C       44.50040000      45.82380000      48.54580000
C       49.25630000      44.15350000      55.35300000
C       55.35370000      49.25680000      44.15400000
C       44.15350000      55.35300000      49.25620000
C       49.25660000      55.84650000      44.64690000
C       50.74290000      55.84630000      55.35340000
C       50.74410000      44.15380000      44.64670000
C       55.35270000      50.74360000      55.84680000
C       44.64720000      50.74340000      44.15320000
C       44.64640000      49.25610000      55.84600000
C       44.15380000      44.64650000      50.74300000
C       55.84660000      44.64700000      49.25680000
C       55.84610000      55.35340000      50.74410000
C       50.74340000      44.15350000      55.35310000
C       44.64730000      49.25640000      44.15320000
C       55.84620000      55.35350000      49.25700000
C       50.74370000      55.84650000      44.64700000
C       49.25580000      55.84620000      55.35330000
C       49.25710000      44.15370000      44.64660000
C       44.64630000      50.74320000      55.84600000
C       55.35360000      50.74390000      44.15400000
C       55.35280000      49.25660000      55.84680000
C       55.84650000      44.64700000      50.74380000
C       44.15390000      44.64660000      49.25590000
C       44.15340000      55.35300000      50.74320000
C       45.14740000      47.14670000      53.43830000
C       53.43910000      45.14780000      47.14720000
C       47.14720000      53.43870000      45.14740000
C       45.14770000      52.85290000      46.56100000
C       54.85200000      52.85310000      53.43920000
C       54.85280000      47.14730000      46.56160000
C       53.43830000      54.85250000      52.85340000
C       46.56130000      54.85230000      47.14690000
C       46.56120000      45.14740000      52.85260000
C       47.14680000      46.56100000      54.85210000
C       52.85350000      46.56150000      45.14770000
C       52.85250000      53.43880000      54.85270000
C       54.85230000      47.14710000      53.43900000
C       46.56170000      45.14750000      47.14660000
C       52.85320000      53.43900000      45.14790000
C       54.85260000      52.85330000      46.56170000
C       45.14720000      52.85270000      53.43840000
C       45.14800000      47.14690000      46.56080000
C       46.56090000      54.85220000      52.85280000
C       53.43880000      54.85260000      47.14740000
C       53.43870000      45.14770000      52.85310000
C       52.85280000      46.56130000      54.85260000
C       47.14750000      46.56120000      45.14730000
C       47.14650000      53.43850000      54.85230000
C       43.58470000      50.72810000      50.72210000
C       50.72280000      43.58480000      50.72830000
C       50.72880000      50.72270000      43.58490000
C       43.58490000      49.27140000      49.27690000
C       56.41520000      49.27190000      50.72300000
C       56.41520000      50.72860000      49.27790000
C       50.72240000      56.41520000      49.27180000
C       49.27710000      56.41510000      50.72840000
C       49.27770000      43.58480000      49.27140000
C       50.72790000      49.27730000      56.41520000
C       49.27210000      49.27750000      43.58480000
C       49.27110000      50.72240000      56.41510000
C       56.41510000      50.72860000      50.72310000
C       49.27760000      43.58480000      50.72820000
C       49.27210000      50.72270000      43.58480000
C       56.41530000      49.27190000      49.27790000
C       43.58480000      49.27140000      50.72210000
C       43.58480000      50.72810000      49.27700000
C       49.27720000      56.41520000      49.27170000
C       50.72230000      56.41520000      50.72860000
C       50.72290000      43.58490000      49.27160000
C       49.27120000      49.27730000      56.41510000
C       50.72890000      49.27760000      43.58490000
C       50.72790000      50.72250000      56.41520000
C       50.74240000      53.56200000      43.73010000
C       43.72960000      50.74180000      53.56140000
C       53.56210000      43.73010000      50.74220000
C       50.74180000      46.43800000      56.27010000
C       49.25850000      46.43820000      43.72980000
C       49.25730000      53.56170000      56.27010000
C       43.73020000      49.25770000      46.43760000
C       56.26980000      49.25810000      53.56230000
C       56.27030000      50.74240000      46.43860000
C       53.56170000      56.27020000      49.25830000
C       46.43780000      56.26990000      50.74200000
C       46.43840000      43.72980000      49.25750000
C       49.25820000      53.56200000      43.72990000
C       56.26980000      50.74230000      53.56240000
C       46.43830000      43.72980000      50.74170000
C       49.25760000      46.43800000      56.26990000
C       50.74270000      46.43830000      43.72990000
C       50.74150000      53.56180000      56.27020000
C       56.27040000      49.25820000      46.43860000
C       43.72970000      49.25760000      53.56140000
C       43.73020000      50.74190000      46.43770000
C       46.43790000      56.26990000      49.25780000
C       53.56160000      56.27020000      50.74250000
C       53.56220000      43.73010000      49.25800000
C       56.48020000      49.24730000      45.01090000
C       45.01020000      56.47960000      49.24670000
C       49.24660000      45.01020000      56.47960000
C       56.47940000      50.75320000      54.99010000
C       43.52060000      50.75290000      45.00990000
C       43.51990000      49.24650000      54.98910000
C       45.01060000      43.52000000      50.75260000
C       54.98990000      43.52040000      49.24710000
C       54.98930000      56.48000000      50.75360000
C       49.24720000      54.98970000      43.52030000
C       50.75240000      54.98950000      56.47990000
C       50.75380000      45.01060000      43.52020000
C       43.52060000      49.24680000      45.00990000
C       54.98940000      56.48000000      49.24740000
C       50.75280000      45.01030000      56.47970000
C       43.51980000      50.75270000      54.98910000
C       56.48010000      50.75350000      45.01090000
C       56.47940000      49.24710000      54.99010000
C       54.98980000      43.52040000      50.75330000
C       45.01070000      43.52000000      49.24640000
C       45.01010000      56.47960000      50.75290000
C       50.75340000      54.98980000      43.52040000
C       49.24620000      54.98940000      56.47980000
C       49.24760000      45.01050000      43.52010000
C       49.27610000      44.15860000      53.01820000
C       53.01880000      49.27630000      44.15890000
C       44.15860000      53.01810000      49.27570000
C       49.27600000      55.84140000      46.98170000
C       50.72350000      55.84130000      53.01850000
C       50.72440000      44.15870000      46.98160000
C       53.01790000      50.72390000      55.84160000
C       46.98200000      50.72400000      44.15840000
C       46.98120000      49.27580000      55.84110000
C       44.15870000      46.98140000      50.72350000
C       55.84150000      46.98190000      49.27640000
C       55.84120000      53.01860000      50.72440000
C       50.72400000      44.15860000      53.01830000
C       46.98210000      49.27610000      44.15840000
C       55.84130000      53.01860000      49.27650000
C       50.72390000      55.84140000      46.98180000
C       49.27560000      55.84130000      53.01840000
C       49.27650000      44.15870000      46.98150000
C       46.98120000      50.72370000      55.84110000
C       53.01880000      50.72420000      44.15890000
C       53.01800000      49.27600000      55.84160000
C       55.84140000      46.98190000      50.72430000
C       44.15880000      46.98140000      49.27560000
C       44.15850000      53.01810000      50.72360000
C       47.37130000      45.37700000      45.96460000
C       45.96530000      47.37070000      45.37670000
C       45.37740000      45.96480000      47.37040000
C       47.37030000      54.62270000      54.03500000
C       52.62930000      54.62310000      45.96520000
C       52.62910000      45.37710000      54.03520000
C       45.96450000      52.62890000      54.62270000
C       54.03530000      52.62950000      45.37740000
C       54.03490000      47.37090000      54.62320000
C       45.37670000      54.03490000      52.62890000
C       54.62300000      54.03530000      47.37120000
C       54.62290000      45.96500000      52.62950000
C       52.62970000      45.37730000      45.96500000
C       54.03550000      47.37110000      45.37730000
C       54.62330000      45.96510000      47.37110000
C       52.62870000      54.62300000      54.03540000
C       47.37090000      54.62290000      45.96480000
C       47.37070000      45.37690000      54.03480000
C       54.03470000      52.62930000      54.62330000
C       45.96510000      52.62910000      45.37680000
C       45.96470000      47.37050000      54.62260000
C       54.62260000      54.03520000      52.62960000
C       45.37710000      54.03500000      47.37050000
C       45.37700000      45.96470000      52.62880000
C       44.01110000      48.16690000      48.54650000
C       48.54730000      44.01090000      48.16680000
C       48.16760000      48.54700000      44.01070000
C       44.01070000      51.83260000      51.45260000
C       55.98910000      51.83320000      48.54740000
C       55.98910000      48.16730000      51.45340000
C       48.54660000      55.98900000      51.83290000
C       51.45290000      55.98920000      48.16730000
C       51.45310000      44.01090000      51.83290000
C       48.16660000      51.45280000      55.98900000
C       51.83330000      51.45320000      44.01110000
C       51.83250000      48.54690000      55.98920000
C       55.98930000      48.16740000      48.54740000
C       51.45340000      44.01100000      48.16710000
C       51.83340000      48.54720000      44.01100000
C       55.98890000      51.83310000      51.45350000
C       44.01090000      51.83270000      48.54660000
C       44.01090000      48.16680000      51.45260000
C       51.45270000      55.98910000      51.83320000
C       48.54690000      55.98910000      48.16710000
C       48.54710000      44.01080000      51.83270000
C       51.83240000      51.45300000      55.98930000
C       48.16750000      51.45310000      44.01080000
C       48.16670000      48.54680000      55.98890000
C       47.14410000      44.28100000      51.82240000
C       51.82320000      47.14420000      44.28120000
C       44.28130000      51.82250000      47.14360000
C       47.14390000      55.71880000      48.17720000
C       52.85570000      55.71890000      51.82300000
C       52.85640000      44.28130000      48.17740000
C       51.82210000      52.85600000      55.71910000
C       48.17760000      52.85610000      44.28110000
C       48.17700000      47.14380000      55.71870000
C       44.28100000      48.17700000      52.85560000
C       55.71920000      48.17760000      47.14440000
C       55.71860000      51.82290000      52.85650000
C       52.85610000      44.28120000      51.82280000
C       48.17790000      47.14400000      44.28090000
C       55.71900000      51.82300000      47.14440000
C       52.85590000      55.71900000      48.17760000
C       47.14360000      55.71870000      51.82260000
C       47.14430000      44.28110000      48.17700000
C       48.17680000      52.85580000      55.71880000
C       51.82300000      52.85620000      44.28130000
C       51.82240000      47.14390000      55.71890000
C       55.71870000      48.17750000      52.85640000
C       44.28140000      48.17710000      47.14350000
C       44.28080000      51.82240000      52.85560000
