240
Lattice="100.0 0.0 0.0 0.0 100.0 0.0 0.0 0.0 100.0" Properties=species:S:1:pos:R:3 name=C-2509655-3548-1332 pressure=-35.6136048191928 energy=-1768.13175425424 spacegroup=Oh times_found=1 pbc="T T T"
C       52.02210000      50.00030000      43.03240000
C       43.03240000      52.02190000      50.00140000
C       50.00200000      43.03290000      52.02370000
C       47.97510000      49.99940000      43.03330000
C       47.97790000      49.99970000      56.96760000
C       52.02490000      50.00060000      56.96670000
C       56.96760000      47.97810000      49.99860000
C       56.96670000      52.02520000      49.99860000
C       43.03330000      47.97480000      50.00140000
C       49.99880000      56.96720000      52.02340000
C       50.00120000      43.03280000      47.97660000
C       49.99800000      56.96710000      47.97630000
C       49.99810000      52.02340000      43.03280000
C       52.02520000      43.03330000      49.99970000
C       43.03330000      49.99840000      52.02490000
C       49.99910000      47.97630000      43.03290000
C       50.00190000      47.97660000      56.96720000
C       50.00090000      52.02370000      56.96710000
C       47.97480000      56.96670000      50.00030000
C       52.02190000      56.96760000      49.99950000
C       47.97810000      43.03240000      50.00050000
C       56.96760000      50.00170000      52.02210000
C       43.03240000      49.99830000      47.97790000
C       56.96670000      50.00160000      47.97510000
C       52.29860000      56.32190000      48.73990000
C       48.74120000      52.30010000      56.32160000
C       56.32210000      48.74200000      52.29910000
C       47.70090000      43.67800000      48.74110000
C       47.69850000      56.32090000      51.25980000
C       52.30200000      43.67920000      51.25920000
C       51.26130000      47.70010000      56.32120000
C       51.25770000      52.30050000      43.67830000
C       48.73980000      47.69930000      43.67890000
C       43.67880000      51.25810000      52.30150000
C       43.67840000      48.73900000      47.70100000
C       56.32060000      51.26090000      47.69840000
C       56.32060000      52.30180000      48.73920000
C       52.30190000      48.74120000      56.32100000
C       48.73950000      56.32110000      52.30040000
C       43.67890000      47.69820000      48.74180000
C       56.32220000      47.70120000      51.25830000
C       43.67830000      52.29880000      51.26070000
C       47.70070000      51.25910000      56.32180000
C       52.29870000      51.25990000      43.67810000
C       47.69870000      48.73980000      43.67910000
C       51.26150000      43.67890000      52.30020000
C       48.74150000      43.67830000      47.70010000
C       51.25760000      56.32160000      47.69930000
C       52.59400000      50.00050000      46.51480000
C       46.51470000      52.59390000      50.00060000
C       50.00130000      46.51530000      52.59480000
C       47.40460000      49.99930000      46.51580000
C       47.40600000      49.99950000      53.48520000
C       52.59540000      50.00070000      53.48420000
C       53.48530000      47.40610000      49.99930000
C       53.48410000      52.59550000      49.99920000
C       46.51590000      47.40450000      50.00070000
C       49.99970000      53.48480000      52.59470000
C       50.00030000      46.51520000      47.40540000
C       49.99870000      53.48470000      47.40520000
C       49.99870000      52.59470000      46.51520000
C       52.59550000      46.51590000      49.99960000
C       46.51580000      49.99920000      52.59540000
C       49.99990000      47.40520000      46.51530000
C       50.00130000      47.40530000      53.48480000
C       50.00010000      52.59480000      53.48470000
C       47.40450000      53.48410000      50.00050000
C       52.59390000      53.48530000      49.99940000
C       47.40610000      46.51470000      50.00060000
C       53.48520000      50.00090000      52.59400000
C       46.51480000      49.99910000      47.40600000
C       53.48420000      50.00080000      47.40460000
C       49.99790000      57.93880000      48.97380000
C       48.97550000      49.99990000      57.93910000
C       57.93910000      48.97580000      49.99840000
C       50.00170000      42.06110000      48.97410000
C       49.99830000      57.93890000      51.02590000
C       50.00210000      42.06120000      51.02620000
C       51.02770000      50.00040000      57.93860000
C       51.02450000      50.00010000      42.06100000
C       48.97230000      49.99960000      42.06140000
C       42.06090000      51.02420000      50.00160000
C       42.06140000      48.97210000      50.00160000
C       57.93860000      51.02790000      49.99840000
C       57.93860000      50.00180000      48.97230000
C       50.00180000      48.97410000      57.93890000
C       48.97210000      57.93860000      50.00010000
C       42.06090000      49.99810000      48.97550000
C       57.93900000      50.00190000      51.02450000
C       42.06140000      49.99820000      51.02770000
C       50.00130000      51.02620000      57.93880000
C       49.99820000      51.02590000      42.06110000
C       49.99860000      48.97380000      42.06120000
C       51.02790000      42.06140000      49.99990000
C       48.97580000      42.06090000      50.00040000
C       51.02420000      57.93910000      49.99960000
C       54.52260000      47.52760000      53.51200000
C       53.51130000      54.52210000      47.52570000
C       47.52660000      53.51240000      54.52180000
C       45.47880000      52.47250000      53.51370000
C       45.47860000      47.52540000      46.48810000
C       54.52000000      52.47450000      46.48620000
C       46.48770000      45.47780000      47.52730000
C       46.48660000      54.52050000      52.47410000
C       53.51440000      45.47950000      52.47290000
C       52.47520000      46.48780000      54.52090000
C       52.47180000      53.51330000      45.47810000
C       47.52640000      46.48650000      45.47920000
C       47.52620000      54.52080000      53.51330000
C       54.52000000      53.51390000      47.52550000
C       53.51430000      47.52740000      54.52070000
C       52.47530000      45.47930000      53.51240000
C       47.52690000      45.47800000      46.48770000
C       52.47170000      54.52180000      46.48660000
C       45.47900000      46.48600000      47.52750000
C       54.52260000      46.48830000      52.47270000
C       45.47830000      53.51180000      52.47430000
C       46.48750000      52.47280000      54.52200000
C       53.51140000      52.47420000      45.47790000
C       46.48680000      47.52560000      45.47940000
C       51.26050000      43.67890000      47.69960000
C       47.69810000      51.25880000      43.67900000
C       43.67940000      47.69820000      51.26080000
C       48.73860000      56.32110000      47.69980000
C       48.74240000      43.67840000      52.30070000
C       51.25850000      56.32170000      52.29990000
C       52.29930000      48.74090000      43.67820000
C       52.30130000      51.26020000      56.32090000
C       47.70130000      48.74010000      56.32190000
C       56.32110000      52.30180000      51.25820000
C       56.32170000      47.70120000      48.73930000
C       43.67780000      52.29880000      48.74170000
C       43.67780000      51.25800000      47.70090000
C       51.25880000      47.69990000      43.67840000
C       47.70140000      43.67810000      51.26010000
C       56.32120000      48.74190000      47.69850000
C       43.67940000      48.73910000      52.30160000
C       56.32160000      51.26100000      52.29900000
C       48.73870000      52.29990000      43.67880000
C       51.26020000      52.30070000      56.32110000
C       48.74230000      47.69950000      56.32170000
C       52.29910000      56.32200000      51.25890000
C       47.69800000      56.32080000      48.74080000
C       52.30150000      43.67910000      48.74020000
C       45.48000000      47.52550000      53.51380000
C       53.51340000      45.47950000      47.52590000
C       47.52480000      53.51220000      45.47910000
C       54.52140000      52.47460000      53.51190000
C       54.52120000      47.52750000      46.48630000
C       45.47740000      52.47240000      46.48800000
C       46.48560000      54.52040000      47.52710000
C       46.48870000      45.47790000      52.47430000
C       53.51230000      54.52220000      52.47270000
C       52.47340000      46.48760000      45.47830000
C       52.47360000      53.51350000      54.52080000
C       47.52820000      46.48670000      54.52190000
C       47.52830000      45.47820000      53.51340000
C       45.47740000      53.51170000      47.52740000
C       53.51250000      47.52730000      45.47800000
C       52.47310000      54.52200000      53.51230000
C       47.52470000      54.52070000      46.48760000
C       52.47380000      45.47920000      46.48670000
C       54.52160000      46.48820000      47.52570000
C       45.48000000      46.48610000      52.47450000
C       54.52100000      53.51400000      52.47250000
C       46.48570000      52.47260000      45.47930000
C       53.51320000      52.47440000      54.52060000
C       46.48860000      47.52580000      54.52210000
C       51.28490000      55.29460000      53.27190000
C       53.27300000      51.28630000      55.29350000
C       55.29370000      53.27350000      51.28430000
C       48.71650000      44.70550000      53.27260000
C       48.71270000      55.29390000      46.72790000
C       51.28600000      44.70600000      46.72760000
C       46.72910000      48.71390000      55.29490000
C       46.72640000      51.28460000      44.70640000
C       53.27150000      48.71520000      44.70510000
C       44.70680000      46.72650000      51.28660000
C       44.70470000      53.27100000      48.71560000
C       55.29470000      46.72890000      48.71360000
C       55.29460000      51.28670000      53.27120000
C       51.28570000      53.27270000      55.29390000
C       53.27130000      55.29500000      51.28470000
C       44.70670000      48.71340000      53.27340000
C       55.29390000      48.71570000      46.72670000
C       44.70480000      51.28410000      46.72880000
C       48.71640000      46.72750000      55.29450000
C       51.28510000      46.72790000      44.70560000
C       48.71270000      53.27190000      44.70600000
C       46.72920000      44.70500000      51.28620000
C       53.27330000      44.70650000      48.71400000
C       46.72620000      55.29340000      48.71510000
C       53.63670000      54.68700000      49.99920000
C       50.00010000      53.63790000      54.68610000
C       54.68690000      50.00120000      53.63680000
C       46.36330000      45.31300000      50.00080000
C       46.36110000      54.68530000      50.00060000
C       53.63890000      45.31470000      49.99940000
C       50.00180000      46.36230000      54.68620000
C       49.99820000      53.63770000      45.31380000
C       49.99990000      46.36210000      45.31400000
C       45.31460000      49.99900000      53.63870000
C       45.31310000      49.99880000      46.36320000
C       54.68540000      50.00100000      46.36130000
C       54.68530000      53.63890000      49.99900000
C       53.63870000      50.00090000      54.68540000
C       49.99960000      54.68620000      53.63770000
C       45.31470000      46.36110000      50.00100000
C       54.68700000      46.36330000      49.99910000
C       45.31300000      53.63670000      50.00090000
C       46.36320000      49.99920000      54.68690000
C       53.63680000      50.00080000      45.31310000
C       46.36130000      49.99910000      45.31460000
C       50.00180000      45.31390000      53.63790000
C       50.00040000      45.31380000      46.36230000
C       49.99820000      54.68610000      46.36210000
C       55.29320000      53.27350000      48.71340000
C       48.71400000      55.29400000      53.27240000
C       53.27360000      48.71540000      55.29360000
C       44.70630000      46.72650000      48.71570000
C       44.70530000      53.27110000      51.28640000
C       55.29530000      46.72900000      51.28440000
C       51.28730000      44.70610000      53.27210000
C       51.28350000      55.29450000      46.72740000
C       48.71510000      44.70540000      46.72810000
C       46.72850000      51.28480000      55.29490000
C       46.72700000      48.71370000      44.70650000
C       53.27090000      51.28610000      44.70510000
C       53.27080000      55.29500000      48.71380000
C       55.29520000      48.71590000      53.27120000
C       48.71490000      53.27210000      55.29440000
C       46.72870000      44.70500000      48.71530000
C       53.27380000      44.70660000      51.28490000
C       46.72670000      55.29350000      51.28600000
C       44.70610000      51.28430000      53.27330000
C       55.29330000      51.28660000      46.72660000
C       44.70540000      48.71330000      46.72880000
C       51.28730000      46.72810000      55.29400000
C       48.71430000      46.72730000      44.70610000
C       51.28360000      53.27250000      44.70540000
