240
Lattice="100.0 0.0 0.0 0.0 100.0 0.0 0.0 0.0 100.0" Properties=species:S:1:pos:R:3 name=C-2509655-3548-377 pressure=-13.6797982499907 energy=-1784.81909563028 spacegroup=Oh times_found=1 pbc="T T T"
C       56.22460000      50.67620000      54.43550000
C       54.43550000      56.22450000      50.67620000
C       50.67630000      54.43550000      56.22450000
C       43.77550000      49.32380000      54.43550000
C       43.77540000      50.67620000      45.56450000
C       56.22450000      49.32380000      45.56450000
C       45.56450000      43.77550000      50.67620000
C       45.56450000      56.22450000      49.32380000
C       54.43550000      43.77550000      49.32370000
C       49.32380000      45.56450000      56.22450000
C       49.32370000      54.43550000      43.77550000
C       50.67620000      45.56450000      43.77540000
C       56.22450000      50.67620000      45.56450000
C       54.43550000      56.22450000      49.32380000
C       50.67620000      54.43550000      43.77550000
C       43.77540000      49.32380000      45.56450000
C       43.77550000      50.67620000      54.43550000
C       56.22460000      49.32380000      54.43550000
C       45.56450000      43.77550000      49.32380000
C       45.56450000      56.22450000      50.67630000
C       54.43550000      43.77550000      50.67620000
C       49.32370000      45.56450000      43.77540000
C       49.32380000      54.43550000      56.22460000
C       50.67630000      45.56450000      56.22450000
C       50.76320000      56.32200000      51.83740000
C       51.83750000      50.76320000      56.32200000
C       56.32200000      51.83740000      50.76320000
C       49.23680000      43.67800000      51.83740000
C       49.23680000      56.32200000      48.16260000
C       50.76320000      43.67800000      48.16260000
C       48.16260000      49.23680000      56.32200000
C       48.16250000      50.76320000      43.67800000
C       51.83740000      49.23680000      43.67800000
C       43.67800000      48.16260000      50.76320000
C       43.67800000      51.83740000      49.23680000
C       56.32200000      48.16260000      49.23680000
C       50.76320000      56.32200000      48.16260000
C       51.83740000      50.76320000      43.67800000
C       56.32200000      51.83740000      49.23680000
C       49.23680000      43.67800000      48.16260000
C       49.23680000      56.32200000      51.83740000
C       50.76320000      43.67800000      51.83740000
C       48.16250000      49.23680000      43.67800000
C       48.16260000      50.76320000      56.32200000
C       51.83750000      49.23680000      56.32200000
C       43.67800000      48.16260000      49.23680000
C       43.67800000      51.83740000      50.76320000
C       56.32200000      48.16260000      50.76320000
C       50.67630000      43.77540000      54.43550000
C       54.43550000      50.67630000      43.77540000
C       43.77550000      54.43550000      50.67630000
C       49.32380000      56.22450000      54.43550000
C       49.32370000      43.77550000      45.56450000
C       50.67620000      56.22460000      45.56450000
C       45.56450000      49.32380000      43.77550000
C       45.56450000      50.67620000      56.22460000
C       54.43550000      49.32380000      56.22450000
C       56.22450000      45.56450000      50.67620000
C       56.22450000      54.43550000      49.32370000
C       43.77550000      45.56450000      49.32380000
C       50.67620000      43.77550000      45.56450000
C       54.43550000      50.67620000      56.22450000
C       43.77550000      54.43550000      49.32380000
C       49.32370000      56.22460000      45.56450000
C       49.32380000      43.77540000      54.43550000
C       50.67630000      56.22450000      54.43550000
C       45.56450000      49.32370000      56.22460000
C       45.56450000      50.67620000      43.77550000
C       54.43550000      49.32380000      43.77540000
C       56.22450000      45.56450000      49.32370000
C       56.22450000      54.43550000      50.67620000
C       43.77550000      45.56450000      50.67630000
C       44.58120000      51.33900000      44.58130000
C       44.58130000      44.58120000      51.33900000
C       51.33890000      44.58130000      44.58120000
C       55.41870000      48.66110000      44.58120000
C       55.41880000      51.33890000      55.41870000
C       44.58130000      48.66100000      55.41880000
C       55.41880000      55.41880000      51.33890000
C       55.41880000      44.58130000      48.66100000
C       44.58120000      55.41880000      48.66110000
C       48.66100000      55.41880000      44.58130000
C       48.66110000      44.58120000      55.41870000
C       51.33900000      55.41870000      55.41880000
C       44.58130000      51.33890000      55.41880000
C       44.58120000      44.58120000      48.66110000
C       51.33900000      44.58120000      55.41870000
C       55.41880000      48.66100000      55.41870000
C       55.41870000      51.33900000      44.58120000
C       44.58120000      48.66100000      44.58130000
C       55.41870000      55.41880000      48.66100000
C       55.41880000      44.58120000      51.33890000
C       44.58120000      55.41870000      51.33900000
C       48.66110000      55.41870000      55.41880000
C       48.66100000      44.58130000      44.58120000
C       51.33890000      55.41880000      44.58130000
C       46.83760000      56.12480000      51.32610000
C       51.32610000      46.83760000      56.12470000
C       56.12470000      51.32610000      46.83760000
C       53.16240000      43.87520000      51.32610000
C       53.16240000      56.12480000      48.67390000
C       46.83760000      43.87520000      48.67390000
C       48.67390000      53.16230000      56.12480000
C       48.67390000      46.83770000      43.87520000
C       51.32610000      53.16240000      43.87520000
C       43.87520000      48.67390000      46.83770000
C       43.87530000      51.32610000      53.16240000
C       56.12480000      48.67390000      53.16230000
C       46.83760000      56.12480000      48.67390000
C       51.32610000      46.83770000      43.87520000
C       56.12480000      51.32610000      53.16230000
C       53.16240000      43.87520000      48.67390000
C       53.16240000      56.12480000      51.32610000
C       46.83760000      43.87520000      51.32610000
C       48.67390000      53.16240000      43.87530000
C       48.67390000      46.83760000      56.12480000
C       51.32610000      53.16230000      56.12480000
C       43.87530000      48.67390000      53.16240000
C       43.87520000      51.32610000      46.83770000
C       56.12470000      48.67390000      46.83760000
C       43.87520000      53.16240000      48.67390000
C       48.67390000      43.87520000      53.16240000
C       53.16230000      48.67390000      43.87520000
C       56.12480000      46.83760000      48.67390000
C       56.12480000      53.16240000      51.32610000
C       43.87520000      46.83760000      51.32610000
C       51.32610000      56.12480000      53.16240000
C       51.32610000      43.87520000      46.83760000
C       48.67390000      56.12480000      46.83770000
C       46.83760000      51.32610000      43.87530000
C       46.83770000      48.67390000      56.12480000
C       53.16240000      51.32610000      56.12470000
C       43.87520000      53.16240000      51.32610000
C       48.67390000      43.87520000      46.83760000
C       53.16240000      48.67390000      56.12470000
C       56.12480000      46.83760000      51.32610000
C       56.12480000      53.16240000      48.67390000
C       43.87520000      46.83760000      48.67390000
C       51.32610000      56.12480000      46.83760000
C       51.32610000      43.87520000      53.16230000
C       48.67390000      56.12480000      53.16240000
C       46.83770000      51.32610000      56.12480000
C       46.83760000      48.67390000      43.87520000
C       53.16230000      51.32610000      43.87520000
C       48.16260000      56.32200000      50.76320000
C       50.76320000      48.16260000      56.32200000
C       56.32200000      50.76320000      48.16250000
C       51.83740000      43.67800000      50.76320000
C       51.83740000      56.32200000      49.23680000
C       48.16260000      43.67800000      49.23680000
C       49.23680000      51.83740000      56.32200000
C       49.23680000      48.16260000      43.67800000
C       50.76320000      51.83740000      43.67800000
C       43.67800000      49.23680000      48.16260000
C       43.67800000      50.76320000      51.83750000
C       56.32210000      49.23680000      51.83740000
C       48.16260000      56.32200000      49.23680000
C       50.76320000      48.16260000      43.67800000
C       56.32210000      50.76320000      51.83740000
C       51.83740000      43.67800000      49.23680000
C       51.83740000      56.32200000      50.76320000
C       48.16260000      43.67800000      50.76320000
C       49.23680000      51.83740000      43.67800000
C       49.23680000      48.16260000      56.32200000
C       50.76320000      51.83740000      56.32200000
C       43.67800000      49.23680000      51.83750000
C       43.67800000      50.76320000      48.16260000
C       56.32200000      49.23680000      48.16250000
C       54.81360000      52.44770000      45.18640000
C       45.18640000      54.81360000      52.44770000
C       52.44770000      45.18640000      54.81360000
C       45.18640000      47.55230000      45.18640000
C       45.18640000      52.44770000      54.81370000
C       54.81370000      47.55230000      54.81360000
C       54.81360000      45.18640000      52.44770000
C       54.81360000      54.81360000      47.55230000
C       45.18640000      45.18640000      47.55230000
C       47.55230000      54.81360000      54.81360000
C       47.55230000      45.18640000      45.18640000
C       52.44770000      54.81360000      45.18640000
C       54.81360000      52.44770000      54.81360000
C       45.18640000      54.81360000      47.55230000
C       52.44770000      45.18640000      45.18640000
C       45.18640000      47.55230000      54.81360000
C       45.18630000      52.44770000      45.18640000
C       54.81360000      47.55230000      45.18640000
C       54.81360000      45.18640000      47.55230000
C       54.81360000      54.81360000      52.44770000
C       45.18640000      45.18640000      52.44770000
C       47.55230000      54.81360000      45.18640000
C       47.55230000      45.18640000      54.81360000
C       52.44770000      54.81360000      54.81360000
C       53.49290000      55.38150000      47.46460000
C       47.46470000      53.49290000      55.38150000
C       55.38150000      47.46460000      53.49290000
C       46.50710000      44.61850000      47.46460000
C       46.50710000      55.38150000      52.53540000
C       53.49290000      44.61850000      52.53530000
C       52.53540000      46.50710000      55.38140000
C       52.53530000      53.49290000      44.61850000
C       47.46460000      46.50710000      44.61850000
C       44.61860000      52.53530000      53.49300000
C       44.61850000      47.46470000      46.50710000
C       55.38140000      52.53540000      46.50710000
C       53.49290000      55.38150000      52.53540000
C       47.46460000      53.49290000      44.61860000
C       55.38140000      47.46470000      46.50700000
C       46.50710000      44.61850000      52.53540000
C       46.50710000      55.38150000      47.46470000
C       53.49290000      44.61860000      47.46460000
C       52.53530000      46.50710000      44.61850000
C       52.53540000      53.49290000      55.38140000
C       47.46470000      46.50710000      55.38150000
C       44.61850000      52.53540000      46.50710000
C       44.61860000      47.46460000      53.49290000
C       55.38150000      52.53530000      53.49290000
C       44.61850000      53.49290000      47.46470000
C       47.46470000      44.61850000      53.49290000
C       53.49290000      47.46470000      44.61850000
C       55.38140000      46.50710000      47.46460000
C       55.38150000      53.49290000      52.53530000
C       44.61860000      46.50710000      52.53540000
C       52.53540000      55.38140000      53.49290000
C       52.53530000      44.61860000      46.50700000
C       47.46460000      55.38150000      46.50710000
C       46.50700000      52.53540000      44.61860000
C       46.50710000      47.46460000      55.38150000
C       53.49300000      52.53530000      55.38140000
C       44.61860000      53.49290000      52.53540000
C       47.46460000      44.61860000      46.50710000
C       53.49300000      47.46460000      55.38140000
C       55.38150000      46.50710000      52.53530000
C       55.38140000      53.49290000      47.46460000
C       44.61850000      46.50710000      47.46470000
C       52.53530000      55.38150000      46.50710000
C       52.53540000      44.61850000      53.49290000
C       47.46470000      55.38140000      53.49300000
C       46.50710000      52.53530000      55.38150000
C       46.50700000      47.46470000      44.61860000
C       53.49290000      52.53540000      44.61850000
