240
Lattice="100.0 0.0 0.0 0.0 100.0 0.0 0.0 0.0 100.0" Properties=species:S:1:pos:R:3 name=C-2509655-3548-237 pressure=-35.3352689323544 energy=-1743.36006957688 spacegroup=C1 times_found=1 pbc="T T T"
C       49.22360000      48.33320000      56.93290000
C       48.35690000      56.66300000      49.27110000
C       56.78560000      49.17100000      48.37950000
C       50.72390000      48.40250000      43.24440000
C       50.60590000      51.58040000      56.96970000
C       49.47330000      51.70300000      43.22720000
C       51.54180000      56.50760000      50.71810000
C       51.65950000      43.49450000      49.29730000
C       48.46650000      43.47190000      50.65950000
C       43.14680000      49.21270000      51.58760000
C       43.17360000      50.83040000      48.25110000
C       56.73140000      50.74330000      51.69120000
C       49.18190000      51.62350000      56.70570000
C       48.38500000      43.62540000      49.20900000
C       56.98780000      50.59790000      48.41800000
C       50.94180000      51.61990000      43.22430000
C       50.67050000      48.36250000      57.10730000
C       49.28790000      48.49730000      43.27000000
C       51.70000000      43.62030000      50.73180000
C       51.62410000      56.49230000      49.27960000
C       48.25140000      56.48820000      50.71680000
C       42.94500000      50.64560000      51.57780000
C       42.98020000      49.39490000      48.25880000
C       56.62940000      49.32040000      51.78730000
C       55.92790000      52.79410000      48.58090000
C       52.91390000      48.69570000      56.06660000
C       48.59800000      55.88910000      53.07080000
C       43.89010000      52.93280000      51.38170000
C       43.94110000      47.11180000      48.47410000
C       56.09330000      46.96210000      51.44700000
C       47.12580000      48.86550000      44.38180000
C       47.00870000      51.23170000      55.57920000
C       53.14640000      51.29360000      44.48380000
C       51.30400000      55.88390000      46.91800000
C       51.38860000      44.51910000      52.99060000
C       48.78310000      44.20750000      46.86120000
C       56.09200000      46.88720000      48.81320000
C       52.88000000      51.23480000      55.95510000
C       48.59660000      44.47190000      52.97830000
C       44.01070000      46.95610000      51.05960000
C       43.99660000      53.09860000      48.79650000
C       55.98050000      52.98970000      51.21020000
C       47.21930000      51.54390000      44.25070000
C       47.10160000      48.54440000      55.71420000
C       53.04420000      48.57620000      44.11230000
C       51.45490000      44.37100000      47.03570000
C       51.23950000      55.47270000      52.91800000
C       48.55490000      55.69010000      46.94600000
C       45.86350000      50.50700000      55.01100000
C       50.70050000      55.34150000      45.72060000
C       55.55120000      45.76570000      50.84800000
C       54.28440000      50.44460000      44.97580000
C       53.95430000      49.24570000      55.18590000
C       45.96020000      49.58150000      44.92220000
C       49.20650000      55.27450000      54.21640000
C       49.44600000      44.76480000      45.71490000
C       50.71880000      44.93060000      54.18540000
C       44.75140000      45.99340000      48.94930000
C       44.68520000      54.06660000      50.92210000
C       55.24630000      53.96650000      49.12950000
C       45.94880000      49.09740000      55.02150000
C       50.83290000      44.84220000      45.80340000
C       55.33660000      54.09010000      50.51100000
C       54.15210000      49.01900000      44.87680000
C       53.94120000      50.66710000      55.11280000
C       46.03650000      50.99100000      44.89640000
C       49.29070000      44.83510000      54.22590000
C       49.27960000      55.33250000      45.69860000
C       50.57820000      55.01480000      54.14290000
C       44.66660000      54.21300000      49.52390000
C       44.71270000      45.85080000      50.34520000
C       55.52120000      45.72860000      49.46800000
C       48.77670000      46.96860000      57.06500000
C       47.02380000      56.97690000      48.82340000
C       56.74920000      48.71500000      46.98490000
C       51.07430000      46.98850000      43.08740000
C       51.04650000      52.95290000      57.16600000
C       49.06200000      53.06530000      43.01930000
C       52.88370000      56.64670000      51.24340000
C       53.00310000      43.22600000      48.82330000
C       47.12770000      43.14220000      51.08060000
C       43.24330000      48.73990000      52.96340000
C       43.28850000      51.30710000      46.87730000
C       56.78300000      51.28310000      53.03460000
C       48.72450000      52.99410000      56.67500000
C       46.99590000      43.59700000      48.73660000
C       57.22120000      51.02320000      47.05590000
C       51.46770000      52.95550000      43.01340000
C       51.14150000      46.98980000      57.31010000
C       48.71560000      47.17940000      43.11800000
C       53.07430000      43.51480000      51.19010000
C       53.03290000      56.52720000      48.88800000
C       46.85660000      56.51410000      51.16340000
C       42.75120000      51.02690000      52.96800000
C       42.81210000      49.01130000      46.86660000
C       56.53930000      48.94530000      53.18980000
C       51.85930000      49.26740000      43.67580000
C       49.30270000      43.96200000      51.76640000
C       43.47210000      51.84530000      49.26870000
C       48.20170000      49.22210000      56.35130000
C       48.36690000      50.86460000      43.70260000
C       51.68810000      50.67550000      56.56680000
C       50.78810000      43.88550000      48.20830000
C       50.62880000      56.08740000      51.76210000
C       49.22270000      56.21970000      48.17520000
C       56.45230000      51.74840000      50.69730000
C       56.45560000      48.15360000      49.36960000
C       43.47630000      48.20060000      50.57630000
C       51.94150000      50.71030000      43.78350000
C       49.17470000      56.16660000      51.79130000
C       43.40070000      48.28520000      49.13570000
C       48.16860000      50.66990000      56.24900000
C       48.29810000      49.43270000      43.75400000
C       51.71010000      49.26360000      56.62930000
C       50.68310000      56.22860000      48.16550000
C       50.76610000      44.00890000      51.79310000
C       49.33220000      43.89960000      48.14790000
C       56.41840000      48.20750000      50.83880000
C       56.52330000      51.67790000      49.26510000
C       43.37210000      51.75760000      50.70850000
C       46.28930000      53.27050000      45.48760000
C       53.08510000      45.58230000      45.86940000
C       45.18410000      45.77310000      52.57870000
C       53.56760000      52.98310000      54.55940000
C       53.85670000      46.71490000      45.32590000
C       46.25120000      46.83560000      54.39440000
C       46.25340000      45.73350000      53.49470000
C       46.25490000      54.37040000      46.38940000
C       52.78030000      54.11230000      54.02430000
C       55.44640000      45.40620000      47.17660000
C       55.20830000      54.39100000      52.80830000
C       45.17260000      54.30590000      47.29270000
C       45.94280000      47.30490000      45.63960000
C       52.89930000      54.77910000      45.74960000
C       45.24380000      53.60600000      53.20250000
C       53.68440000      46.89780000      54.76990000
C       53.73810000      53.64760000      45.76610000
C       45.81930000      52.77900000      54.27930000
C       46.89650000      55.34580000      54.56830000
C       47.15040000      44.82540000      45.34650000
C       52.93080000      45.76400000      54.22830000
C       54.60610000      53.63360000      46.88270000
C       55.46710000      45.52850000      53.16140000
C       45.34240000      46.46600000      46.68910000
C       53.85690000      42.67020000      50.38800000
C       41.73190000      50.46880000      53.80370000
C       51.14040000      53.87730000      41.94400000
C       46.19120000      42.74910000      49.49650000
C       46.06000000      57.34890000      50.38390000
C       53.85290000      57.23680000      49.76910000
C       58.24930000      50.53000000      46.23190000
C       57.19190000      49.83050000      54.03960000
C       41.80600000      49.56280000      46.01270000
C       49.46080000      53.84870000      57.49560000
C       48.94860000      46.28260000      42.00070000
C       50.70370000      46.10140000      58.36460000
C       53.78350000      57.72900000      50.92900000
C       42.48210000      49.45050000      53.88170000
C       50.12760000      46.20860000      42.43830000
C       46.22650000      58.03790000      49.33750000
C       46.36430000      42.06680000      50.54600000
C       53.79540000      42.11110000      49.26210000
C       57.57430000      49.45890000      46.12450000
C       57.82520000      50.92600000      53.96560000
C       42.54930000      50.58710000      45.94850000
C       49.54380000      46.18080000      57.88510000
C       49.94040000      53.84860000      42.30000000
C       50.52880000      53.83360000      58.16550000
C       55.79180000      47.77470000      46.55890000
C       48.13160000      46.33390000      55.98040000
C       46.45310000      55.88610000      48.16640000
C       44.27730000      47.87370000      53.33540000
C       44.31080000      52.19530000      46.52160000
C       55.61140000      52.00120000      53.44300000
C       51.95280000      46.40370000      43.98190000
C       51.74130000      53.42890000      56.02540000
C       48.26000000      53.72410000      43.97540000
C       53.41920000      55.51750000      51.87360000
C       53.64030000      44.25580000      48.09400000
C       46.51930000      44.22060000      51.72610000
C       56.07730000      51.62730000      46.44620000
C       47.89860000      53.49550000      55.68650000
C       46.54570000      44.48710000      47.73660000
C       43.89200000      51.67910000      53.50390000
C       43.96710000      48.36690000      46.35430000
C       55.65190000      47.95260000      53.61390000
C       52.07300000      53.48030000      44.14990000
C       51.82810000      46.48040000      56.17780000
C       48.08700000      46.64000000      44.24820000
C       53.64410000      44.41400000      52.09110000
C       53.52060000      55.59680000      47.94550000
C       46.38890000      55.63470000      52.16530000
C       53.04340000      47.18310000      44.26550000
C       47.19690000      44.75930000      52.85560000
C       44.32280000      53.22880000      47.43470000
C       47.17230000      47.15900000      55.40330000
C       47.25670000      52.93300000      44.51900000
C       52.81070000      52.60290000      55.69030000
C       52.85750000      44.72580000      47.03380000
C       52.60460000      55.01740000      52.89700000
C       47.16560000      55.36350000      47.04730000
C       55.70250000      53.12710000      52.61490000
C       55.90950000      46.68070000      47.40440000
C       44.31900000      46.83640000      52.42560000
C       53.09890000      52.70350000      44.77820000
C       47.18020000      55.79790000      53.29020000
C       44.22530000      47.23410000      47.10470000
C       46.93540000      52.61680000      55.18650000
C       47.08760000      47.47790000      44.76470000
C       52.89500000      47.31220000      55.87060000
C       52.68850000      55.60120000      46.85050000
C       52.77710000      44.89910000      53.07110000
C       47.37550000      44.36560000      46.62800000
C       55.88590000      46.81190000      52.86160000
C       55.59300000      52.68580000      47.21010000
C       44.15420000      52.81170000      52.75510000
C       48.67860000      54.82720000      44.61790000
C       54.92930000      44.86820000      48.35820000
C       45.33890000      47.97150000      54.27270000
C       51.58890000      54.26500000      54.86900000
C       51.88090000      45.48770000      45.06790000
C       48.63610000      45.27580000      55.31410000
C       45.37510000      45.04760000      51.38960000
C       45.32830000      55.03120000      48.48710000
C       54.70440000      54.91890000      51.61170000
C       54.74010000      47.84050000      45.59720000
C       54.50300000      51.85340000      54.31430000
C       45.39090000      52.12050000      45.60210000
C       48.34830000      45.34620000      44.83960000
C       54.48070000      54.55170000      48.01560000
C       45.06110000      51.52780000      54.33440000
C       51.68880000      45.63290000      55.00930000
C       51.74970000      54.66530000      44.94000000
C       48.06190000      54.77650000      55.05840000
C       45.46110000      54.56690000      52.11000000
C       45.56530000      45.51020000      47.77980000
C       54.95990000      44.98220000      51.98650000
C       55.34270000      51.01860000      45.53540000
C       54.55000000      48.04180000      54.48590000
C       45.16010000      48.54440000      45.56550000
