240
Lattice="100.0 0.0 0.0 0.0 100.0 0.0 0.0 0.0 100.0" Properties=species:S:1:pos:R:3 name=C-2509655-3548-867 pressure=-103.603862366073 spacegroup=Oh times_found=1 energy=-1780.46995505881 pbc="T T T"
C       43.49770000      51.55030000      53.05830000
C       53.05910000      43.49830000      51.55120000
C       51.55050000      53.05810000      43.49770000
C       56.50230000      51.54960000      46.94130000
C       43.49830000      48.44950000      46.94050000
C       56.50180000      48.45060000      53.05990000
C       46.94110000      43.49770000      48.45080000
C       53.05910000      56.50180000      48.44940000
C       46.94070000      56.50220000      51.54870000
C       48.44940000      53.06000000      56.50140000
C       51.54940000      46.94190000      56.50260000
C       48.45070000      46.93990000      43.49830000
C       43.49770000      48.45040000      53.05870000
C       53.05880000      56.50230000      51.54930000
C       51.55060000      46.94000000      43.49860000
C       56.50230000      48.44970000      46.94170000
C       43.49820000      51.54940000      46.94010000
C       56.50170000      51.55050000      53.05950000
C       46.94090000      56.50170000      48.44880000
C       53.05930000      43.49780000      48.45130000
C       46.94090000      43.49820000      51.55060000
C       48.44950000      46.94190000      56.50230000
C       51.54930000      53.06010000      56.50170000
C       48.45060000      53.05810000      43.49740000
C       43.73800000      52.94630000      52.94500000
C       52.94580000      43.73880000      52.94720000
C       52.94650000      52.94510000      43.73810000
C       56.26190000      52.94560000      47.05410000
C       43.73860000      47.05350000      47.05390000
C       56.26150000      47.05460000      52.94700000
C       47.05440000      43.73780000      47.05470000
C       52.94620000      56.26130000      47.05330000
C       47.05360000      56.26210000      52.94480000
C       47.05340000      52.94690000      56.26100000
C       52.94550000      47.05500000      56.26240000
C       47.05460000      47.05300000      43.73850000
C       43.73810000      47.05430000      52.94590000
C       52.94560000      56.26220000      52.94530000
C       52.94660000      47.05310000      43.73900000
C       56.26200000      47.05370000      47.05500000
C       43.73850000      52.94540000      47.05300000
C       56.26140000      52.94650000      52.94610000
C       47.05420000      56.26120000      47.05280000
C       52.94640000      43.73790000      47.05520000
C       47.05380000      43.73870000      52.94670000
C       47.05350000      47.05490000      56.26190000
C       52.94540000      52.94700000      56.26150000
C       47.05450000      52.94500000      43.73760000
C       45.14560000      45.14510000      48.54380000
C       48.54410000      45.14470000      45.14600000
C       45.14590000      48.54280000      45.14520000
C       54.85450000      45.14570000      51.45760000
C       45.14520000      54.85470000      51.45530000
C       54.85460000      54.85440000      48.54330000
C       51.45610000      45.14620000      54.85540000
C       48.54300000      54.85530000      54.85370000
C       51.45680000      54.85390000      45.14480000
C       54.85420000      48.54440000      54.85520000
C       45.14500000      51.45710000      54.85390000
C       54.85500000      51.45580000      45.14570000
C       45.14550000      54.85430000      48.54240000
C       48.54390000      54.85380000      45.14460000
C       45.14580000      51.45560000      45.14480000
C       54.85440000      54.85490000      51.45620000
C       45.14540000      45.14560000      51.45670000
C       54.85480000      45.14530000      48.54470000
C       51.45590000      54.85530000      54.85400000
C       48.54320000      45.14610000      54.85520000
C       51.45700000      45.14470000      45.14630000
C       54.85410000      51.45720000      54.85480000
C       45.14500000      48.54420000      54.85440000
C       54.85500000      48.54290000      45.14610000
C       43.49780000      53.05920000      51.54890000
C       51.54980000      43.49850000      53.06020000
C       53.05970000      51.54900000      43.49800000
C       56.50210000      53.05900000      48.45020000
C       43.49820000      46.94060000      48.44990000
C       56.50190000      46.94120000      51.55100000
C       48.45040000      43.49750000      46.94170000
C       51.55010000      56.50160000      46.94010000
C       48.44970000      56.50250000      53.05800000
C       46.94030000      51.55090000      56.50150000
C       53.05850000      48.45110000      56.50250000
C       46.94150000      48.44900000      43.49790000
C       43.49790000      46.94100000      51.54980000
C       51.54960000      56.50250000      53.05830000
C       53.05970000      48.44910000      43.49850000
C       56.50220000      46.94080000      48.45110000
C       43.49810000      53.05880000      48.44900000
C       56.50180000      53.05940000      51.55010000
C       48.45020000      56.50150000      46.93980000
C       51.55030000      43.49760000      46.94200000
C       48.44990000      43.49840000      53.05990000
C       46.94030000      48.45100000      56.50200000
C       53.05850000      51.55100000      56.50210000
C       46.94150000      51.54890000      43.49750000
C       46.40770000      46.40880000      55.26170000
C       55.26190000      46.40770000      46.40910000
C       46.40840000      55.26090000      46.40700000
C       53.59240000      46.40740000      44.73940000
C       46.40850000      53.59100000      44.73760000
C       53.59130000      53.59270000      55.26130000
C       44.73820000      46.40860000      53.59190000
C       55.26110000      53.59250000      53.59180000
C       44.73880000      53.59130000      46.40710000
C       53.59150000      55.26210000      53.59140000
C       46.40790000      44.73900000      53.59230000
C       53.59230000      44.73800000      46.40920000
C       46.40760000      53.59260000      55.26060000
C       55.26180000      53.59140000      46.40810000
C       46.40850000      44.73790000      46.40860000
C       53.59230000      53.59110000      44.73830000
C       46.40870000      46.40730000      44.73870000
C       53.59150000      46.40900000      55.26240000
C       44.73810000      53.59230000      53.59090000
C       55.26120000      46.40870000      53.59290000
C       44.73890000      46.40750000      46.40820000
C       53.59160000      44.73910000      53.59300000
C       46.40770000      55.26200000      53.59080000
C       53.59210000      55.26100000      46.40770000
C       49.27140000      50.72900000      57.29380000
C       57.29390000      49.27230000      50.72870000
C       50.72780000      57.29390000      49.27110000
C       50.72850000      50.72680000      42.70600000
C       49.27280000      49.27100000      42.70610000
C       50.72720000      49.27320000      57.29420000
C       42.70610000      49.27190000      49.27160000
C       57.29400000      50.72790000      49.27270000
C       42.70590000      50.72790000      50.72710000
C       49.27190000      57.29410000      50.72670000
C       50.72790000      42.70610000      50.72900000
C       49.27230000      42.70590000      49.27310000
C       49.27150000      49.27320000      57.29400000
C       57.29390000      50.72810000      50.72840000
C       50.72810000      42.70590000      49.27330000
C       50.72860000      49.27100000      42.70620000
C       49.27280000      50.72680000      42.70590000
C       50.72720000      50.72900000      57.29390000
C       42.70610000      50.72770000      49.27130000
C       57.29410000      49.27210000      49.27290000
C       42.70600000      49.27210000      50.72730000
C       49.27220000      42.70610000      50.72890000
C       50.72770000      57.29410000      50.72690000
C       49.27210000      57.29390000      49.27100000
C       53.96900000      49.26210000      44.22910000
C       44.22860000      53.96820000      49.26170000
C       49.26260000      44.22920000      53.96920000
C       46.03100000      49.26370000      55.77110000
C       53.96790000      50.73810000      55.77160000
C       46.03210000      50.73620000      44.22820000
C       55.77130000      53.96860000      50.73710000
C       44.22860000      46.03160000      50.73720000
C       55.77150000      46.03150000      49.26400000
C       50.73760000      44.22800000      46.03250000
C       49.26310000      55.77080000      46.03060000
C       50.73670000      55.77200000      53.96760000
C       53.96900000      50.73630000      44.22890000
C       44.22870000      46.03140000      49.26290000
C       49.26240000      55.77200000      53.96750000
C       46.03100000      50.73790000      55.77090000
C       53.96790000      49.26380000      55.77190000
C       46.03210000      49.26190000      44.22840000
C       55.77140000      46.03180000      50.73820000
C       44.22850000      53.96850000      50.73600000
C       55.77140000      53.96840000      49.26280000
C       50.73740000      55.77080000      46.03080000
C       49.26330000      44.22800000      46.03240000
C       50.73690000      44.22920000      53.96940000
C       49.26230000      53.96930000      55.77070000
C       55.77100000      49.26350000      53.96910000
C       53.96840000      55.77130000      49.26240000
C       50.73760000      53.96760000      44.22810000
C       49.26350000      46.03070000      44.22920000
C       50.73670000      46.03240000      55.77200000
C       44.22900000      49.26220000      46.03110000
C       55.77170000      50.73660000      46.03200000
C       44.22820000      50.73760000      53.96780000
C       46.03140000      55.77140000      50.73590000
C       53.96850000      44.22880000      50.73840000
C       46.03170000      44.22840000      49.26340000
C       49.26240000      46.03240000      55.77190000
C       55.77100000      50.73780000      53.96890000
C       53.96860000      44.22860000      49.26410000
C       50.73770000      46.03070000      44.22930000
C       49.26330000      53.96760000      44.22800000
C       50.73660000      53.96930000      55.77090000
C       44.22900000      50.73640000      46.03090000
C       55.77180000      49.26240000      46.03220000
C       44.22830000      49.26340000      53.96800000
C       46.03160000      44.22870000      50.73760000
C       53.96830000      55.77150000      50.73660000
C       46.03150000      55.77120000      49.26160000
C       48.34100000      51.65850000      43.02800000
C       43.02820000      48.34060000      51.65920000
C       51.65980000      43.02810000      48.34160000
C       51.65890000      51.66060000      56.97160000
C       48.33980000      48.34140000      56.97170000
C       51.66020000      48.33940000      43.02880000
C       56.97180000      48.34030000      48.34130000
C       43.02850000      51.65920000      48.33950000
C       56.97150000      51.65990000      51.66000000
C       48.34040000      43.02860000      51.66050000
C       51.65930000      56.97190000      51.65870000
C       48.34050000      56.97140000      48.33920000
C       48.34110000      48.33940000      43.02850000
C       43.02820000      51.65970000      51.65870000
C       51.65960000      56.97140000      48.33950000
C       51.65900000      48.34150000      56.97200000
C       48.33980000      51.66060000      56.97120000
C       51.66020000      51.65860000      43.02830000
C       56.97180000      51.65940000      48.34080000
C       43.02850000      48.34010000      48.34000000
C       56.97150000      48.34080000      51.66050000
C       48.34020000      56.97190000      51.65840000
C       51.65950000      43.02860000      51.66080000
C       48.34070000      43.02810000      48.34130000
C       54.66410000      47.10600000      54.66530000
C       54.66470000      54.66410000      47.10500000
C       47.10480000      54.66510000      54.66350000
C       45.33600000      47.10450000      45.33550000
C       54.66480000      52.89410000      45.33550000
C       45.33510000      52.89540000      54.66360000
C       45.33520000      54.66480000      52.89360000
C       54.66430000      45.33600000      52.89590000
C       45.33590000      45.33500000      47.10550000
C       52.89510000      54.66380000      45.33510000
C       47.10580000      45.33480000      45.33600000
C       52.89440000      45.33630000      54.66540000
C       54.66400000      52.89550000      54.66450000
C       54.66480000      45.33520000      47.10640000
C       47.10490000      45.33620000      54.66490000
C       45.33590000      52.89400000      45.33470000
C       54.66490000      47.10460000      45.33640000
C       45.33520000      47.10590000      54.66450000
C       45.33530000      45.33590000      52.89500000
C       54.66410000      54.66500000      52.89450000
C       45.33570000      54.66400000      47.10410000
C       52.89520000      45.33490000      45.33650000
C       47.10560000      54.66370000      45.33460000
C       52.89420000      54.66520000      54.66400000
