240
Lattice="100.0 0.0 0.0 0.0 100.0 0.0 0.0 0.0 100.0" Properties=species:S:1:pos:R:3 name=C-2509655-3548-796 pressure=12.084144241587 spacegroup=C1 times_found=1 energy=-1750.7161308809 pbc="T T T"
C       50.62170000      57.73710000      51.47160000
C       58.08080000      51.60140000      50.48570000
C       50.63410000      49.80270000      58.15370000
C       49.92010000      41.33820000      49.57910000
C       49.03490000      58.52360000      50.38710000
C       49.98800000      41.36290000      50.79140000
C       57.54480000      49.89690000      49.46190000
C       42.49320000      51.88550000      49.57640000
C       42.61600000      48.28770000      49.72620000
C       50.76220000      49.04510000      42.28880000
C       49.34170000      50.54920000      42.10030000
C       49.41040000      49.79730000      58.15250000
C       49.24950000      58.06300000      51.75080000
C       41.94120000      50.67270000      49.54390000
C       48.22550000      49.85630000      57.52570000
C       49.85290000      41.84890000      48.35360000
C       50.35170000      57.91030000      50.04090000
C       50.01170000      41.90510000      52.00310000
C       41.97750000      49.45590000      49.62650000
C       57.75480000      51.31810000      49.09200000
C       57.78910000      50.24250000      50.84480000
C       49.29900000      49.09040000      42.14750000
C       50.81010000      50.49340000      42.18320000
C       51.82160000      49.86770000      57.52690000
C       51.55160000      44.86240000      45.19390000
C       45.56480000      45.17500000      52.08310000
C       45.63070000      51.73630000      45.15740000
C       51.79540000      54.81290000      55.31820000
C       48.22740000      45.12980000      54.93840000
C       48.23150000      54.66890000      45.33220000
C       45.45190000      55.33010000      48.18590000
C       54.12100000      45.28320000      48.00950000
C       54.88950000      55.04550000      51.82600000
C       44.86100000      48.34430000      54.57740000
C       54.83030000      52.19950000      54.41060000
C       54.63480000      48.24520000      45.33350000
C       47.84640000      45.01400000      45.23790000
C       54.27900000      45.46610000      51.84570000
C       54.58730000      51.74410000      45.13800000
C       48.22360000      54.78960000      55.31680000
C       51.80950000      45.17880000      54.87020000
C       52.03700000      54.62660000      45.29950000
C       54.61610000      55.13510000      48.33780000
C       45.34420000      44.72450000      48.35280000
C       45.24380000      55.04050000      51.80660000
C       55.19650000      48.48280000      54.59490000
C       45.20000000      52.10250000      54.39170000
C       45.51830000      48.18150000      45.16550000
C       47.28610000      52.81440000      44.08140000
C       52.53010000      43.88590000      46.98560000
C       44.01840000      47.02730000      52.84080000
C       46.94580000      47.11790000      55.30750000
C       53.09940000      52.96020000      56.04470000
C       52.70390000      46.89180000      44.62580000
C       52.95190000      55.49050000      53.23370000
C       47.25560000      43.93840000      53.25220000
C       47.43810000      56.10430000      47.23580000
C       44.86860000      53.17350000      46.95720000
C       55.59220000      47.24240000      47.37860000
C       56.01150000      53.31900000      52.71270000
C       52.89050000      52.74280000      44.10600000
C       46.91140000      43.57060000      47.08390000
C       55.82830000      47.45760000      52.45260000
C       53.08980000      47.15820000      55.26660000
C       46.92710000      52.93320000      56.02910000
C       47.05540000      46.98570000      44.05070000
C       47.07390000      55.52310000      53.26320000
C       52.72910000      44.08580000      53.09320000
C       52.50980000      55.98870000      47.38570000
C       55.30150000      53.15710000      46.99900000
C       44.81760000      46.85730000      47.06060000
C       44.10210000      53.22160000      52.57950000
C       50.57400000      46.18000000      43.45250000
C       46.91950000      43.20600000      51.01070000
C       43.95600000      50.78210000      46.74070000
C       50.77230000      53.10010000      56.87030000
C       49.26970000      46.86850000      56.36480000
C       49.37530000      53.56300000      43.33120000
C       47.14350000      56.70780000      49.52660000
C       52.81400000      43.44460000      49.31250000
C       53.31580000      56.71100000      51.02350000
C       43.39680000      49.44150000      52.90130000
C       56.59960000      50.96110000      52.84610000
C       56.32830000      49.41410000      46.75960000
C       49.11830000      46.15490000      43.31350000
C       52.89770000      43.49580000      50.80370000
C       56.36880000      50.88330000      46.55750000
C       49.25620000      53.09570000      56.87170000
C       50.78300000      46.87900000      56.35340000
C       50.82770000      53.52280000      43.32140000
C       53.08070000      56.69530000      49.55920000
C       46.81810000      43.08410000      49.51360000
C       46.88150000      56.69420000      50.99960000
C       56.99210000      49.83520000      51.93000000
C       43.45930000      50.94020000      52.81700000
C       43.93520000      49.25300000      46.76860000
C       54.91850000      53.41460000      53.59490000
C       53.02580000      54.19980000      55.57290000
C       54.14170000      54.68230000      53.07200000
C       54.89840000      47.23620000      46.22420000
C       45.80590000      53.03070000      45.87800000
C       44.47620000      47.10970000      54.07810000
C       52.68340000      45.73810000      45.50340000
C       47.06030000      53.69490000      45.16000000
C       47.03540000      45.91280000      54.54340000
C       53.28970000      45.05820000      46.82490000
C       46.17300000      55.71660000      47.08100000
C       46.43770000      45.07790000      53.30180000
C       45.12370000      53.33750000      53.53360000
C       46.99740000      54.16630000      55.55190000
C       45.92880000      54.66200000      53.06290000
C       45.64880000      46.88760000      45.89960000
C       54.38650000      53.02800000      45.87650000
C       55.61110000      47.49280000      53.75590000
C       46.78750000      46.11390000      45.13090000
C       53.14270000      53.65620000      45.16640000
C       52.95530000      46.00200000      54.43880000
C       45.75970000      44.21330000      47.13840000
C       53.68610000      55.33890000      47.35750000
C       53.49140000      45.26110000      53.12620000
C       50.65670000      57.17570000      48.85640000
C       56.55880000      47.97390000      50.32110000
C       47.61010000      51.04650000      57.06070000
C       51.17910000      42.48040000      52.56780000
C       48.61110000      57.19850000      52.61760000
C       48.67160000      42.36720000      47.75770000
C       56.96300000      52.28120000      48.45760000
C       43.34050000      47.67200000      48.69090000
C       42.86420000      52.53660000      50.77510000
C       48.20820000      48.44180000      42.68440000
C       51.82390000      51.19520000      42.78580000
C       52.40510000      48.80760000      56.80650000
C       49.47310000      56.85610000      48.09120000
C       43.05370000      47.70760000      50.93900000
C       52.43460000      51.05630000      57.05360000
C       48.85250000      42.40070000      52.65720000
C       51.31050000      56.94750000      52.36000000
C       50.96630000      42.39350000      47.69840000
C       43.20530000      52.48490000      48.49810000
C       56.86370000      48.72310000      49.11630000
C       57.47910000      52.61360000      51.16140000
C       51.70840000      48.37000000      43.05200000
C       48.32940000      51.29520000      42.68290000
C       47.65230000      48.79660000      56.79400000
C       47.94050000      43.88660000      46.13750000
C       44.72860000      45.96600000      48.21340000
C       46.41140000      48.23890000      44.09220000
C       48.23540000      55.56170000      54.14840000
C       51.75350000      44.01850000      54.11680000
C       51.80600000      55.73950000      46.18620000
C       44.18620000      54.19060000      51.55310000
C       55.33780000      46.41370000      51.60570000
C       55.47280000      54.02100000      48.16820000
C       46.05460000      51.89410000      55.53420000
C       54.02530000      48.25610000      55.32580000
C       53.60170000      51.54240000      44.17470000
C       51.50890000      43.78080000      46.03460000
C       55.29230000      46.10000000      48.17110000
C       53.48360000      48.10830000      44.51750000
C       51.78160000      55.54080000      54.11540000
C       48.29630000      43.94990000      54.21160000
C       48.38720000      55.71640000      46.29140000
C       55.94590000      54.17420000      51.59840000
C       44.48080000      46.09780000      51.84270000
C       44.68100000      54.16270000      48.02470000
C       53.98470000      51.93710000      55.54040000
C       46.03450000      48.25360000      55.31780000
C       46.54820000      51.61710000      44.10560000
C       44.80930000      50.70740000      45.58180000
C       50.44710000      45.10430000      44.39290000
C       45.90850000      44.27780000      50.99980000
C       44.26190000      49.52710000      54.07610000
C       55.63750000      50.98820000      53.96060000
C       55.52060000      49.31460000      45.56850000
C       50.72680000      54.34520000      56.11480000
C       49.30140000      45.59270000      55.69090000
C       49.39100000      54.44750000      44.48720000
C       45.86670000      55.96620000      49.37150000
C       53.75750000      44.56910000      49.23190000
C       54.54170000      55.97940000      50.86200000
C       55.50920000      50.75430000      45.41000000
C       48.98190000      45.16090000      44.36460000
C       53.83580000      44.63860000      50.71450000
C       55.47160000      49.82070000      54.55510000
C       44.38990000      50.97910000      53.95790000
C       44.77060000      49.26060000      45.59510000
C       49.29540000      54.34050000      56.11700000
C       50.75530000      45.60390000      55.67260000
C       50.87510000      54.42560000      44.45640000
C       54.34360000      56.00120000      49.42140000
C       45.77240000      44.10520000      49.55620000
C       45.70010000      55.89110000      50.79760000
C       49.28380000      56.39550000      53.60330000
C       56.43190000      53.46950000      49.09250000
C       53.53220000      49.29440000      56.11530000
C       49.02940000      43.05450000      46.54690000
C       50.69560000      56.49880000      46.02000000
C       50.76150000      43.09880000      53.78220000
C       56.01080000      46.64600000      50.37210000
C       43.53310000      53.73450000      50.40050000
C       43.97740000      46.54090000      49.22770000
C       52.90590000      50.49260000      43.47570000
C       47.12790000      49.19520000      43.29430000
C       46.49810000      50.71920000      56.21360000
C       50.71980000      56.32300000      53.51730000
C       43.77190000      53.68540000      48.97610000
C       46.53840000      49.29250000      56.09270000
C       50.47230000      42.98400000      46.50080000
C       49.56220000      56.40780000      46.71630000
C       49.31030000      43.06230000      53.83410000
C       43.83860000      46.54210000      50.65080000
C       56.69740000      53.65010000      50.49940000
C       56.04000000      45.89270000      49.28080000
C       47.19210000      50.62360000      43.29930000
C       52.83560000      49.06090000      43.63870000
C       53.55530000      50.73340000      56.21450000
C       47.38900000      56.59710000      52.28140000
C       56.28530000      52.07800000      47.23990000
C       52.00730000      47.54690000      56.27920000
C       47.41590000      42.81200000      48.25380000
C       52.04170000      56.69610000      48.59710000
C       52.37340000      43.16100000      52.04180000
C       56.51920000      48.49470000      51.65260000
C       43.26940000      52.12660000      52.12200000
C       43.89810000      48.01610000      47.42700000
C       51.81620000      52.58110000      43.20470000
C       48.13950000      47.08750000      43.15110000
C       48.03330000      52.38480000      56.86010000
C       52.61890000      56.45900000      52.18280000
C       43.88480000      52.05380000      47.31970000
C       48.03780000      47.52500000      56.28600000
C       52.21080000      43.04670000      48.12280000
C       48.05250000      56.70970000      48.44940000
C       47.58300000      42.98380000      52.21060000
C       43.28730000      48.17890000      52.25610000
C       56.88470000      52.25970000      52.41650000
C       56.36020000      48.43810000      47.77070000
C       48.36310000      52.66010000      43.17590000
C       51.62590000      47.05920000      43.61940000
C       51.99960000      52.39330000      56.85950000
