240
Lattice="100.0 0.0 0.0 0.0 100.0 0.0 0.0 0.0 100.0" Properties=species:S:1:pos:R:3 name=C-2509655-3548-1497 pressure=-72.0323026233367 energy=-1742.05627934272 spacegroup=C1 times_found=1 pbc="T T T"
C       45.93130000      49.54570000      45.02260000
C       49.41550000      44.64150000      45.68800000
C       44.99970000      46.03380000      49.12930000
C       54.22980000      49.22750000      55.62030000
C       54.07340000      50.46800000      45.03450000
C       45.71260000      50.64350000      55.58080000
C       50.87490000      44.85490000      53.94600000
C       50.56160000      55.35790000      45.67800000
C       49.14940000      55.05390000      53.88590000
C       55.27560000      45.78380000      50.89040000
C       54.99490000      53.99730000      49.16130000
C       44.68880000      54.35510000      50.80630000
C       45.95420000      50.95430000      44.91710000
C       49.17350000      55.27210000      45.73790000
C       44.54800000      54.36450000      49.40340000
C       54.19660000      50.60750000      55.53060000
C       54.04640000      49.05750000      44.94140000
C       45.75360000      49.25100000      55.60230000
C       50.56300000      55.03420000      53.89970000
C       50.80480000      44.73340000      45.76240000
C       49.46850000      44.95910000      53.90450000
C       54.87930000      54.04410000      50.57190000
C       55.40520000      45.70910000      49.50630000
C       45.12510000      45.90930000      50.55720000
C       47.13670000      55.36730000      46.93840000
C       55.81030000      46.66620000      47.45580000
C       46.99940000      47.27620000      55.76950000
C       52.48780000      55.61730000      52.78130000
C       52.82680000      44.66880000      46.99650000
C       47.48810000      44.61280000      52.67320000
C       44.97730000      47.03090000      52.81090000
C       44.17110000      53.37490000      47.38220000
C       55.02640000      52.91620000      52.69170000
C       52.96810000      47.17770000      44.27790000
C       53.06520000      52.62840000      55.74030000
C       47.02520000      52.83250000      44.23690000
C       47.36280000      44.24830000      46.65070000
C       55.66170000      52.81180000      47.31650000
C       46.84920000      52.66190000      55.77110000
C       52.81000000      44.20620000      52.93920000
C       52.60690000      55.74350000      46.64900000
C       47.14040000      55.50800000      52.77580000
C       44.70560000      53.00300000      52.93010000
C       44.35520000      47.22220000      47.32240000
C       55.27490000      46.96280000      52.92640000
C       52.92700000      52.57090000      44.83630000
C       53.23420000      47.18800000      55.97390000
C       47.06360000      47.43600000      44.81720000
C       54.03080000      42.38680000      50.06230000
C       42.00080000      50.73810000      53.87310000
C       51.15420000      53.82460000      42.02160000
C       46.15600000      42.61210000      49.51280000
C       46.00200000      57.73120000      50.15890000
C       53.81860000      57.35040000      49.48550000
C       58.14040000      50.48270000      46.35800000
C       57.32960000      49.78380000      54.01510000
C       41.86130000      49.52480000      46.47850000
C       49.79380000      53.95830000      57.24760000
C       48.86510000      46.17130000      42.02490000
C       50.27680000      45.96140000      57.30960000
C       53.70320000      58.08710000      50.50920000
C       42.58870000      49.63020000      53.94640000
C       50.05400000      46.11140000      42.43630000
C       45.91860000      58.03740000      48.94810000
C       46.29860000      41.94900000      50.58680000
C       53.97930000      41.94410000      48.88190000
C       57.39570000      49.46430000      46.23640000
C       57.78740000      50.95420000      53.98150000
C       42.60000000      50.53860000      46.28690000
C       49.19160000      46.05160000      57.96480000
C       49.96190000      53.88800000      42.42300000
C       50.89600000      53.83380000      57.86920000
C       56.80220000      50.62150000      48.51290000
C       50.69180000      48.22250000      56.68560000
C       48.20820000      56.88680000      50.55580000
C       43.39110000      50.78290000      51.71820000
C       43.28050000      49.41390000      48.57340000
C       56.52160000      49.30470000      51.82760000
C       49.19970000      48.42290000      43.23360000
C       49.29410000      51.68000000      56.68640000
C       50.80540000      51.57860000      43.23520000
C       51.56400000      56.67090000      49.13140000
C       51.79380000      43.12910000      50.55910000
C       48.41470000      43.31790000      49.13030000
C       56.59920000      49.18940000      48.46950000
C       50.72100000      51.59030000      56.74020000
C       48.52600000      43.13010000      50.56430000
C       43.52460000      49.33060000      51.75090000
C       43.47220000      50.84390000      48.48530000
C       56.57780000      50.74080000      51.73950000
C       49.37040000      51.68490000      43.19570000
C       49.26890000      48.31570000      56.84090000
C       50.63530000      48.31850000      43.20540000
C       51.72330000      43.14220000      49.12390000
C       51.47350000      56.87550000      50.56350000
C       48.23190000      56.86250000      49.10550000
C       44.36410000      48.03950000      53.62290000
C       48.10050000      53.64080000      43.94010000
C       53.62170000      44.19270000      48.03840000
C       55.65020000      47.77970000      46.64000000
C       55.59480000      51.96620000      53.57320000
C       44.35290000      52.23970000      46.60590000
C       51.90640000      53.39380000      55.60230000
C       51.89530000      46.36810000      43.97470000
C       48.15360000      46.50790000      55.71460000
C       46.65040000      44.11320000      51.66730000
C       46.31830000      55.87080000      47.94830000
C       53.30840000      55.93780000      51.71170000
C       44.15120000      51.91100000      53.66830000
C       48.04210000      46.58420000      44.27460000
C       53.38300000      55.60530000      47.79410000
C       55.96320000      51.68390000      46.57260000
C       55.69870000      47.98130000      53.78220000
C       44.06170000      48.35630000      46.59840000
C       52.10850000      46.41780000      55.71360000
C       51.95050000      53.41840000      44.28390000
C       47.95640000      53.48360000      55.66850000
C       46.28560000      56.08240000      51.83680000
C       46.58060000      44.37350000      47.79250000
C       53.67250000      43.92850000      51.89980000
C       44.94340000      51.66640000      54.85920000
C       51.68000000      54.71830000      44.86510000
C       54.58180000      45.02040000      51.89310000
C       54.81610000      51.50660000      45.72680000
C       55.06540000      48.09900000      55.06890000
C       45.18980000      48.51610000      45.72600000
C       48.03040000      54.36580000      54.56700000
C       48.30010000      45.28740000      44.87180000
C       52.06330000      45.53680000      54.60990000
C       45.68320000      45.47360000      47.91950000
C       45.19600000      55.43610000      51.40440000
C       54.29300000      54.53060000      47.93060000
C       45.07990000      48.20720000      54.84590000
C       51.83160000      45.44660000      45.05420000
C       54.15520000      54.78860000      51.58110000
C       54.62790000      47.85440000      45.66260000
C       54.97940000      51.73250000      54.86500000
C       45.36610000      52.15980000      45.62360000
C       48.34020000      45.69850000      54.55870000
C       48.14980000      54.57040000      45.01420000
C       51.75770000      54.26690000      54.49740000
C       45.05230000      55.24200000      48.28190000
C       45.70790000      44.86660000      51.13660000
C       54.87850000      44.83130000      48.37920000
C       53.22640000      45.26260000      53.78520000
C       45.70760000      53.67050000      53.82670000
C       54.02510000      52.74310000      45.76560000
C       47.11270000      44.78380000      45.40550000
C       46.84190000      54.52390000      53.73430000
C       52.86410000      55.23050000      45.39680000
C       54.56960000      53.57890000      46.84690000
C       54.41380000      45.80160000      53.09590000
C       45.42070000      46.42850000      46.82740000
C       45.73750000      52.83080000      54.96080000
C       45.96700000      47.26670000      45.74970000
C       54.53280000      46.91980000      55.57840000
C       52.89480000      54.52090000      53.57270000
C       45.98880000      46.34530000      53.70830000
C       53.76680000      46.72750000      45.35370000
C       46.95000000      54.45850000      45.81430000
C       47.17350000      45.56950000      53.64020000
C       53.01930000      45.57040000      45.86990000
C       55.40580000      45.37620000      47.20340000
C       54.05250000      53.99700000      52.81520000
C       44.54880000      54.67130000      47.10240000
C       45.92690000      47.08810000      54.90440000
C       46.21550000      53.29210000      45.30210000
C       54.33650000      52.89780000      55.28950000
C       46.96550000      48.63650000      56.19270000
C       48.52330000      55.78360000      46.93660000
C       55.95940000      46.87370000      48.87190000
C       52.95840000      48.56710000      44.11930000
C       53.00050000      51.23280000      56.06730000
C       47.04170000      51.44110000      44.09240000
C       51.11260000      55.85610000      52.82340000
C       51.45120000      44.22020000      46.96520000
C       48.85160000      44.27030000      52.74660000
C       44.66450000      47.04220000      51.41600000
C       44.04130000      53.18770000      48.80160000
C       55.45030000      52.89760000      51.31650000
C       46.92030000      51.29870000      56.13580000
C       48.77310000      44.02990000      46.82020000
C       55.83430000      52.90220000      48.70690000
C       52.92140000      51.18780000      44.43630000
C       53.04810000      48.59960000      56.16380000
C       47.07700000      48.82030000      44.42100000
C       51.42670000      44.03620000      52.87280000
C       51.19610000      55.96210000      46.81710000
C       48.52500000      55.77920000      52.76350000
C       44.37410000      53.10460000      51.53650000
C       44.21300000      47.14280000      48.71900000
C       55.69460000      47.01800000      51.54280000
C       51.37330000      52.90340000      43.12000000
C       53.18830000      43.02130000      50.97360000
C       43.08940000      51.22250000      53.06810000
C       48.91920000      53.08350000      56.60060000
C       48.63320000      47.09720000      43.11610000
C       51.10330000      46.82740000      56.59750000
C       47.00630000      43.40250000      48.72590000
C       46.86360000      57.07170000      51.02020000
C       52.96260000      56.57730000      48.71440000
C       57.07810000      51.02390000      47.14530000
C       56.58700000      48.90040000      53.22090000
C       42.95870000      48.99620000      47.21990000
C       51.00070000      46.90950000      43.06690000
C       52.83350000      57.07740000      51.02220000
C       43.38650000      48.85630000      53.10520000
C       48.79750000      46.95210000      56.92740000
C       49.00750000      53.09350000      43.04820000
C       51.23450000      52.94200000      56.79170000
C       46.86070000      56.97510000      48.61740000
C       47.17920000      42.94200000      51.04760000
C       53.07310000      43.03280000      48.61000000
C       56.58200000      48.72470000      47.08280000
C       56.71950000      51.29200000      53.07110000
C       43.45040000      51.28570000      47.09070000
C       48.19680000      49.26330000      56.58170000
C       49.15020000      56.38390000      48.08000000
C       56.27070000      48.14710000      49.44220000
C       51.75090000      49.19640000      43.63830000
C       51.76730000      50.63280000      56.46440000
C       48.25210000      50.80890000      43.62300000
C       50.53760000      56.43040000      51.61970000
C       50.81410000      43.60990000      48.09560000
C       49.44290000      43.59190000      51.60620000
C       43.98680000      48.27020000      50.85730000
C       43.78060000      51.92290000      49.41300000
C       56.15330000      51.74680000      50.79310000
C       48.18050000      50.72560000      56.51660000
C       49.35180000      43.62390000      48.06600000
C       56.31430000      51.71380000      49.37010000
C       51.78340000      50.63370000      43.73320000
C       51.77860000      49.17340000      56.46320000
C       48.21860000      49.37100000      43.72230000
C       50.86570000      43.53800000      51.63560000
C       50.61640000      56.36540000      48.06210000
C       49.11620000      56.41540000      51.60790000
C       43.83120000      51.89490000      50.86760000
C       43.79170000      48.32140000      49.43120000
C       56.20320000      48.20210000      50.91050000
