240
Lattice="100.0 0.0 0.0 0.0 100.0 0.0 0.0 0.0 100.0" Properties=species:S:1:pos:R:3 name=C-2509655-3548-786 pressure=-0.0111379534088565 spacegroup=C1 times_found=1 energy=-1746.66445572395 pbc="T T T"
C       46.12220000      49.25360000      55.53120000
C       49.37860000      55.55910000      46.05240000
C       55.33570000      46.13720000      49.28830000
C       46.23970000      50.57950000      44.71370000
C       53.68090000      49.57860000      44.52940000
C       53.84410000      50.62990000      55.72690000
C       49.49590000      44.50820000      53.77530000
C       50.75880000      55.14280000      53.59120000
C       50.87150000      44.72900000      46.23290000
C       55.48300000      53.87430000      50.82930000
C       44.61930000      46.30670000      50.99520000
C       44.74930000      53.70910000      49.08970000
C       53.83960000      49.23240000      55.72740000
C       50.80770000      55.52360000      46.02010000
C       44.57190000      46.26500000      49.57950000
C       53.61340000      50.98740000      44.59690000
C       46.26670000      49.14240000      44.73770000
C       46.10180000      50.65730000      55.60020000
C       50.91480000      44.54520000      53.73850000
C       49.31110000      55.12550000      53.55920000
C       49.43770000      44.75410000      46.24650000
C       44.78650000      53.71490000      50.52440000
C       55.34500000      46.10730000      50.71670000
C       55.53820000      53.92370000      49.41540000
C       53.89840000      56.79860000      49.19980000
C       56.44400000      49.18750000      53.78650000
C       49.25190000      53.70850000      56.41890000
C       53.90530000      43.05750000      50.66670000
C       46.25020000      56.65460000      50.50950000
C       46.30350000      43.56280000      49.30460000
C       56.38160000      50.79640000      46.30320000
C       43.36660000      49.10420000      46.27990000
C       43.34770000      50.93880000      53.79640000
C       49.40530000      46.20060000      43.28290000
C       50.51860000      53.96630000      43.03710000
C       50.71190000      46.15020000      56.53200000
C       46.29000000      56.60760000      49.05630000
C       43.22400000      49.47580000      53.93640000
C       50.69950000      53.71710000      56.45850000
C       46.27370000      43.54210000      50.76790000
C       53.89450000      56.79430000      50.68110000
C       53.88940000      43.10070000      49.20230000
C       43.29720000      50.55440000      46.18400000
C       56.38550000      49.33600000      46.31070000
C       56.47240000      50.66600000      53.81390000
C       50.85800000      46.28800000      43.33500000
C       49.06040000      53.82190000      43.22490000
C       49.24660000      46.18190000      56.52880000
C       51.39490000      54.93900000      44.98670000
C       54.59500000      45.31240000      51.64170000
C       45.38870000      51.69130000      54.81050000
C       51.94370000      45.41180000      54.37040000
C       48.22320000      54.29820000      54.17300000
C       48.48620000      45.53620000      45.52060000
C       54.77260000      54.66190000      48.45820000
C       45.36000000      45.57720000      48.54410000
C       45.60370000      54.43000000      51.44810000
C       45.66540000      48.09370000      45.61850000
C       54.23900000      51.96240000      45.49360000
C       54.55750000      48.21580000      54.92370000
C       48.35330000      54.81300000      45.30930000
C       45.51070000      45.69100000      52.01200000
C       54.57270000      51.64680000      54.93320000
C       48.45550000      45.26550000      54.49780000
C       51.83330000      54.33790000      54.25860000
C       51.91850000      45.58750000      45.60380000
C       45.57760000      54.33840000      48.01910000
C       54.57050000      45.39020000      48.33660000
C       54.63290000      54.59300000      51.71530000
C       54.40210000      48.54440000      45.29540000
C       45.49960000      51.52770000      45.47730000
C       45.37330000      48.36320000      54.70630000
C       49.20500000      47.03880000      57.65990000
C       47.25400000      57.68650000      49.06930000
C       57.47810000      49.28830000      47.21740000
C       49.01340000      52.84580000      42.18790000
C       50.82300000      47.24400000      42.24510000
C       50.68510000      52.86640000      57.62700000
C       47.16550000      42.39910000      50.73960000
C       52.88040000      57.80600000      50.68360000
C       52.86110000      42.10140000      49.15330000
C       57.56260000      50.66620000      52.90140000
C       42.17470000      49.46340000      52.96150000
C       42.24850000      50.63050000      47.15770000
C       50.69940000      47.02360000      57.68500000
C       52.90930000      57.81630000      49.17880000
C       42.27210000      49.13070000      47.23170000
C       50.51720000      52.94760000      42.05740000
C       49.32250000      47.17040000      42.23050000
C       49.19920000      52.84940000      57.57960000
C       52.88960000      42.04600000      50.65810000
C       47.21720000      57.71120000      50.56940000
C       47.17480000      42.44280000      49.23970000
C       42.29020000      50.96300000      52.84660000
C       57.52410000      49.17010000      52.86180000
C       57.48710000      50.78670000      47.22210000
C       43.97170000      52.65330000      48.50220000
C       52.66320000      48.85320000      43.80330000
C       48.77350000      43.82480000      52.71240000
C       43.84090000      47.35990000      51.61330000
C       55.95970000      52.72340000      51.55330000
C       55.82340000      47.29140000      48.58090000
C       52.73940000      51.31540000      56.34860000
C       47.24510000      48.50670000      56.04550000
C       47.28830000      51.36850000      44.07620000
C       48.72290000      56.18370000      47.13340000
C       51.48330000      43.93220000      47.26520000
C       51.42160000      55.96890000      52.58650000
C       56.08100000      52.79020000      48.70560000
C       47.31820000      48.54130000      43.96260000
C       51.53440000      43.77080000      52.68350000
C       55.84140000      47.23170000      51.46510000
C       44.16630000      52.66630000      51.32240000
C       43.83700000      47.28930000      48.85290000
C       47.20850000      51.31770000      56.22560000
C       52.74060000      48.55090000      56.36370000
C       52.55660000      51.65640000      43.86310000
C       51.61070000      55.98560000      47.15200000
C       48.67390000      44.16800000      47.33960000
C       48.67140000      55.93950000      52.53430000
C       51.48120000      42.29700000      50.67840000
C       42.47160000      50.84440000      51.43780000
C       50.60490000      51.54060000      42.30190000
C       51.51180000      57.53600000      49.15570000
C       48.59370000      42.53830000      49.23220000
C       48.63340000      57.52750000      50.61710000
C       42.39780000      49.23160000      48.65900000
C       57.38230000      50.74780000      48.65450000
C       57.34560000      49.20880000      51.44600000
C       50.68700000      48.45770000      57.65490000
C       49.20750000      51.41370000      57.57480000
C       49.24110000      48.59020000      42.41260000
C       48.59990000      42.45580000      50.71200000
C       57.40500000      50.69290000      51.48590000
C       49.12380000      51.44220000      42.39950000
C       48.68580000      57.52290000      49.13220000
C       51.45100000      42.37420000      49.18260000
C       51.47360000      57.54610000      50.65420000
C       57.32900000      49.26690000      48.63680000
C       42.44030000      50.71460000      48.57730000
C       42.36250000      49.36090000      51.54770000
C       49.20550000      48.46110000      57.58830000
C       50.68530000      51.43370000      57.63980000
C       50.72280000      48.67460000      42.37490000
C       48.48150000      46.24460000      44.32030000
C       46.36340000      44.62050000      48.41020000
C       44.43930000      48.19640000      46.37920000
C       48.28100000      53.62140000      55.41920000
C       51.75810000      46.17230000      55.58300000
C       51.54060000      54.02760000      44.03590000
C       46.33870000      55.61180000      51.42010000
C       53.87260000      44.10460000      51.59610000
C       53.88780000      55.72550000      48.30840000
C       44.46620000      51.76540000      53.74740000
C       55.45350000      48.20440000      53.84190000
C       55.38710000      51.81030000      46.33130000
C       51.78830000      46.36560000      44.38970000
C       53.84360000      44.18840000      48.33200000
C       55.35660000      48.40560000      46.30190000
C       51.71940000      53.64230000      55.49990000
C       48.31800000      46.22850000      55.49620000
C       48.24020000      53.78030000      44.35650000
C       53.83580000      55.74630000      51.60390000
C       46.31670000      44.50710000      51.79980000
C       46.31790000      55.56860000      48.10900000
C       55.49120000      51.66720000      53.87040000
C       44.20400000      48.47140000      53.93940000
C       44.31210000      51.50110000      46.20500000
C       50.74490000      43.15360000      48.21200000
C       43.03060000      48.29220000      50.89180000
C       48.20060000      50.70710000      43.19210000
C       50.75500000      56.81280000      51.64610000
C       49.40030000      43.04460000      51.73100000
C       49.45270000      56.85630000      48.12920000
C       43.18630000      51.73120000      49.25870000
C       56.60100000      48.24580000      49.31510000
C       56.74360000      51.75810000      50.83340000
C       48.20430000      49.18370000      56.88840000
C       51.73110000      50.65170000      57.08170000
C       51.69120000      49.49470000      43.02870000
C       49.32350000      43.26940000      48.24910000
C       56.60750000      48.21510000      50.74900000
C       51.65650000      50.91620000      43.02560000
C       49.34660000      56.80510000      51.62640000
C       50.81350000      42.98820000      51.72560000
C       50.88250000      56.79670000      48.12240000
C       56.77550000      51.78440000      49.40800000
C       43.04030000      48.25770000      49.47630000
C       43.25680000      51.75980000      50.68330000
C       51.73210000      49.22870000      57.08880000
C       48.20520000      50.61800000      56.93980000
C       48.22690000      49.28320000      43.15020000
C       44.31630000      47.45540000      52.94960000
C       47.27010000      52.73330000      44.64010000
C       52.83580000      44.36220000      47.34250000
C       44.42020000      52.54320000      47.15760000
C       55.21150000      47.32160000      47.24390000
C       55.30740000      52.70170000      52.87150000
C       47.24980000      47.19380000      55.37710000
C       52.75170000      52.70150000      55.82460000
C       52.71260000      47.44200000      44.23710000
C       52.77940000      55.55350000      52.54250000
C       47.37310000      44.29380000      52.74000000
C       47.30640000      55.76340000      47.09900000
C       55.26130000      47.19160000      52.82240000
C       52.49310000      53.00750000      44.34410000
C       47.34130000      44.79380000      47.36440000
C       55.50480000      52.78050000      47.36430000
C       44.29030000      47.26380000      47.45000000
C       44.76810000      52.68320000      52.67160000
C       52.76410000      47.15420000      55.86640000
C       47.22010000      52.70590000      55.71760000
C       47.44790000      47.20900000      44.43950000
C       47.33450000      55.47610000      52.42150000
C       52.87750000      44.23160000      52.60570000
C       52.93640000      55.43740000      47.21470000
C       46.60170000      46.93300000      45.56310000
C       47.27820000      45.75820000      46.25150000
C       45.10010000      46.19620000      47.37410000
C       46.07700000      52.84940000      55.00060000
C       53.90540000      47.04370000      55.13820000
C       53.40820000      53.18530000      45.45540000
C       47.04570000      54.37490000      53.28140000
C       53.13990000      45.34310000      53.48510000
C       53.56910000      54.21420000      46.46680000
C       45.81210000      53.72510000      52.67400000
C       54.33800000      46.03150000      52.86090000
C       54.65520000      53.88130000      47.30570000
C       53.79420000      47.36800000      45.03030000
C       53.10410000      45.49840000      46.50580000
C       54.29680000      46.16250000      47.15660000
C       53.90590000      52.81660000      55.12260000
C       46.10180000      47.16390000      54.42990000
C       46.19320000      52.76980000      45.65360000
C       53.05030000      54.45220000      53.41870000
C       47.29050000      45.04820000      53.85070000
C       47.17610000      55.03680000      45.96300000
C       54.33150000      53.83430000      52.89280000
C       45.42740000      46.57050000      53.21020000
C       45.51270000      53.42120000      46.85070000
