240
Lattice="100.0 0.0 0.0 0.0 100.0 0.0 0.0 0.0 100.0" Properties=species:S:1:pos:R:3 name=C-2509655-3548-195 pressure=-88.1769873656664 energy=-1793.69570797838 spacegroup=S4 times_found=1 pbc="T T T"
C       55.57220000      46.07270000      52.64930000
C       52.94160000      55.33730000      46.30330000
C       46.14430000      52.71200000      55.70580000
C       55.54720000      54.00760000      47.28170000
C       44.43570000      53.91110000      52.68960000
C       44.44480000      46.00900000      47.27370000
C       53.05400000      44.68310000      53.75800000
C       47.04750000      44.68530000      46.27950000
C       46.95720000      55.29390000      53.79930000
C       46.21510000      47.15590000      44.27260000
C       53.87250000      47.25330000      55.67780000
C       53.76800000      52.87900000      44.27890000
C       44.30290000      46.23950000      52.84010000
C       47.29260000      55.70530000      46.18020000
C       53.75760000      52.91080000      55.36360000
C       44.72770000      53.76030000      46.94540000
C       55.70550000      53.74320000      52.84610000
C       55.26330000      46.25840000      46.90700000
C       47.29550000      44.46540000      54.02270000
C       52.69600000      44.31810000      46.13760000
C       52.71630000      55.51010000      54.04830000
C       53.90070000      47.29870000      44.36960000
C       46.25820000      47.05660000      55.35690000
C       46.08270000      52.73550000      44.39760000
C       52.58820000      43.82090000      49.21900000
C       49.19520000      52.64150000      43.86930000
C       43.86000000      49.35760000      52.60100000
C       52.60920000      56.00810000      50.94150000
C       47.40960000      56.18370000      49.26430000
C       47.39350000      43.98630000      50.91260000
C       49.35370000      47.36240000      56.19590000
C       50.78670000      47.39590000      43.85100000
C       50.66460000      52.59980000      56.20990000
C       43.93630000      50.61900000      47.27830000
C       56.14760000      50.62660000      52.58680000
C       56.05570000      49.39770000      47.25680000
C       47.36130000      43.95550000      49.43460000
C       50.65160000      52.66900000      43.81220000
C       56.06770000      49.17000000      52.54160000
C       47.35860000      56.14240000      50.71440000
C       52.63700000      56.04790000      49.46360000
C       52.64350000      43.85340000      50.66920000
C       50.80480000      47.38500000      56.22300000
C       49.33020000      47.36870000      43.79800000
C       49.21350000      52.57700000      56.24110000
C       56.05350000      50.87420000      47.30540000
C       43.93980000      50.81450000      52.56450000
C       43.93850000      49.14210000      47.31800000
C       56.00950000      47.39500000      49.05620000
C       49.36170000      56.15160000      47.42570000
C       47.38620000      49.18550000      56.14130000
C       56.18260000      52.58700000      50.75710000
C       43.98770000      52.61060000      49.08980000
C       43.81970000      47.40830000      50.75960000
C       49.39330000      43.93200000      52.71490000
C       50.63060000      43.86420000      47.38650000
C       50.61470000      56.05140000      52.75000000
C       47.37210000      50.67430000      43.80300000
C       52.63190000      50.77710000      56.13840000
C       52.60960000      49.36340000      43.79130000
C       43.85440000      47.35960000      49.30920000
C       50.81850000      56.07170000      47.46420000
C       52.65930000      49.32050000      56.18900000
C       43.95460000      52.63610000      50.56780000
C       56.14350000      52.64460000      49.30720000
C       56.04700000      47.36050000      50.53390000
C       50.87000000      43.93430000      52.66860000
C       49.17400000      43.94380000      47.42970000
C       49.13790000      56.04930000      52.70800000
C       52.58680000      50.81460000      43.76650000
C       47.35900000      50.64180000      56.20080000
C       47.39480000      49.22330000      43.76930000
C       49.22760000      42.49820000      49.36400000
C       49.28970000      49.29240000      42.35910000
C       42.47190000      49.29150000      49.21700000
C       49.29030000      57.52450000      50.81590000
C       50.77060000      57.50550000      49.40740000
C       50.71200000      42.47070000      50.76790000
C       49.28040000      50.67580000      57.64290000
C       50.68780000      50.75420000      42.36150000
C       50.74220000      49.27770000      57.63650000
C       42.49720000      50.76960000      50.62770000
C       57.52570000      50.71330000      49.19920000
C       57.50460000      49.22660000      50.60090000
C       50.66010000      42.44910000      49.32530000
C       50.72240000      49.30740000      42.36360000
C       57.48350000      49.27510000      49.15890000
C       50.72870000      57.48210000      50.84960000
C       49.33800000      57.55490000      49.37320000
C       49.27380000      42.51280000      50.80620000
C       50.72710000      50.71040000      57.63430000
C       49.25510000      50.73910000      42.37010000
C       49.29540000      49.24310000      57.63200000
C       57.55390000      50.65910000      50.64160000
C       42.51410000      50.72990000      49.18540000
C       42.44800000      49.33690000      50.65990000
C       48.60610000      56.69410000      48.57710000
C       48.57480000      48.50270000      56.70820000
C       56.55670000      48.59730000      48.39610000
C       48.59480000      43.43610000      51.57210000
C       51.38970000      43.31470000      48.53230000
C       51.40990000      56.55420000      51.60780000
C       48.51330000      51.45550000      43.29600000
C       51.44500000      51.45640000      56.71300000
C       51.46700000      48.58530000      43.28290000
C       56.69190000      51.38740000      51.43960000
C       43.43860000      51.41240000      48.42400000
C       43.31240000      48.60380000      51.45090000
C       51.50180000      56.58410000      48.68250000
C       51.51340000      48.56440000      56.74180000
C       43.36710000      48.50140000      48.51550000
C       51.50530000      43.36480000      51.46730000
C       48.49420000      43.42400000      48.64690000
C       48.49900000      56.62620000      51.51210000
C       51.40520000      51.52400000      43.25410000
C       48.50650000      51.39450000      56.75490000
C       48.57500000      48.51710000      43.24910000
C       43.42190000      51.49970000      51.34950000
C       56.62850000      51.50770000      48.50510000
C       56.58200000      48.49220000      51.32100000
C       53.68330000      51.45780000      55.41490000
C       55.57040000      53.66090000      51.46930000
C       51.27910000      55.46290000      53.84620000
C       53.71160000      48.72850000      44.40380000
C       46.33270000      48.50920000      55.41670000
C       46.27200000      51.30560000      44.42260000
C       55.33640000      46.32940000      48.35930000
C       44.43390000      46.33020000      51.46340000
C       44.65890000      53.68050000      48.39740000
C       51.31950000      44.47260000      46.28770000
C       48.73220000      44.51370000      53.81660000
C       48.66970000      55.55000000      46.32530000
C       46.28410000      51.33460000      55.56000000
C       44.51850000      53.73080000      51.25250000
C       48.41410000      55.36460000      53.75140000
C       46.31100000      48.53560000      44.38930000
C       53.73230000      48.63160000      55.54090000
C       53.67240000      51.49860000      44.38750000
C       44.47230000      46.24300000      48.69660000
C       55.48510000      46.26160000      51.21360000
C       55.52390000      53.76490000      48.70320000
C       48.49880000      44.63280000      46.35260000
C       51.59690000      44.61270000      53.71400000
C       51.49050000      55.38940000      46.38100000
C       55.54420000      51.31370000      53.68940000
C       53.67800000      55.33380000      51.63250000
C       51.29680000      53.70280000      55.59630000
C       55.46900000      48.73830000      46.15670000
C       44.46670000      48.66380000      53.69760000
C       44.51970000      51.28510000      46.18060000
C       53.66320000      44.43630000      48.51130000
C       46.32680000      44.65630000      51.61080000
C       46.33250000      55.57260000      48.55600000
C       51.46630000      46.34120000      44.57080000
C       48.71970000      46.26320000      55.57740000
C       48.51780000      53.69180000      44.59750000
C       44.62700000      51.48480000      53.64570000
C       46.24100000      55.52180000      51.32250000
C       48.52680000      53.66360000      55.62490000
C       44.61850000      48.41990000      46.27040000
C       55.38370000      48.49310000      53.62070000
C       55.37050000      51.60280000      46.26430000
C       46.26350000      44.52040000      48.75580000
C       53.76290000      44.47030000      51.27770000
C       53.73280000      55.48710000      48.77820000
C       48.64020000      46.29280000      44.44020000
C       51.48980000      46.30220000      55.59820000
C       51.34340000      53.74100000      44.45890000
C       52.72100000      53.88140000      44.31590000
C       44.67950000      52.93570000      53.72540000
C       54.00330000      44.44050000      52.69950000
C       52.87000000      46.20620000      55.70850000
C       47.26220000      46.15330000      44.30050000
C       47.14690000      53.75900000      55.73990000
C       44.68900000      46.96310000      46.21990000
C       55.33140000      47.04170000      53.69180000
C       55.29990000      53.05990000      46.22280000
C       53.91530000      55.57640000      47.34170000
C       46.00470000      55.54290000      52.74510000
C       46.07680000      44.43990000      47.31940000
C       47.06500000      53.76600000      44.65550000
C       55.69930000      52.69000000      53.84090000
C       46.25350000      44.72280000      53.06330000
C       47.28980000      46.07390000      55.60850000
C       52.91920000      46.26660000      44.62400000
C       52.72670000      53.89190000      55.62430000
C       55.51640000      47.30190000      45.94810000
C       44.31200000      47.28660000      53.84130000
C       44.47170000      52.72270000      45.98090000
C       46.24400000      55.70990000      47.17980000
C       53.75550000      55.25850000      53.08430000
C       53.74760000      44.30740000      47.13400000
C       53.08880000      55.22030000      55.36800000
C       54.82930000      53.47160000      54.66430000
C       54.82670000      54.54360000      53.63980000
C       53.47890000      45.19180000      45.31930000
C       46.92700000      44.74710000      55.34520000
C       46.50730000      54.83660000      45.35900000
C       55.22870000      46.93540000      44.62630000
C       45.18440000      46.50000000      54.65730000
C       44.75550000      53.09720000      44.66050000
C       54.54930000      45.18970000      46.34560000
C       45.18400000      45.43430000      53.62630000
C       45.44000000      54.83240000      46.38830000
C       46.37770000      54.56730000      54.84860000
C       45.34770000      53.49860000      54.81760000
C       44.67650000      55.23610000      53.07590000
C       46.47970000      45.35530000      45.19100000
C       53.63650000      45.40320000      54.81000000
C       53.50620000      54.67400000      45.20900000
C       45.41080000      46.38530000      45.16640000
C       54.66640000      46.47220000      54.78250000
C       54.57500000      53.64410000      45.17500000
C       44.75010000      44.68130000      46.93940000
C       55.33240000      44.74530000      53.02830000
C       55.24100000      55.33730000      46.95640000
C       49.27320000      45.38950000      45.36230000
C       45.37420000      49.16280000      45.28040000
C       45.30760000      45.33230000      49.45070000
C       49.15540000      54.60440000      54.73910000
C       50.71310000      54.63870000      45.38830000
C       50.85850000      45.36680000      54.70850000
C       45.38220000      50.70580000      54.63370000
C       54.61180000      50.86590000      45.27200000
C       54.63140000      49.26600000      54.61570000
C       45.33150000      54.68990000      50.56320000
C       54.69080000      54.67100000      49.46530000
C       54.67010000      45.30680000      50.52090000
C       50.68970000      45.37780000      45.36370000
C       54.65310000      49.46000000      45.22520000
C       54.60170000      45.33840000      49.11800000
C       50.56160000      54.64560000      54.77960000
C       49.29670000      54.65030000      45.39400000
C       49.45250000      45.32540000      54.75290000
C       54.64310000      50.68250000      54.61640000
C       45.33280000      50.56900000      45.24230000
C       45.37050000      49.28940000      54.62580000
C       54.66560000      54.60040000      50.86820000
C       45.39570000      54.66690000      49.15990000
C       45.33700000      45.39440000      50.85390000
