240
Lattice="100.0 0.0 0.0 0.0 100.0 0.0 0.0 0.0 100.0" Properties=species:S:1:pos:R:3 name=C-2509655-3548-1095 pressure=-0.028438900804797 spacegroup=Td times_found=1 energy=-1706.2446715922 pbc="T T T"
C       47.15710000      51.81510000      46.09100000
C       51.81500000      46.09090000      47.15720000
C       46.09100000      47.15730000      51.81530000
C       52.84260000      48.18480000      46.09090000
C       47.15740000      48.18490000      53.90920000
C       52.84290000      51.81520000      53.90890000
C       48.18480000      53.90900000      47.15730000
C       51.81530000      53.90910000      52.84260000
C       48.18490000      46.09100000      52.84290000
C       53.90910000      52.84270000      51.81500000
C       46.09090000      52.84280000      48.18500000
C       53.90900000      47.15720000      48.18470000
C       51.81500000      47.15720000      46.09090000
C       46.09090000      51.81510000      47.15740000
C       47.15730000      46.09100000      51.81530000
C       48.18470000      52.84270000      46.09100000
C       48.18500000      47.15730000      53.90910000
C       51.81530000      52.84280000      53.90900000
C       53.90890000      48.18480000      47.15710000
C       53.90920000      51.81510000      52.84260000
C       46.09100000      48.18490000      52.84290000
C       52.84290000      53.90900000      51.81500000
C       52.84260000      46.09090000      48.18480000
C       47.15720000      53.90910000      48.18490000
C       48.31880000      43.60910000      49.32740000
C       43.60900000      49.32740000      48.31910000
C       49.32710000      48.31880000      43.60910000
C       51.68120000      56.39090000      49.32720000
C       48.31890000      56.39100000      50.67270000
C       51.68110000      43.60900000      50.67270000
C       56.39090000      50.67260000      48.31860000
C       43.60910000      50.67280000      51.68140000
C       56.39100000      49.32730000      51.68090000
C       50.67250000      51.68110000      43.60900000
C       49.32760000      51.68120000      56.39100000
C       50.67290000      48.31890000      56.39090000
C       43.60900000      48.31890000      49.32760000
C       49.32720000      43.60900000      48.31890000
C       48.31860000      49.32730000      43.60910000
C       56.39090000      51.68110000      49.32710000
C       56.39100000      48.31880000      50.67250000
C       43.60910000      51.68120000      50.67290000
C       50.67270000      56.39090000      48.31880000
C       50.67270000      43.60910000      51.68120000
C       49.32740000      56.39100000      51.68110000
C       51.68090000      50.67260000      43.60900000
C       51.68140000      49.32740000      56.39090000
C       48.31910000      50.67280000      56.39100000
C       51.95520000      50.94730000      52.95530000
C       50.94740000      52.95540000      51.95500000
C       52.95540000      51.95510000      50.94720000
C       48.04500000      49.05270000      52.95550000
C       51.95500000      49.05260000      47.04460000
C       48.04480000      50.94730000      47.04470000
C       49.05270000      47.04460000      51.95510000
C       50.94720000      47.04460000      48.04490000
C       49.05260000      52.95540000      48.04490000
C       47.04460000      48.04500000      50.94750000
C       52.95530000      48.04490000      49.05260000
C       47.04460000      51.95510000      49.05280000
C       50.94750000      51.95510000      52.95530000
C       52.95550000      50.94730000      51.95500000
C       51.95510000      52.95540000      50.94720000
C       49.05280000      48.04500000      52.95540000
C       49.05260000      51.95510000      47.04460000
C       50.94720000      48.04490000      47.04460000
C       47.04470000      49.05270000      51.95520000
C       47.04450000      50.94730000      48.04500000
C       52.95530000      49.05260000      48.04480000
C       48.04490000      47.04460000      50.94740000
C       48.04490000      52.95540000      49.05270000
C       51.95500000      47.04460000      49.05260000
C       51.06970000      44.86110000      47.00740000
C       44.86110000      47.00740000      51.07010000
C       47.00720000      51.06980000      44.86120000
C       48.93010000      55.13890000      47.00740000
C       51.07000000      55.13890000      52.99250000
C       48.93020000      44.86120000      52.99270000
C       55.13900000      52.99260000      51.06960000
C       44.86110000      52.99270000      48.93030000
C       55.13880000      47.00730000      48.93000000
C       52.99240000      48.93010000      44.86100000
C       47.00760000      48.93020000      55.13900000
C       52.99280000      51.06990000      55.13880000
C       44.86100000      51.06980000      47.00760000
C       47.00740000      44.86120000      51.07000000
C       51.06960000      47.00730000      44.86110000
C       55.13880000      48.93010000      47.00720000
C       55.13900000      51.06980000      52.99240000
C       44.86120000      48.93020000      52.99280000
C       52.99270000      55.13890000      51.06970000
C       52.99250000      44.86110000      48.93010000
C       47.00740000      55.13890000      48.93020000
C       48.93000000      52.99260000      44.86110000
C       48.93030000      47.00740000      55.13900000
C       51.07010000      52.99270000      55.13880000
C       55.85790000      51.71870000      50.70270000
C       51.71900000      50.70300000      55.85770000
C       50.70300000      55.85780000      51.71870000
C       44.14220000      48.28130000      50.70320000
C       55.85780000      48.28120000      49.29690000
C       44.14220000      51.71880000      49.29730000
C       48.28140000      49.29720000      55.85790000
C       51.71860000      49.29700000      44.14210000
C       48.28100000      50.70290000      44.14220000
C       49.29710000      44.14220000      51.71890000
C       50.70280000      44.14220000      48.28120000
C       49.29710000      55.85780000      48.28120000
C       51.71890000      55.85780000      50.70280000
C       50.70320000      51.71880000      55.85780000
C       55.85790000      50.70290000      51.71860000
C       48.28120000      44.14220000      50.70300000
C       48.28120000      55.85780000      49.29710000
C       51.71870000      44.14220000      49.29710000
C       49.29730000      48.28130000      55.85790000
C       49.29690000      51.71870000      44.14220000
C       50.70270000      48.28110000      44.14220000
C       44.14220000      49.29710000      51.71900000
C       44.14210000      50.70300000      48.28140000
C       55.85770000      49.29700000      48.28100000
C       54.22060000      44.78670000      49.62090000
C       44.78690000      49.62110000      54.22080000
C       49.62090000      54.22060000      44.78670000
C       45.77940000      55.21330000      49.62110000
C       54.22070000      55.21320000      50.37880000
C       45.77930000      44.78680000      50.37920000
C       55.21340000      50.37900000      54.22040000
C       44.78660000      50.37900000      45.77960000
C       55.21310000      49.62090000      45.77920000
C       50.37870000      45.77930000      44.78680000
C       49.62120000      45.77940000      55.21330000
C       50.37920000      54.22070000      55.21320000
C       44.78680000      54.22070000      49.62120000
C       49.62110000      44.78680000      54.22070000
C       54.22040000      49.62090000      44.78660000
C       55.21320000      45.77930000      49.62090000
C       55.21330000      54.22060000      50.37870000
C       44.78670000      45.77940000      50.37920000
C       50.37920000      55.21330000      54.22060000
C       50.37880000      44.78670000      45.77940000
C       49.62090000      55.21320000      45.77930000
C       45.77920000      50.37900000      44.78690000
C       45.77960000      49.62110000      55.21340000
C       54.22080000      50.37900000      55.21310000
C       46.00030000      56.04660000      52.10160000
C       56.04640000      52.10140000      45.99990000
C       52.10170000      46.00020000      56.04650000
C       53.99980000      43.95350000      52.10140000
C       46.00010000      43.95350000      47.89870000
C       53.99980000      56.04650000      47.89830000
C       43.95330000      47.89850000      46.00040000
C       56.04660000      47.89850000      53.99960000
C       43.95370000      52.10160000      54.00000000
C       47.89880000      53.99990000      56.04660000
C       52.10130000      53.99970000      43.95340000
C       47.89820000      46.00010000      43.95360000
C       56.04660000      46.00020000      52.10130000
C       52.10140000      56.04650000      46.00000000
C       46.00040000      52.10160000      56.04660000
C       43.95360000      53.99990000      52.10170000
C       43.95340000      46.00020000      47.89880000
C       56.04650000      53.99970000      47.89820000
C       47.89830000      43.95350000      46.00030000
C       47.89870000      56.04660000      53.99980000
C       52.10160000      43.95350000      53.99980000
C       54.00000000      47.89850000      56.04640000
C       53.99960000      52.10140000      43.95330000
C       45.99990000      47.89850000      43.95370000
C       43.91950000      49.26240000      45.81610000
C       49.26210000      45.81580000      43.91970000
C       45.81580000      43.91970000      49.26260000
C       56.08020000      50.73750000      45.81560000
C       43.91980000      50.73770000      54.18430000
C       56.08050000      49.26240000      54.18390000
C       50.73740000      54.18410000      43.91960000
C       49.26270000      54.18420000      56.08030000
C       50.73780000      45.81590000      56.08040000
C       54.18410000      56.08030000      49.26220000
C       45.81600000      56.08040000      50.73770000
C       54.18410000      43.91960000      50.73750000
C       49.26220000      43.91960000      45.81600000
C       45.81560000      49.26240000      43.91980000
C       43.91960000      45.81590000      49.26270000
C       50.73750000      56.08030000      45.81580000
C       50.73770000      43.91970000      54.18420000
C       49.26260000      56.08040000      54.18410000
C       54.18390000      50.73750000      43.91950000
C       54.18430000      49.26240000      56.08020000
C       45.81610000      50.73770000      56.08050000
C       56.08040000      54.18410000      49.26210000
C       56.08030000      45.81580000      50.73740000
C       43.91970000      54.18420000      50.73780000
C       48.76260000      56.53220000      52.99910000
C       56.53210000      52.99900000      48.76220000
C       52.99930000      48.76250000      56.53200000
C       51.23760000      43.46790000      52.99910000
C       48.76230000      43.46780000      47.00100000
C       51.23750000      56.53210000      47.00080000
C       43.46780000      47.00090000      48.76270000
C       56.53220000      47.00090000      51.23730000
C       43.46790000      52.99920000      51.23780000
C       47.00120000      51.23760000      56.53220000
C       52.99890000      51.23740000      43.46770000
C       47.00060000      48.76240000      43.46800000
C       56.53220000      48.76240000      52.99890000
C       52.99910000      56.53210000      48.76230000
C       48.76270000      52.99920000      56.53220000
C       43.46800000      51.23760000      52.99930000
C       43.46770000      48.76250000      47.00120000
C       56.53200000      51.23740000      47.00060000
C       47.00080000      43.46790000      48.76260000
C       47.00100000      56.53220000      51.23760000
C       52.99910000      43.46780000      51.23750000
C       51.23780000      47.00100000      56.53210000
C       51.23730000      52.99900000      43.46780000
C       48.76220000      47.00080000      43.46790000
C       46.71050000      54.28540000      55.28940000
C       54.28530000      55.28920000      46.71010000
C       55.28940000      46.71030000      54.28520000
C       53.28990000      45.71470000      55.28920000
C       46.71010000      45.71460000      44.71090000
C       53.28950000      54.28530000      44.71050000
C       45.71450000      44.71070000      46.71050000
C       54.28540000      44.71070000      53.28960000
C       45.71480000      55.28940000      53.28980000
C       44.71090000      53.28980000      54.28550000
C       55.28920000      53.28960000      45.71440000
C       44.71050000      46.71030000      45.71490000
C       54.28550000      46.71030000      55.28920000
C       55.28920000      54.28530000      46.71010000
C       46.71050000      55.28940000      54.28540000
C       45.71490000      53.28980000      55.28940000
C       45.71440000      46.71030000      44.71090000
C       54.28520000      53.28960000      44.71050000
C       44.71050000      45.71470000      46.71050000
C       44.71090000      54.28540000      53.28990000
C       55.28940000      45.71460000      53.28950000
C       53.28980000      44.71070000      54.28530000
C       53.28960000      55.28920000      45.71450000
C       46.71010000      44.71070000      45.71480000
