240
Lattice="100.0 0.0 0.0 0.0 100.0 0.0 0.0 0.0 100.0" Properties=species:S:1:pos:R:3 name=C-2509655-3548-26 pressure=20.3996090925219 spacegroup=Th times_found=1 energy=-1771.05823870046 pbc="T T T"
C       48.59210000      42.63540000      48.33240000
C       42.63510000      48.33360000      48.59220000
C       48.33310000      48.59320000      42.63500000
C       51.40760000      57.36520000      48.33480000
C       48.59180000      57.36450000      51.66780000
C       51.40840000      42.63490000      51.66500000
C       57.36470000      51.66690000      48.59170000
C       42.63520000      51.66590000      51.40880000
C       57.36500000      48.33360000      51.40720000
C       51.66580000      51.40940000      42.63530000
C       48.33400000      51.40670000      57.36520000
C       51.66700000      48.59070000      57.36450000
C       48.59240000      42.63480000      51.66520000
C       42.63530000      48.33310000      51.40830000
C       48.33410000      48.59060000      57.36470000
C       51.40790000      57.36460000      51.66760000
C       48.59160000      57.36510000      48.33500000
C       51.40820000      42.63550000      48.33220000
C       57.36490000      51.66640000      51.40780000
C       42.63500000      51.66640000      48.59280000
C       57.36480000      48.33410000      48.59120000
C       51.66690000      51.40680000      57.36500000
C       48.33300000      51.40930000      42.63550000
C       51.66590000      48.59330000      42.63480000
C       54.52100000      49.30270000      55.05900000
C       49.30350000      55.05860000      54.52150000
C       55.05920000      54.52090000      49.30380000
C       45.47970000      50.69560000      55.05990000
C       54.52020000      50.69760000      44.94040000
C       45.47910000      49.30410000      44.94080000
C       50.69710000      44.93980000      54.51970000
C       49.30330000      44.94130000      45.47860000
C       50.69610000      55.06020000      45.48020000
C       44.94070000      45.47930000      49.30300000
C       55.05960000      45.47950000      50.69540000
C       44.94050000      54.52030000      50.69780000
C       54.52030000      49.30440000      44.94010000
C       49.30290000      55.06020000      45.48030000
C       55.05930000      54.52070000      50.69700000
C       45.47900000      50.69730000      44.94100000
C       54.52090000      50.69590000      55.05920000
C       45.47980000      49.30240000      55.05960000
C       50.69650000      44.94140000      45.47850000
C       49.30390000      44.93970000      54.51980000
C       50.69670000      55.05870000      54.52140000
C       44.94080000      45.47910000      50.69620000
C       55.05950000      45.47970000      49.30220000
C       44.94040000      54.52060000      49.30460000
C       47.21180000      45.15650000      46.45150000
C       45.15590000      46.45250000      47.21170000
C       46.45190000      47.21270000      45.15570000
C       52.78760000      54.84480000      46.45280000
C       47.21200000      54.84330000      53.54890000
C       52.78850000      45.15540000      53.54680000
C       54.84370000      53.54850000      47.21220000
C       45.15600000      53.54720000      52.78900000
C       54.84440000      46.45190000      52.78710000
C       53.54740000      52.78900000      45.15620000
C       46.45240000      52.78710000      54.84480000
C       53.54830000      47.21120000      54.84330000
C       47.21240000      45.15520000      53.54720000
C       45.15630000      46.45150000      52.78780000
C       46.45260000      47.21100000      54.84380000
C       52.78820000      54.84350000      53.54850000
C       47.21150000      54.84460000      46.45320000
C       52.78800000      45.15670000      46.45110000
C       54.84410000      53.54750000      52.78830000
C       45.15560000      53.54810000      47.21290000
C       54.84400000      46.45280000      47.21100000
C       53.54810000      52.78730000      54.84430000
C       46.45170000      52.78880000      45.15670000
C       53.54760000      47.21290000      45.15520000
C       53.51210000      43.61630000      49.25970000
C       43.61630000      49.26020000      53.51220000
C       49.26050000      53.51300000      43.61670000
C       46.48780000      56.38400000      49.26240000
C       53.51170000      56.38400000      50.73980000
C       46.48840000      43.61580000      50.73810000
C       56.38420000      50.73860000      53.51160000
C       43.61570000      50.73930000      46.48870000
C       56.38380000      49.26190000      46.48750000
C       50.73860000      46.48930000      43.61530000
C       49.26160000      46.48690000      56.38340000
C       50.73930000      53.51080000      56.38450000
C       53.51220000      43.61600000      50.73760000
C       43.61580000      49.26140000      46.48840000
C       49.26140000      53.51080000      56.38470000
C       46.48790000      56.38370000      50.74030000
C       53.51160000      56.38420000      49.26190000
C       46.48830000      43.61600000      49.26020000
C       56.38370000      50.73980000      46.48780000
C       43.61620000      50.73810000      53.51250000
C       56.38430000      49.26070000      53.51130000
C       50.73950000      46.48700000      56.38330000
C       49.26070000      46.48920000      43.61550000
C       50.73840000      53.51300000      43.61660000
C       49.26400000      49.28840000      58.16590000
C       49.28950000      58.16610000      49.26490000
C       58.16600000      49.26380000      49.28910000
C       50.73710000      50.70880000      58.16610000
C       49.26280000      50.71160000      41.83420000
C       50.73600000      49.29130000      41.83380000
C       50.71040000      41.83410000      49.26190000
C       49.29020000      41.83380000      50.73520000
C       50.70990000      58.16590000      50.73800000
C       41.83390000      50.73640000      49.29050000
C       58.16600000      50.73670000      50.70970000
C       41.83410000      49.26300000      50.71060000
C       49.26290000      49.29120000      41.83390000
C       49.28960000      58.16590000      50.73810000
C       58.16610000      49.26360000      50.70950000
C       50.73600000      50.71160000      41.83410000
C       49.26400000      50.70870000      58.16620000
C       50.73720000      49.28840000      58.16580000
C       50.71050000      41.83390000      50.73510000
C       49.29010000      41.83410000      49.26200000
C       50.70980000      58.16620000      49.26480000
C       41.83400000      50.73620000      50.71090000
C       58.16590000      50.73700000      49.28940000
C       41.83400000      49.26330000      49.29030000
C       47.37000000      49.27390000      43.50310000
C       49.27290000      43.50350000      47.36940000
C       43.50310000      47.37040000      49.27280000
C       52.62910000      50.72840000      43.50300000
C       47.37090000      50.72590000      56.49730000
C       52.63000000      49.27180000      56.49670000
C       50.72670000      56.49750000      47.37160000
C       49.27280000      56.49650000      52.63070000
C       50.72760000      43.50260000      52.62830000
C       56.49680000      52.62990000      49.27280000
C       43.50300000      52.62920000      50.72810000
C       56.49710000      47.37060000      50.72620000
C       47.37100000      49.27160000      56.49700000
C       49.27330000      43.50250000      52.62840000
C       43.50320000      47.37010000      50.72720000
C       52.63000000      50.72610000      56.49690000
C       47.37000000      50.72820000      43.50340000
C       52.62910000      49.27410000      43.50270000
C       50.72710000      56.49650000      52.63060000
C       49.27240000      56.49740000      47.37170000
C       50.72720000      43.50350000      47.36930000
C       56.49690000      52.62960000      50.72720000
C       43.50290000      52.62940000      49.27380000
C       56.49700000      47.37080000      49.27190000
C       48.59610000      45.85040000      55.32260000
C       45.85110000      55.32340000      48.59680000
C       55.32300000      48.59650000      45.85080000
C       51.40460000      54.14770000      55.32390000
C       48.59510000      54.14950000      44.67760000
C       51.40420000      45.85240000      44.67590000
C       54.14870000      44.67720000      48.59440000
C       45.85170000      44.67630000      51.40380000
C       54.14850000      55.32310000      51.40500000
C       44.67640000      51.40490000      45.85210000
C       55.32350000      51.40390000      54.14840000
C       44.67710000      48.59470000      54.14870000
C       48.59540000      45.85230000      44.67610000
C       45.85130000      55.32290000      51.40560000
C       55.32360000      48.59510000      54.14800000
C       51.40390000      54.14960000      44.67740000
C       48.59580000      54.14760000      55.32410000
C       51.40490000      45.85050000      55.32240000
C       54.14890000      44.67670000      51.40320000
C       45.85150000      44.67680000      48.59500000
C       54.14830000      55.32360000      48.59620000
C       44.67700000      51.40350000      54.14920000
C       55.32290000      51.40530000      45.85130000
C       44.67650000      48.59610000      45.85160000
C       51.47200000      55.59280000      46.53230000
C       55.59240000      46.53140000      51.47150000
C       46.53180000      51.47140000      55.59270000
C       48.52750000      44.40840000      46.53060000
C       51.47290000      44.40730000      53.46750000
C       48.52760000      55.59150000      53.46960000
C       44.40780000      53.46810000      51.47350000
C       55.59200000      53.46900000      48.52770000
C       44.40780000      46.53150000      48.52730000
C       53.46900000      48.52670000      55.59170000
C       46.53110000      48.52840000      44.40780000
C       53.46810000      51.47360000      44.40780000
C       51.47250000      55.59160000      53.46940000
C       55.59220000      46.53190000      48.52650000
C       46.53100000      51.47330000      44.40830000
C       48.52800000      44.40710000      53.46770000
C       51.47240000      44.40850000      46.53040000
C       48.52710000      55.59270000      46.53260000
C       44.40760000      53.46860000      48.52850000
C       55.59220000      53.46850000      51.47270000
C       44.40800000      46.53100000      51.47230000
C       53.46820000      48.52860000      44.40730000
C       46.53190000      48.52640000      55.59220000
C       53.46890000      51.47160000      55.59220000
C       42.80270000      48.57670000      52.70640000
C       48.57680000      52.70740000      42.80300000
C       52.70630000      42.80280000      48.57590000
C       57.19770000      51.42240000      52.70590000
C       42.80220000      51.42280000      47.29460000
C       57.19740000      48.57810000      47.29310000
C       51.42220000      47.29520000      42.80190000
C       48.57800000      47.29250000      57.19720000
C       51.42300000      52.70490000      57.19790000
C       47.29350000      57.19770000      48.57880000
C       52.70600000      57.19740000      51.42370000
C       47.29420000      42.80210000      51.42150000
C       42.80230000      48.57760000      47.29410000
C       48.57780000      52.70480000      57.19810000
C       52.70650000      42.80230000      51.42120000
C       57.19730000      51.42330000      47.29360000
C       42.80260000      51.42190000      52.70690000
C       57.19780000      48.57720000      52.70540000
C       51.42320000      47.29260000      57.19700000
C       48.57700000      47.29510000      42.80210000
C       51.42200000      52.70750000      42.80280000
C       47.29370000      57.19720000      51.42410000
C       52.70580000      57.19790000      48.57850000
C       47.29400000      42.80260000      48.57630000
C       47.32730000      53.89470000      54.68790000
C       53.89530000      54.68760000      47.32770000
C       54.68740000      47.32660000      53.89490000
C       52.67330000      46.10360000      54.68610000
C       47.32690000      46.10510000      45.31250000
C       52.67240000      53.89660000      45.31350000
C       46.10430000      45.31330000      47.32660000
C       53.89600000      45.31270000      52.67180000
C       46.10440000      54.68640000      52.67400000
C       45.31320000      52.67200000      53.89650000
C       54.68660000      52.67370000      46.10450000
C       45.31280000      47.32770000      46.10420000
C       47.32670000      53.89640000      45.31390000
C       53.89570000      54.68670000      52.67340000
C       54.68680000      47.32800000      46.10350000
C       52.67270000      46.10530000      45.31210000
C       47.32760000      46.10340000      54.68650000
C       52.67310000      53.89490000      54.68750000
C       46.10470000      45.31240000      52.67230000
C       53.89560000      45.31360000      47.32600000
C       46.10400000      54.68730000      47.32820000
C       45.31260000      52.67340000      46.10510000
C       54.68720000      52.67230000      53.89580000
C       45.31340000      47.32630000      53.89550000
