240
Lattice="100.0 0.0 0.0 0.0 100.0 0.0 0.0 0.0 100.0" Properties=species:S:1:pos:R:3 name=C-2509655-3548-108 pressure=1.03683669724092 spacegroup=C1 times_found=1 energy=-1802.17385413595 pbc="T T T"
C       56.95430000      50.80470000      49.76900000
C       49.79410000      56.79820000      50.71020000
C       50.73710000      49.68160000      56.65710000
C       43.24000000      50.86990000      50.00820000
C       57.30930000      48.71190000      48.53770000
C       43.14560000      49.38990000      49.95520000
C       48.59280000      57.06990000      48.59240000
C       50.71230000      43.48480000      49.19600000
C       49.28510000      43.45980000      50.67180000
C       48.91180000      51.29540000      43.20390000
C       51.28540000      48.66970000      43.34840000
C       48.64610000      48.44530000      56.94380000
C       57.03120000      49.32000000      49.77770000
C       50.69270000      43.47230000      50.66480000
C       51.35780000      48.45350000      56.93740000
C       43.08550000      48.92000000      48.67270000
C       57.19800000      51.41950000      48.52900000
C       43.17180000      51.33920000      51.28860000
C       49.25790000      43.46650000      49.20450000
C       49.81360000      56.79400000      49.22350000
C       48.57270000      57.13000000      51.31360000
C       49.35720000      50.02550000      43.41180000
C       50.83780000      49.95270000      43.44660000
C       49.24960000      49.67720000      56.65810000
C       54.92870000      54.53170000      47.14550000
C       47.09820000      54.86010000      54.41820000
C       54.53920000      47.11000000      54.75900000
C       45.28110000      54.46660000      52.80140000
C       55.14530000      45.70220000      52.87000000
C       45.29240000      45.74410000      47.44390000
C       52.99320000      54.95710000      45.73980000
C       47.14980000      45.22430000      46.00140000
C       52.96340000      45.23900000      54.11810000
C       45.77090000      47.23630000      45.46200000
C       54.40300000      52.92500000      45.27210000
C       45.75700000      52.79100000      54.67390000
C       54.72770000      45.69950000      47.37570000
C       47.04100000      45.22780000      54.14040000
C       54.25150000      52.83530000      54.80380000
C       44.82010000      45.66930000      52.94450000
C       54.84800000      54.26480000      52.86400000
C       45.28800000      54.36340000      47.03100000
C       52.73710000      45.38240000      45.99770000
C       47.28020000      54.73700000      45.48980000
C       52.83960000      54.80030000      54.23070000
C       45.65890000      52.96220000      44.99500000
C       54.40930000      47.18960000      45.42570000
C       45.44110000      47.06070000      54.83460000
C       55.23250000      54.52580000      48.54290000
C       48.50050000      55.13810000      54.42170000
C       54.51790000      48.50510000      55.07480000
C       44.87620000      54.58660000      51.40950000
C       55.72580000      45.81020000      51.50080000
C       44.63990000      45.64890000      48.70460000
C       51.56090000      55.22720000      45.83480000
C       48.51830000      44.85110000      45.84710000
C       51.50830000      44.85360000      54.12490000
C       45.85520000      48.63470000      44.97530000
C       54.35670000      51.49210000      44.89290000
C       45.83530000      51.35290000      55.03010000
C       55.36230000      45.60930000      48.64170000
C       48.49620000      44.84850000      54.13450000
C       54.10770000      51.39390000      55.04560000
C       44.23980000      45.78700000      51.57470000
C       55.14680000      54.12120000      51.43000000
C       44.87420000      54.33760000      48.46170000
C       51.36730000      44.97110000      45.86100000
C       48.66640000      55.12260000      45.47300000
C       51.40140000      55.06310000      54.05720000
C       45.58090000      51.55390000      44.69870000
C       54.56610000      48.55420000      44.95520000
C       45.42310000      48.45360000      55.18360000
C       56.24260000      48.74710000      53.33170000
C       53.38110000      56.13970000      48.72860000
C       48.67650000      53.22540000      55.96560000
C       43.88460000      48.94100000      46.52380000
C       56.48600000      51.39830000      46.27610000
C       43.84810000      51.21600000      53.47400000
C       46.29120000      56.56410000      51.28710000
C       54.72580000      43.49980000      51.34890000
C       46.20960000      43.82720000      49.31640000
C       51.66760000      53.63980000      43.85730000
C       48.47990000      46.36120000      43.89320000
C       51.35080000      46.20880000      56.20550000
C       55.98380000      51.34870000      53.29900000
C       53.74590000      43.84490000      49.26930000
C       48.66640000      46.20390000      56.21230000
C       43.75210000      51.60190000      46.31780000
C       56.58750000      48.68240000      46.29560000
C       43.51230000      48.56850000      53.65890000
C       45.24750000      43.49020000      51.39520000
C       53.31880000      55.91400000      51.33200000
C       46.33140000      56.41030000      48.57150000
C       51.17660000      46.46700000      43.91740000
C       48.99860000      53.52050000      43.66250000
C       51.28950000      53.22880000      55.83340000
C       46.54080000      49.10940000      55.82810000
C       56.19730000      46.64090000      49.23560000
C       49.28470000      55.88120000      46.54180000
C       53.49940000      49.22570000      44.24170000
C       46.65900000      50.81850000      44.05370000
C       53.03260000      50.54650000      55.72410000
C       43.74210000      46.96860000      50.75930000
C       55.89730000      53.06980000      50.60390000
C       44.15250000      53.23690000      49.26140000
C       50.58350000      55.80030000      52.99780000
C       49.26210000      44.20970000      53.05870000
C       50.69310000      44.31070000      46.93860000
C       46.92340000      50.53130000      55.73690000
C       55.97250000      53.46660000      49.19120000
C       49.23530000      44.26920000      46.94050000
C       53.23010000      50.68580000      44.23310000
C       46.95300000      49.36320000      44.20120000
C       53.43220000      49.13500000      55.78580000
C       44.15430000      53.52560000      50.71990000
C       56.23490000      46.98470000      50.66570000
C       43.83350000      46.69050000      49.31000000
C       50.73270000      44.21470000      53.05350000
C       49.16350000      55.90630000      53.38390000
C       50.70370000      55.87160000      46.93100000
C       46.62240000      53.76870000      55.21810000
C       55.49850000      46.66280000      53.81690000
C       53.92240000      55.42490000      46.67490000
C       53.50860000      53.94850000      44.82210000
C       46.59500000      46.16160000      45.05040000
C       53.40410000      46.29690000      54.98470000
C       44.96830000      46.82410000      46.56330000
C       55.21940000      53.40350000      46.34300000
C       44.97890000      53.30100000      53.57500000
C       46.30930000      55.29140000      53.33340000
C       54.00690000      44.84830000      53.21180000
C       46.46870000      44.96410000      47.21030000
C       46.60240000      46.28050000      55.01190000
C       55.22120000      53.33330000      53.86100000
C       53.47800000      45.02280000      47.16390000
C       53.27170000      46.39900000      45.12260000
C       46.80760000      53.69100000      44.64890000
C       53.30270000      53.81770000      55.17870000
C       44.78660000      53.51300000      46.00250000
C       55.20060000      46.69790000      46.48690000
C       44.44960000      46.57770000      53.94040000
C       45.98670000      44.83670000      53.24850000
C       53.85510000      55.20340000      53.32880000
C       46.43290000      55.09930000      46.58050000
C       53.55990000      56.49520000      47.43600000
C       47.36890000      53.36900000      56.27930000
C       56.57490000      47.45380000      53.51860000
C       46.84170000      56.29990000      52.55720000
C       53.87360000      43.68000000      52.46160000
C       47.05430000      44.13600000      48.21390000
C       52.97900000      53.78490000      43.58000000
C       47.14270000      46.25840000      43.81630000
C       52.59550000      46.79650000      55.97140000
C       43.95350000      47.64090000      47.02390000
C       56.22540000      52.63400000      46.86460000
C       44.01840000      52.51450000      52.99670000
C       52.89690000      44.18820000      48.17300000
C       47.41790000      46.78430000      55.98790000
C       56.32600000      52.62710000      53.50900000
C       46.11440000      43.67160000      52.49620000
C       53.49150000      56.29690000      52.60810000
C       46.94290000      56.11160000      47.35160000
C       52.49200000      46.92470000      44.10660000
C       47.66040000      53.08990000      43.73800000
C       52.55340000      53.42710000      56.24150000
C       43.57150000      52.92990000      46.16470000
C       56.30370000      47.43980000      46.89500000
C       43.26310000      47.25450000      53.83170000
C       51.55500000      50.76680000      56.15300000
C       56.39660000      51.61080000      50.84450000
C       50.85030000      56.25700000      51.54310000
C       47.58860000      51.68960000      43.46740000
C       52.58020000      48.30180000      43.73200000
C       47.38760000      48.15960000      56.40530000
C       43.59560000      51.81860000      48.91790000
C       56.74680000      47.45550000      48.26230000
C       43.33980000      48.41440000      51.06640000
C       48.32250000      56.49230000      47.34680000
C       51.46880000      43.91500000      48.10140000
C       48.59580000      43.64160000      51.86630000
C       52.61400000      48.17360000      56.38790000
C       56.58810000      48.48100000      50.87880000
C       51.38820000      43.65640000      51.85410000
C       48.37320000      48.96130000      43.71220000
C       51.81160000      51.03800000      43.72510000
C       48.41500000      50.75750000      56.16470000
C       43.43790000      47.60490000      48.35040000
C       56.61700000      52.66130000      48.24460000
C       43.62010000      52.61750000      51.63580000
C       48.48280000      43.86710000      48.11510000
C       50.91120000      56.30340000      48.41020000
C       48.24860000      56.60380000      52.57750000
C       54.94060000      44.60690000      49.46400000
C       49.51690000      54.48700000      44.55110000
C       44.47160000      49.23080000      54.52500000
C       44.56470000      44.58940000      50.84680000
C       54.37070000      55.11810000      50.70540000
C       45.42410000      55.49840000      49.20000000
C       50.66550000      54.26850000      55.02720000
C       49.28050000      45.36070000      55.23370000
C       50.60500000      45.50520000      44.77030000
C       55.64020000      49.32310000      45.44500000
C       44.62360000      50.84990000      45.42880000
C       55.14140000      50.69370000      54.29510000
C       54.40610000      55.32470000      49.33830000
C       49.20200000      45.45030000      44.75580000
C       44.69960000      50.62560000      54.44020000
C       45.42170000      55.63270000      50.64040000
C       55.40760000      44.59450000      50.79470000
C       45.02720000      44.61480000      49.51330000
C       50.73240000      45.36320000      55.22990000
C       49.29130000      54.27700000      55.19460000
C       50.90920000      54.54610000      44.73200000
C       55.53320000      50.76140000      45.41520000
C       44.76970000      49.44610000      45.54570000
C       55.35150000      49.32520000      54.30780000
C       47.33180000      57.17690000      49.25700000
C       49.33680000      47.18970000      56.99500000
C       57.33820000      49.38980000      47.27910000
C       52.04490000      56.13360000      50.71590000
C       47.25960000      43.29410000      51.70540000
C       53.57950000      43.13070000      50.50100000
C       50.40140000      47.56420000      43.42830000
C       49.79470000      52.40020000      43.29260000
C       50.70030000      51.94060000      56.02950000
C       43.26860000      49.09410000      52.35040000
C       56.28270000      50.76230000      52.02500000
C       43.48450000      51.12800000      47.63220000
C       46.38350000      43.11190000      50.54220000
C       49.26650000      51.93700000      56.06880000
C       57.27400000      50.73370000      47.27040000
C       52.72140000      43.31140000      51.67700000
C       47.33130000      57.24290000      50.60180000
C       52.07600000      56.21220000      49.28490000
C       51.14970000      52.32940000      43.56690000
C       49.02730000      47.65300000      43.59730000
C       50.67830000      47.19240000      56.99130000
C       43.25130000      50.47240000      52.40960000
C       56.41190000      49.33570000      52.04520000
C       43.32380000      49.75860000      47.56150000
