240
Lattice="100.0 0.0 0.0 0.0 100.0 0.0 0.0 0.0 100.0" Properties=species:S:1:pos:R:3 name=C-2509655-3548-1385 pressure=-0.0604708912692826 energy=-1865.40672624571 spacegroup=Oh times_found=1 pbc="T T T"
C       54.60740000      52.83750000      45.39300000
C       52.83750000      45.39330000      54.60770000
C       45.39260000      54.60730000      52.83710000
C       54.60680000      47.16260000      54.60770000
C       45.39250000      52.83810000      54.60660000
C       45.39320000      47.16180000      45.39280000
C       52.83810000      54.60680000      45.39270000
C       47.16260000      45.39250000      45.39300000
C       47.16180000      54.60750000      54.60650000
C       45.39310000      45.39260000      47.16220000
C       54.60730000      54.60690000      47.16220000
C       54.60690000      45.39320000      52.83850000
C       45.39320000      52.83740000      45.39230000
C       47.16190000      45.39320000      54.60730000
C       54.60690000      54.60740000      52.83780000
C       45.39260000      47.16250000      54.60700000
C       54.60680000      52.83820000      54.60720000
C       54.60750000      47.16190000      45.39340000
C       47.16250000      54.60670000      45.39230000
C       52.83820000      45.39250000      45.39350000
C       52.83740000      54.60750000      54.60700000
C       54.60740000      45.39270000      47.16290000
C       45.39310000      54.60680000      47.16150000
C       45.39270000      45.39310000      52.83780000
C       56.39080000      48.65280000      47.03270000
C       48.65260000      47.03260000      56.39070000
C       47.03220000      56.39050000      48.65230000
C       56.39040000      51.34730000      52.96820000
C       43.60920000      48.65320000      52.96750000
C       43.60960000      51.34670000      47.03160000
C       48.65340000      52.96740000      43.60910000
C       51.34750000      47.03160000      43.60970000
C       51.34650000      52.96840000      56.39050000
C       47.03210000      43.60950000      51.34730000
C       52.96770000      56.39070000      51.34670000
C       52.96800000      43.60930000      48.65370000
C       43.60960000      48.65270000      47.03180000
C       51.34660000      47.03260000      56.39090000
C       52.96790000      56.39050000      48.65270000
C       43.60920000      51.34720000      52.96730000
C       56.39040000      48.65330000      52.96840000
C       56.39080000      51.34680000      47.03250000
C       51.34740000      52.96740000      43.60930000
C       48.65350000      47.03160000      43.60950000
C       48.65250000      52.96840000      56.39030000
C       52.96780000      43.60950000      51.34770000
C       47.03200000      56.39070000      51.34630000
C       47.03230000      43.60930000      48.65330000
C       54.07790000      55.80480000      50.71460000
C       55.80440000      50.71520000      54.07840000
C       50.71440000      54.07850000      55.80440000
C       54.07810000      44.19530000      49.28590000
C       45.92200000      55.80460000      49.28440000
C       45.92200000      44.19530000      50.71500000
C       55.80500000      49.28490000      45.92250000
C       44.19560000      50.71440000      45.92150000
C       44.19500000      49.28550000      54.07770000
C       50.71530000      45.92150000      44.19570000
C       49.28560000      54.07760000      44.19490000
C       49.28480000      45.92240000      55.80500000
C       45.92190000      55.80470000      50.71410000
C       44.19500000      50.71510000      54.07750000
C       49.28470000      54.07850000      55.80430000
C       45.92210000      44.19520000      49.28540000
C       54.07800000      55.80470000      49.28500000
C       54.07800000      44.19540000      50.71560000
C       44.19560000      49.28480000      45.92160000
C       55.80500000      50.71450000      45.92230000
C       55.80440000      49.28560000      54.07850000
C       49.28560000      45.92150000      44.19560000
C       50.71520000      54.07760000      44.19500000
C       50.71440000      45.92240000      55.80510000
C       54.07760000      50.71530000      55.80500000
C       50.71450000      55.80500000      54.07760000
C       55.80460000      54.07810000      50.71490000
C       54.07840000      49.28480000      44.19560000
C       45.92240000      50.71430000      44.19490000
C       45.92160000      49.28560000      55.80450000
C       50.71520000      44.19500000      45.92250000
C       49.28540000      55.80440000      45.92150000
C       49.28490000      44.19560000      54.07840000
C       55.80480000      45.92200000      49.28590000
C       44.19530000      54.07790000      49.28440000
C       44.19530000      45.92200000      50.71470000
C       45.92160000      50.71520000      55.80440000
C       49.28480000      55.80500000      54.07750000
C       44.19520000      54.07800000      50.71410000
C       45.92240000      49.28470000      44.19500000
C       54.07840000      50.71440000      44.19550000
C       54.07760000      49.28570000      55.80510000
C       49.28550000      44.19500000      45.92240000
C       50.71510000      55.80440000      45.92160000
C       50.71460000      44.19560000      54.07850000
C       44.19540000      45.92190000      49.28510000
C       55.80470000      54.07800000      49.28530000
C       55.80470000      45.92210000      50.71560000
C       53.45820000      44.80000000      46.54270000
C       44.80000000      46.54230000      53.45780000
C       46.54240000      53.45750000      44.79970000
C       53.45760000      55.20010000      53.45780000
C       46.54190000      44.80050000      53.45810000
C       46.54230000      55.19950000      46.54140000
C       44.80050000      53.45760000      46.54140000
C       55.20000000      46.54180000      46.54270000
C       55.19950000      53.45820000      53.45800000
C       46.54170000      46.54250000      55.19980000
C       53.45750000      53.45840000      55.19970000
C       53.45830000      46.54170000      44.80080000
C       46.54240000      44.79990000      46.54220000
C       55.19950000      46.54240000      53.45860000
C       53.45830000      53.45750000      44.80020000
C       46.54180000      55.20000000      53.45730000
C       53.45770000      44.80050000      53.45860000
C       53.45810000      55.19950000      46.54190000
C       55.20000000      53.45770000      46.54220000
C       44.80050000      46.54180000      46.54200000
C       44.80000000      53.45820000      53.45730000
C       53.45760000      46.54250000      55.20030000
C       46.54170000      53.45830000      55.19920000
C       46.54250000      46.54160000      44.80030000
C       43.87840000      52.71080000      52.71000000
C       52.71100000      52.71020000      43.87860000
C       52.71050000      43.87890000      52.71130000
C       43.87890000      47.28910000      47.28910000
C       56.12150000      52.71050000      47.28960000
C       56.12120000      47.28960000      52.71130000
C       52.71020000      47.28990000      56.12180000
C       47.28890000      52.71110000      56.12090000
C       47.28980000      47.28890000      43.87870000
C       52.71080000      56.12120000      47.28910000
C       47.28960000      43.87840000      47.28970000
C       47.28910000      56.12150000      52.70990000
C       56.12110000      52.71090000      52.71090000
C       47.28980000      52.71010000      43.87820000
C       47.28920000      43.87880000      52.71090000
C       56.12160000      47.28920000      47.29000000
C       43.87880000      52.71040000      47.28870000
C       43.87850000      47.28950000      52.71040000
C       47.28900000      47.28980000      56.12140000
C       52.71020000      52.71110000      56.12130000
C       52.71110000      47.28890000      43.87910000
C       47.28950000      56.12110000      47.28870000
C       52.71090000      43.87850000      47.29010000
C       52.71040000      56.12160000      52.71030000
C       48.53550000      45.08400000      45.08470000
C       45.08460000      45.08430000      48.53510000
C       45.08480000      48.53460000      45.08420000
C       48.53470000      54.91590000      54.91510000
C       51.46460000      45.08480000      54.91610000
C       51.46520000      54.91520000      45.08410000
C       45.08430000      54.91560000      51.46420000
C       54.91550000      45.08460000      51.46570000
C       54.91560000      54.91550000      48.53500000
C       45.08410000      51.46530000      54.91510000
C       54.91520000      48.53550000      54.91600000
C       54.91590000      51.46460000      45.08470000
C       51.46530000      45.08410000      45.08490000
C       54.91570000      45.08440000      48.53580000
C       54.91590000      48.53470000      45.08490000
C       51.46450000      54.91600000      54.91530000
C       48.53480000      45.08480000      54.91590000
C       48.53540000      54.91520000      45.08390000
C       54.91540000      54.91570000      51.46490000
C       45.08440000      45.08450000      51.46500000
C       45.08450000      54.91540000      48.53430000
C       54.91520000      51.46540000      54.91580000
C       45.08410000      48.53540000      54.91530000
C       45.08480000      51.46450000      45.08400000
C       50.70000000      43.17550000      48.25310000
C       43.17560000      48.25250000      50.69950000
C       48.25300000      50.69930000      43.17540000
C       50.69960000      56.82450000      51.74700000
C       49.30010000      43.17570000      51.74790000
C       49.30020000      56.82430000      48.25200000
C       43.17560000      51.74730000      49.29950000
C       56.82450000      48.25260000      49.30080000
C       56.82430000      51.74760000      50.70020000
C       48.25210000      49.30070000      56.82430000
C       51.74690000      50.70040000      56.82450000
C       51.74790000      49.29970000      43.17580000
C       49.30040000      43.17550000      48.25300000
C       56.82440000      48.25270000      50.70050000
C       51.74790000      50.69930000      43.17570000
C       49.30000000      56.82450000      51.74690000
C       50.69980000      43.17570000      51.74800000
C       50.69990000      56.82430000      48.25210000
C       56.82440000      51.74750000      49.30050000
C       43.17570000      48.25240000      49.29980000
C       43.17550000      51.74740000      50.69920000
C       51.74700000      49.30070000      56.82460000
C       48.25210000      50.70030000      56.82420000
C       48.25310000      49.29960000      43.17550000
C       43.60950000      47.03200000      48.65280000
C       47.03260000      48.65250000      43.60930000
C       48.65330000      43.60920000      47.03250000
C       43.60930000      52.96790000      51.34630000
C       56.39050000      47.03230000      51.34770000
C       56.39070000      52.96780000      48.65320000
C       47.03170000      51.34750000      56.39030000
C       52.96740000      48.65350000      56.39090000
C       52.96830000      51.34650000      43.60950000
C       48.65270000      56.39080000      52.96730000
C       51.34680000      43.60960000      52.96850000
C       51.34720000      56.39040000      47.03170000
C       56.39070000      47.03210000      48.65370000
C       52.96830000      48.65250000      43.60970000
C       51.34730000      43.60920000      47.03270000
C       56.39050000      52.96800000      51.34720000
C       43.60930000      47.03220000      51.34680000
C       43.60950000      52.96770000      48.65230000
C       52.96740000      51.34750000      56.39070000
C       47.03170000      48.65350000      56.39050000
C       47.03260000      51.34650000      43.60910000
C       51.34670000      56.39080000      52.96750000
C       48.65280000      43.60960000      52.96830000
C       48.65320000      56.39040000      47.03150000
C       51.74760000      43.17560000      49.30080000
C       43.17550000      49.30030000      51.74700000
C       49.30070000      51.74690000      43.17540000
C       51.74730000      56.82450000      50.69940000
C       48.25260000      43.17560000      50.70020000
C       48.25250000      56.82430000      49.29950000
C       43.17570000      50.69960000      48.25200000
C       56.82450000      49.30010000      48.25310000
C       56.82430000      50.70000000      51.74790000
C       49.29970000      48.25310000      56.82450000
C       50.69930000      51.74800000      56.82430000
C       50.70030000      48.25200000      43.17580000
C       48.25270000      43.17550000      49.30060000
C       56.82430000      49.30040000      51.74800000
C       50.70030000      51.74690000      43.17550000
C       48.25240000      56.82440000      50.69920000
C       51.74750000      43.17570000      50.70050000
C       51.74740000      56.82440000      49.29980000
C       56.82450000      50.69970000      48.25300000
C       43.17570000      49.30000000      48.25210000
C       43.17550000      50.69990000      51.74690000
C       50.69930000      48.25310000      56.82460000
C       49.29970000      51.74800000      56.82420000
C       49.30070000      48.25200000      43.17570000
