240
Lattice="100.0 0.0 0.0 0.0 100.0 0.0 0.0 0.0 100.0" Properties=species:S:1:pos:R:3 name=C-2509655-3548-106 pressure=0.0120906308973759 spacegroup=C1 times_found=1 energy=-1768.5765279737 pbc="T T T"
C       56.02280000      47.41910000      51.57540000
C       51.31000000      56.88450000      47.39210000
C       47.51330000      51.88850000      56.47550000
C       43.00640000      52.76730000      51.50430000
C       44.06560000      47.48400000      48.38650000
C       56.50930000      52.51390000      48.28580000
C       48.08150000      43.17620000      47.57100000
C       48.45060000      56.30240000      52.61360000
C       51.95420000      43.18940000      52.43670000
C       52.68990000      48.23220000      57.23890000
C       52.59980000      51.67950000      43.89880000
C       47.42690000      48.30600000      42.86850000
C       56.53720000      47.41990000      48.23440000
C       51.80500000      56.53660000      52.50580000
C       47.38460000      51.66790000      42.83260000
C       43.67420000      52.64010000      48.15550000
C       43.66330000      47.59800000      51.73020000
C       56.00790000      52.45440000      51.62470000
C       48.63640000      43.08450000      52.74070000
C       47.98030000      56.81740000      47.55000000
C       51.40180000      42.99440000      47.27530000
C       52.63850000      48.29560000      43.84630000
C       52.70610000      51.61230000      57.26550000
C       47.56930000      48.56010000      56.05290000
C       55.02130000      50.62800000      54.70710000
C       54.13830000      55.11790000      50.36920000
C       51.12980000      54.15830000      55.14390000
C       44.93340000      49.74700000      54.12100000
C       44.92270000      50.71490000      45.22700000
C       55.55160000      49.27250000      45.49420000
C       45.97570000      44.92660000      51.16090000
C       45.35340000      55.49340000      49.41650000
C       54.14110000      44.80750000      48.80730000
C       49.67310000      45.80160000      54.81790000
C       48.84360000      54.20300000      45.11310000
C       50.42600000      45.66420000      45.12060000
C       55.53960000      50.70970000      45.50980000
C       54.07520000      55.07200000      48.90740000
C       50.32110000      54.24550000      45.20980000
C       44.96520000      49.27340000      45.25350000
C       44.90510000      51.21250000      54.10280000
C       55.03610000      49.18650000      54.70710000
C       45.89410000      44.82630000      49.70600000
C       45.36210000      55.38170000      50.85100000
C       54.20060000      44.74040000      50.26930000
C       48.95500000      45.74780000      45.08360000
C       49.66490000      54.23440000      55.15280000
C       51.14180000      45.80730000      54.90770000
C       46.95520000      57.30150000      49.56520000
C       49.34600000      47.30060000      56.64610000
C       57.37310000      49.27860000      47.11930000
C       52.83420000      42.64640000      49.03760000
C       52.84370000      57.19250000      50.54710000
C       47.20180000      42.71890000      50.98090000
C       50.80010000      52.87510000      57.30980000
C       50.74930000      47.19980000      43.34090000
C       49.34460000      52.80410000      43.11940000
C       43.50540000      50.67610000      47.07370000
C       42.88920000      49.48960000      52.79840000
C       56.45650000      50.62440000      52.86670000
C       47.08820000      57.05560000      50.94480000
C       49.39190000      47.15900000      43.08460000
C       56.45830000      49.22580000      52.85590000
C       52.93780000      42.63520000      50.42160000
C       52.74960000      57.21570000      49.15960000
C       47.09390000      42.68300000      49.59770000
C       50.69590000      52.75720000      43.40550000
C       50.68810000      47.17340000      56.95040000
C       49.42250000      52.93640000      57.21460000
C       42.78770000      50.87050000      52.76520000
C       43.58290000      49.28220000      47.11830000
C       57.36540000      50.68880000      47.13270000
C       55.48800000      51.36880000      53.59440000
C       53.56630000      56.12930000      51.11650000
C       51.63920000      53.47630000      56.29870000
C       43.96360000      48.95680000      53.53250000
C       44.41930000      51.46990000      46.31990000
C       56.44600000      48.59370000      46.29140000
C       46.64220000      43.80680000      51.73890000
C       46.13890000      56.43410000      48.80780000
C       53.42130000      43.70470000      48.25340000
C       48.80880000      46.71010000      55.47700000
C       48.40190000      53.44930000      43.98580000
C       51.32010000      46.53890000      44.46080000
C       56.42770000      51.38000000      46.32010000
C       53.33660000      56.16770000      48.36560000
C       51.24110000      53.39430000      44.54930000
C       44.54620000      48.53420000      46.39050000
C       43.74330000      51.70590000      53.44410000
C       55.49680000      48.46050000      53.57440000
C       46.40230000      43.75490000      48.99720000
C       46.41020000      55.97250000      51.59600000
C       53.65260000      43.70150000      51.00080000
C       48.47970000      46.51970000      43.98480000
C       48.88350000      53.67080000      56.14390000
C       51.60330000      46.50820000      56.06300000
C       49.54650000      50.71980000      41.86280000
C       42.05860000      49.25960000      50.55850000
C       50.66690000      41.57820000      49.23630000
C       50.99230000      49.26840000      42.11300000
C       50.60050000      50.68310000      58.35580000
C       49.13000000      49.29260000      57.98120000
C       57.73630000      50.68310000      50.85240000
C       57.97920000      49.22570000      49.41960000
C       42.18700000      50.69570000      49.07820000
C       49.14420000      58.21650000      49.44570000
C       49.34370000      41.60650000      50.80650000
C       50.67530000      58.16540000      50.83020000
C       49.15210000      50.73580000      58.12670000
C       42.30360000      49.23760000      49.13320000
C       50.78780000      41.61200000      50.69810000
C       50.56680000      49.23430000      58.24330000
C       50.98100000      50.72470000      42.12900000
C       49.55670000      49.26130000      41.85100000
C       57.97420000      50.70180000      49.43300000
C       57.73960000      49.21620000      50.83900000
C       41.91580000      50.71970000      50.50240000
C       49.23520000      58.09050000      50.91050000
C       49.22340000      41.61600000      49.34340000
C       50.58240000      58.28160000      49.36870000
C       55.55560000      46.64910000      50.48930000
C       50.26590000      56.18800000      46.70820000
C       46.73610000      51.04560000      55.65770000
C       43.64690000      53.61670000      50.56570000
C       44.55330000      46.73440000      49.47230000
C       55.64260000      53.24340000      49.12570000
C       48.95000000      43.86900000      46.70250000
C       49.51720000      55.71050000      53.32530000
C       51.10400000      43.92350000      53.29340000
C       53.61180000      49.21420000      56.79270000
C       53.53570000      50.70670000      44.25710000
C       46.46160000      49.28010000      43.22790000
C       55.67860000      46.66170000      49.05800000
C       50.95140000      55.75650000      53.32060000
C       46.43620000      50.68390000      43.20730000
C       43.91830000      53.58040000      49.16590000
C       44.46880000      46.78910000      50.90190000
C       55.52420000      53.23380000      50.55610000
C       49.68940000      43.80600000      53.38090000
C       48.84730000      56.06640000      46.73890000
C       50.35990000      43.70210000      46.60410000
C       53.55200000      49.27630000      44.23580000
C       53.59520000      50.61730000      56.78450000
C       46.78540000      49.61530000      55.54690000
C       54.00230000      47.18300000      55.58660000
C       54.65810000      53.19370000      46.85470000
C       47.46640000      54.42160000      53.75260000
C       46.87250000      53.28470000      54.57940000
C       46.06800000      47.27890000      44.48040000
C       53.82580000      52.66450000      45.70490000
C       45.84640000      46.16560000      47.46700000
C       44.57280000      54.00470000      52.75390000
C       54.24130000      46.11100000      52.48940000
C       53.18500000      45.20000000      53.03190000
C       52.34490000      55.10030000      46.28280000
C       46.89250000      45.21180000      46.94140000
C       53.87380000      47.28510000      45.63590000
C       54.20320000      53.71450000      52.57280000
C       46.65660000      54.87500000      46.84440000
C       45.97680000      52.71120000      44.39970000
C       46.43820000      47.60850000      54.17000000
C       53.94160000      52.63300000      55.55360000
C       45.57760000      46.99060000      53.09730000
C       45.47700000      54.00570000      47.30130000
C       54.70380000      46.73990000      46.78220000
C       52.45050000      44.76900000      46.15960000
C       53.12550000      54.60030000      53.13960000
C       47.61990000      44.93630000      53.77460000
C       46.02030000      48.98570000      54.53970000
C       54.68350000      45.98230000      48.17300000
C       48.08620000      54.92250000      46.12630000
C       54.34660000      51.29420000      55.71640000
C       54.40960000      48.56670000      45.12610000
C       45.59020000      51.37090000      44.20180000
C       44.90430000      54.44810000      48.59800000
C       45.49710000      46.14060000      51.77060000
C       54.56150000      54.06070000      51.17180000
C       51.06480000      44.73770000      45.89470000
C       51.78780000      54.70050000      53.97540000
C       49.00810000      44.89390000      54.03980000
C       45.64720000      48.60390000      44.24980000
C       54.60870000      45.79310000      51.08670000
C       48.88180000      54.71080000      54.10040000
C       54.38350000      51.40710000      45.16250000
C       54.38960000      48.52770000      55.74250000
C       46.06020000      51.90210000      54.63160000
C       44.52700000      54.44390000      51.41140000
C       45.49400000      45.87080000      48.87240000
C       54.63400000      53.91880000      48.25620000
C       51.85770000      45.09000000      53.85780000
C       50.96030000      55.14410000      46.01270000
C       48.22790000      45.05320000      46.13270000
C       57.47880000      48.51340000      48.34630000
C       48.10130000      57.63740000      48.74260000
C       48.56200000      48.42660000      57.06040000
C       42.93860000      51.41540000      48.15520000
C       42.67810000      48.64560000      51.63410000
C       56.90870000      51.35900000      51.72750000
C       51.58980000      42.19820000      48.42200000
C       51.72140000      57.48740000      51.42500000
C       48.43600000      42.26110000      51.60980000
C       51.43340000      51.68280000      57.86600000
C       51.56020000      48.29740000      42.92770000
C       48.72300000      51.70080000      42.39610000
C       56.91550000      48.51850000      51.70070000
C       48.32940000      57.31490000      51.61170000
C       48.74940000      48.26910000      42.38920000
C       42.34880000      51.52160000      51.53960000
C       43.15440000      48.57120000      48.27690000
C       57.46470000      51.43010000      48.37440000
C       51.83790000      42.28370000      51.31200000
C       51.50900000      57.67660000      48.54280000
C       48.18410000      42.29270000      48.71510000
C       51.52700000      51.68240000      42.97390000
C       51.35480000      48.23740000      57.69190000
C       48.56420000      51.79020000      57.45380000
C       47.22570000      47.12780000      43.75610000
C       44.89940000      47.33780000      47.18530000
C       46.93020000      44.00120000      47.71360000
C       52.56740000      52.80750000      44.83630000
C       52.87730000      47.03870000      56.36070000
C       47.62790000      53.12800000      55.78210000
C       55.92770000      52.52180000      46.98680000
C       55.17590000      47.27160000      52.76520000
C       43.69610000      52.95130000      52.80260000
C       52.55310000      56.08620000      47.20390000
C       53.12240000      43.98210000      52.27730000
C       47.23500000      55.49450000      52.71150000
C       47.56720000      47.40910000      55.13770000
C       44.35690000      47.72300000      52.96470000
C       47.40470000      43.89600000      52.91150000
C       52.87680000      52.81050000      56.40400000
C       52.63060000      47.14280000      44.75410000
C       47.15010000      52.85930000      43.69880000
C       55.15710000      52.57010000      52.81970000
C       55.96000000      47.43060000      46.93350000
C       44.61250000      52.75250000      47.02850000
C       53.01680000      55.80480000      52.37820000
C       52.65040000      43.78220000      47.08380000
C       46.74280000      56.10740000      47.58280000
