240
Lattice="100.0 0.0 0.0 0.0 100.0 0.0 0.0 0.0 100.0" Properties=species:S:1:pos:R:3 name=C-2509655-3548-586 pressure=-13.1804195580322 spacegroup=C1 times_found=1 energy=-1764.8535283592 pbc="T T T"
C       49.21900000      53.67710000      43.53660000
C       43.43720000      49.14990000      53.65200000
C       53.61480000      43.49770000      49.20350000
C       48.98690000      46.34210000      56.70150000
C       50.72890000      46.38820000      43.66790000
C       50.85150000      53.67970000      56.48130000
C       43.69160000      50.66370000      46.38900000
C       56.30040000      50.63550000      53.55230000
C       56.95110000      49.33000000      46.16500000
C       53.79860000      56.78400000      50.49950000
C       46.24440000      56.75200000      49.51540000
C       46.18730000      43.00130000      50.76910000
C       50.66890000      53.64830000      43.68420000
C       56.42430000      49.18110000      53.59790000
C       46.18750000      42.97510000      49.29880000
C       50.44180000      46.26030000      56.72650000
C       49.28090000      46.33040000      43.50120000
C       49.39470000      53.68240000      56.37790000
C       56.93060000      50.79970000      46.17860000
C       43.29290000      50.61660000      53.71920000
C       43.69310000      49.18900000      46.36720000
C       46.34820000      56.71040000      50.97100000
C       53.69300000      56.75350000      49.04430000
C       53.55360000      43.65060000      50.65580000
C       43.34190000      51.64710000      52.79830000
C       52.64080000      43.76970000      51.68450000
C       51.73230000      52.77560000      43.78380000
C       43.86210000      48.14660000      47.24600000
C       56.61220000      48.20750000      52.66190000
C       56.84850000      51.79720000      47.13940000
C       52.68880000      56.86670000      48.12380000
C       47.34750000      56.82780000      51.89560000
C       47.13810000      43.02400000      48.29340000
C       51.49700000      47.16320000      56.80200000
C       48.28630000      47.22600000      43.25830000
C       48.31440000      52.82720000      56.33460000
C       56.20670000      51.67660000      52.65080000
C       47.13430000      43.10000000      51.77820000
C       48.24350000      52.76160000      43.29600000
C       56.91080000      48.31960000      47.11060000
C       43.68230000      48.14420000      52.74390000
C       43.87890000      51.67280000      47.30350000
C       47.12850000      56.86030000      48.44620000
C       52.90810000      56.87500000      51.56480000
C       52.68930000      43.30270000      48.22020000
C       48.04330000      47.32090000      56.81930000
C       51.77350000      47.28150000      43.78190000
C       51.80230000      52.71450000      56.64590000
C       45.63070000      44.55350000      52.98160000
C       52.90750000      45.97610000      45.63980000
C       45.63360000      52.89650000      45.94550000
C       45.72690000      55.30380000      47.25840000
C       54.30360000      55.29030000      52.72520000
C       53.64290000      45.29680000      46.85390000
C       53.15870000      53.62080000      54.62070000
C       46.84800000      53.65930000      45.29820000
C       46.71430000      46.33600000      54.81790000
C       45.47600000      47.01740000      54.13890000
C       55.39390000      47.10710000      45.67710000
C       54.34440000      52.84310000      53.93000000
C       53.90930000      45.65410000      52.82570000
C       46.87670000      46.26530000      45.22030000
C       55.36080000      53.00770000      45.67250000
C       53.60500000      54.81770000      46.81300000
C       46.44630000      54.77890000      53.21870000
C       45.69800000      44.50790000      47.05260000
C       47.18950000      54.08420000      54.43080000
C       52.85980000      54.10420000      45.62740000
C       52.67780000      45.74210000      55.25780000
C       54.58650000      46.86110000      53.58210000
C       45.63500000      46.97940000      45.86710000
C       44.73460000      52.88850000      54.31800000
C       55.25430000      50.51010000      54.52960000
C       54.72630000      55.66530000      50.40400000
C       50.98730000      54.58430000      55.34880000
C       55.97830000      49.34000000      45.08460000
C       44.29080000      49.20180000      54.80740000
C       44.53070000      50.67880000      45.22290000
C       54.52950000      44.62210000      49.07480000
C       45.09090000      43.95510000      50.73670000
C       45.33040000      55.62270000      49.60090000
C       50.58330000      45.39090000      44.69150000
C       48.92100000      45.45420000      55.54720000
C       49.06540000      54.58610000      44.66150000
C       44.16450000      50.64880000      54.87730000
C       45.49660000      55.52920000      51.03180000
C       49.53930000      54.64920000      55.32570000
C       44.53130000      49.21470000      45.20070000
C       55.28970000      49.06080000      54.50230000
C       55.96580000      50.78010000      45.09050000
C       45.09860000      43.93720000      49.29550000
C       54.53980000      44.68820000      50.52330000
C       54.55930000      55.58170000      48.97420000
C       49.13350000      45.41040000      44.61610000
C       50.35570000      45.31050000      55.62650000
C       50.51480000      54.63750000      44.71460000
C       46.83160000      43.94670000      52.90300000
C       52.90810000      47.08900000      44.70390000
C       44.77350000      52.81660000      47.11390000
C       46.85940000      56.02250000      47.30120000
C       53.17600000      56.01770000      52.69450000
C       52.79800000      44.20110000      47.14670000
C       52.85690000      52.78600000      55.72170000
C       47.13500000      52.85840000      44.16460000
C       46.97860000      47.19830000      55.90740000
C       44.59760000      47.01160000      52.98250000
C       56.05600000      47.18420000      46.84420000
C       55.27560000      52.80320000      52.81590000
C       52.79460000      44.72270000      52.79370000
C       47.16700000      47.09530000      44.10930000
C       55.99470000      52.92230000      46.85830000
C       52.76010000      55.91510000      47.09320000
C       47.28330000      55.87930000      52.93210000
C       46.87530000      43.86560000      47.14690000
C       47.16890000      53.00240000      55.40910000
C       52.87110000      52.98870000      44.69600000
C       52.63560000      46.88480000      55.96000000
C       55.69670000      47.14680000      52.75340000
C       44.74370000      46.99560000      47.02000000
C       44.14020000      52.79740000      53.11530000
C       44.47270000      53.52260000      51.92930000
C       51.57090000      44.54940000      53.55370000
C       53.70540000      51.80740000      44.48630000
C       44.53590000      46.18570000      48.22650000
C       55.71480000      46.48560000      51.52190000
C       55.64330000      53.61210000      48.05810000
C       51.51350000      55.87500000      46.46850000
C       48.53070000      55.85030000      53.55580000
C       48.08510000      44.19330000      46.45890000
C       53.38850000      48.06570000      55.68160000
C       46.43530000      48.29040000      44.03400000
C       46.33540000      51.82580000      55.66380000
C       55.45970000      53.57050000      51.59930000
C       48.02000000      44.32560000      53.59820000
C       46.42090000      51.65250000      44.06970000
C       55.73610000      46.48670000      48.04970000
C       44.45190000      46.20200000      51.77370000
C       44.62560000      53.54660000      48.36490000
C       48.04070000      55.76430000      46.54250000
C       51.99330000      55.75740000      53.45090000
C       51.56960000      44.19500000      46.48030000
C       46.26840000      48.40580000      55.90980000
C       53.72510000      48.28290000      44.49500000
C       53.48470000      51.53670000      55.71900000
C       50.70990000      42.40060000      50.78420000
C       50.84230000      50.74630000      42.53860000
C       42.59480000      50.62410000      50.68090000
C       50.69840000      57.94200000      49.24590000
C       49.32620000      57.92410000      50.77220000
C       49.25020000      42.18850000      49.32970000
C       50.61610000      49.31040000      57.77940000
C       49.40680000      49.27820000      42.28020000
C       49.20390000      50.83470000      57.67320000
C       42.71820000      49.14900000      49.23740000
C       57.71110000      49.30940000      50.68770000
C       57.66290000      50.79730000      49.26350000
C       49.26760000      42.30010000      50.79710000
C       49.39450000      50.74230000      42.28460000
C       57.56050000      50.77380000      50.70640000
C       49.24860000      57.90580000      49.30400000
C       50.77690000      57.91280000      50.71460000
C       50.70300000      42.23360000      49.32050000
C       49.14760000      49.38390000      57.78500000
C       50.85410000      49.29750000      42.53570000
C       50.66970000      50.76150000      57.74350000
C       57.76050000      49.32940000      49.23430000
C       42.63820000      49.14880000      50.68470000
C       42.69960000      50.62080000      49.23770000
C       56.78040000      51.72620000      51.33590000
C       51.53770000      57.26190000      51.67450000
C       51.74110000      51.36470000      57.14150000
C       57.19630000      48.29580000      48.49850000
C       43.25910000      48.12840000      51.38160000
C       43.39020000      51.65340000      48.63620000
C       51.33970000      42.80680000      48.25010000
C       48.53560000      42.89120000      51.80460000
C       48.49540000      57.25420000      48.33780000
C       51.81980000      48.61510000      43.24980000
C       48.08550000      48.69940000      57.25050000
C       48.29220000      51.42340000      42.76460000
C       43.12690000      51.67030000      51.40390000
C       48.70960000      57.30280000      51.82870000
C       48.23810000      51.53340000      56.95730000
C       43.36780000      48.12660000      48.57880000
C       57.12290000      48.24200000      51.31660000
C       57.07560000      51.81230000      48.53970000
C       48.52590000      42.74620000      48.28350000
C       51.32640000      43.19630000      51.73220000
C       51.32140000      57.33070000      48.18800000
C       48.31500000      48.57260000      42.74810000
C       51.59210000      48.54290000      57.15780000
C       51.79850000      51.44360000      43.25050000
C       49.14830000      43.65570000      52.90280000
C       52.96830000      49.31190000      43.79930000
C       43.92610000      52.78180000      49.36250000
C       49.10460000      56.57900000      47.18460000
C       50.93140000      56.57410000      52.82150000
C       50.58550000      43.41970000      47.15820000
C       52.79120000      50.57400000      56.50530000
C       47.14070000      50.69800000      43.27720000
C       46.98470000      49.42800000      56.62030000
C       43.81610000      46.96390000      50.71400000
C       56.49650000      47.16360000      49.11790000
C       56.21540000      52.84900000      50.61060000
C       50.59020000      43.77670000      52.84080000
C       47.14930000      49.27100000      43.26560000
C       56.32570000      52.91140000      49.16850000
C       50.53920000      56.65370000      47.14850000
C       49.49730000      56.63450000      52.86710000
C       49.15230000      43.43910000      47.15080000
C       47.05590000      50.86100000      56.47020000
C       52.95970000      50.76480000      43.79650000
C       52.74630000      49.13960000      56.46940000
C       56.50730000      47.16080000      50.55100000
C       43.86280000      46.95670000      49.26390000
C       43.82710000      52.81420000      50.80200000
C       45.44680000      48.20050000      45.00980000
C       45.00370000      44.86160000      48.22840000
C       47.99710000      45.24820000      45.46610000
C       45.05530000      51.74530000      55.06400000
C       55.02370000      51.82750000      44.97820000
C       54.38590000      47.95920000      54.63050000
C       45.43580000      54.58000000      52.09570000
C       54.63650000      54.63700000      47.91100000
C       54.72070000      45.53700000      51.58470000
C       48.46260000      54.85320000      54.50370000
C       51.58470000      54.86430000      45.53680000
C       51.49890000      45.11530000      54.82660000
C       55.04420000      48.28190000      44.98370000
C       54.67840000      45.50050000      47.95620000
C       51.64700000      45.18770000      45.53040000
C       54.43040000      51.58840000      54.72270000
C       45.44160000      51.70270000      45.05580000
C       45.26530000      48.24850000      54.96320000
C       54.91690000      54.85500000      51.54130000
C       45.13920000      54.83820000      48.44600000
C       44.95280000      44.88760000      51.78990000
C       52.08400000      54.69550000      54.43810000
C       47.94790000      54.71050000      45.54040000
C       47.84880000      45.33790000      54.61830000
