240
Lattice="100.0 0.0 0.0 0.0 100.0 0.0 0.0 0.0 100.0" Properties=species:S:1:pos:R:3 name=C-2509655-3548-660 pressure=-256.904671921801 spacegroup=C1 times_found=1 energy=-1756.46478439705 pbc="T T T"
C       48.34350000      55.59830000      49.32510000
C       55.68120000      49.27700000      48.34950000
C       49.30040000      48.31280000      55.58450000
C       51.81390000      55.70390000      50.69630000
C       51.64450000      44.26580000      49.24090000
C       48.18660000      44.26760000      50.60920000
C       44.19800000      49.26060000      51.68600000
C       44.32280000      50.58620000      48.24760000
C       55.72070000      50.66120000      51.81680000
C       50.71000000      48.32110000      44.25090000
C       50.68560000      51.79150000      55.71150000
C       49.30320000      51.74480000      44.19890000
C       49.36280000      55.62950000      48.27450000
C       48.25390000      49.33780000      55.60720000
C       55.65300000      48.23880000      49.38050000
C       50.79000000      55.74380000      51.74440000
C       49.21720000      44.27010000      51.64650000
C       50.61440000      44.29190000      48.20360000
C       51.72050000      49.37720000      44.30680000
C       48.29000000      50.69300000      44.20390000
C       51.72960000      50.76130000      55.75210000
C       44.17190000      48.21200000      50.66580000
C       55.75340000      51.69920000      50.78280000
C       44.30620000      51.63850000      49.26540000
C       49.52280000      54.19050000      44.69350000
C       54.10430000      44.69450000      49.51800000
C       44.67530000      49.52460000      54.13640000
C       50.36280000      54.28340000      55.14030000
C       50.46880000      45.85120000      44.66670000
C       49.64350000      45.81910000      55.01650000
C       45.69560000      44.82980000      50.28300000
C       45.85390000      55.01920000      49.67140000
C       54.30020000      55.11090000      50.35700000
C       55.24830000      49.55420000      45.88900000
C       55.13670000      50.33860000      54.30690000
C       44.92310000      50.24290000      45.76200000
C       44.77980000      54.09740000      49.51110000
C       49.47940000      44.74040000      54.10090000
C       54.19320000      49.72700000      44.94850000
C       55.35840000      54.17050000      50.51790000
C       44.62840000      45.75730000      50.43660000
C       55.04060000      45.75300000      49.69160000
C       50.30000000      44.90820000      45.72030000
C       49.67400000      55.10540000      45.77100000
C       50.53770000      55.34300000      54.20800000
C       45.75130000      49.66650000      55.05920000
C       54.19530000      50.50340000      55.36100000
C       45.84470000      50.40970000      44.68860000
C       51.79900000      56.20860000      49.29960000
C       56.21490000      49.25880000      51.81700000
C       49.28350000      51.78080000      56.19680000
C       48.35280000      56.13590000      50.72730000
C       48.18380000      43.73610000      49.22110000
C       51.68060000      43.80250000      50.67430000
C       43.77750000      49.19290000      48.23990000
C       43.78200000      50.69780000      51.72640000
C       56.16080000      50.70700000      48.31120000
C       50.70680000      51.82080000      43.73200000
C       50.70340000      48.32160000      56.12570000
C       49.28700000      48.25400000      43.76070000
C       49.36880000      56.19920000      51.78020000
C       51.75780000      49.33820000      56.20140000
C       56.19220000      51.73190000      49.34080000
C       50.74770000      56.19080000      48.26270000
C       49.23150000      43.75010000      48.18500000
C       50.65080000      43.81240000      51.69750000
C       48.25150000      49.26730000      43.75170000
C       51.72680000      50.77760000      43.78300000
C       48.25060000      50.72320000      56.17260000
C       43.82280000      51.71260000      50.69180000
C       56.19020000      48.22100000      50.76760000
C       43.71230000      48.14810000      49.25750000
C       44.12370000      49.12670000      45.72730000
C       49.67490000      45.81730000      43.54980000
C       45.66500000      44.04470000      49.15260000
C       55.89580000      49.19180000      54.33530000
C       56.35730000      50.35670000      45.86540000
C       43.57870000      50.35040000      54.17220000
C       50.76090000      45.80140000      55.81190000
C       50.32740000      54.24510000      43.58750000
C       49.21100000      54.30490000      55.89250000
C       54.12470000      43.58210000      50.31960000
C       54.32020000      55.89300000      49.22550000
C       45.83270000      55.82510000      50.78200000
C       45.80170000      49.60850000      43.57540000
C       43.52870000      45.72290000      49.62380000
C       49.18410000      44.10250000      45.66910000
C       54.18390000      49.67770000      56.44840000
C       45.72470000      50.78050000      55.86360000
C       54.23510000      50.84700000      44.15360000
C       55.83430000      45.70500000      50.81550000
C       43.67130000      54.15340000      50.31380000
C       56.45370000      54.17410000      49.69680000
C       50.28690000      43.63450000      54.14410000
C       49.71450000      56.43160000      54.20420000
C       50.79800000      55.89820000      45.73920000
C       44.84670000      46.99630000      51.06380000
C       47.07580000      51.05370000      44.89940000
C       50.96750000      45.01430000      46.97360000
C       54.93470000      47.00630000      49.02230000
C       55.12610000      52.94210000      51.16890000
C       44.99770000      52.85360000      48.88680000
C       52.97000000      51.15310000      55.12540000
C       52.94650000      49.04450000      45.04010000
C       47.00090000      48.99250000      54.92450000
C       48.84090000      44.95090000      52.86550000
C       49.01080000      54.95370000      47.02430000
C       51.18400000      55.10980000      52.98000000
C       51.09150000      47.09270000      44.91240000
C       45.04020000      50.91670000      47.01350000
C       46.94320000      44.95860000      50.95950000
C       48.96500000      47.06640000      54.89060000
C       51.05170000      53.04110000      55.03700000
C       48.90580000      52.94630000      44.90290000
C       55.03790000      51.02750000      53.06370000
C       44.88070000      48.88060000      52.90480000
C       55.01340000      48.91310000      47.12080000
C       52.87380000      44.92950000      48.87420000
C       47.10150000      54.89510000      48.99620000
C       53.06030000      55.01280000      51.04980000
C       56.41060000      48.71570000      53.09750000
C       48.74100000      53.06280000      56.39910000
C       53.07720000      56.41840000      48.75490000
C       43.58810000      48.65880000      46.95840000
C       43.60290000      51.22260000      53.10120000
C       56.35230000      51.21950000      46.93760000
C       51.22520000      53.20210000      43.53870000
C       51.22920000      47.04090000      56.32990000
C       48.78800000      46.87450000      43.56030000
C       47.07230000      56.34400000      51.25200000
C       46.90360000      43.52690000      48.68170000
C       53.05340000      43.60260000      51.19130000
C       53.12540000      48.79950000      56.44020000
C       56.40530000      53.10430000      48.82570000
C       48.83140000      56.42620000      53.14960000
C       46.87880000      48.74750000      43.57020000
C       53.00790000      51.31560000      43.60720000
C       46.96900000      51.25240000      56.39290000
C       43.65900000      53.09400000      51.19490000
C       56.37840000      46.93430000      51.29850000
C       43.50150000      46.77010000      48.73180000
C       51.27300000      56.40910000      46.97880000
C       48.70390000      43.55290000      46.89790000
C       51.15640000      43.63360000      53.07450000
C       46.55470000      56.34090000      52.62310000
C       56.15820000      52.58140000      46.48840000
C       52.60030000      46.52330000      56.33030000
C       53.60420000      56.41110000      47.38140000
C       53.50060000      43.80830000      52.54620000
C       46.36260000      43.53210000      47.30840000
C       43.84160000      52.57390000      53.54380000
C       43.61450000      47.28410000      46.45060000
C       56.38830000      47.34300000      53.63910000
C       47.43590000      46.41160000      43.75960000
C       47.37490000      53.59910000      56.38800000
C       52.58660000      53.71580000      43.66130000
C       52.64160000      56.42480000      46.42160000
C       46.43020000      52.62130000      56.39730000
C       56.36540000      46.39220000      52.66730000
C       47.46160000      56.32080000      53.65510000
C       52.51330000      43.84140000      53.52650000
C       47.33510000      43.55620000      46.35680000
C       53.50930000      52.69160000      43.64680000
C       46.44260000      47.38730000      43.78300000
C       53.63250000      47.43200000      56.33570000
C       43.62060000      46.25730000      47.36860000
C       56.19640000      53.56120000      47.47470000
C       43.87240000      53.55000000      52.55020000
C       45.94520000      47.96230000      52.93430000
C       48.00750000      52.94560000      45.98350000
C       52.91870000      46.00300000      47.96880000
C       53.94870000      47.99730000      47.06390000
C       54.04900000      52.04240000      53.08950000
C       46.05820000      51.90710000      46.99030000
C       52.06870000      53.06920000      54.05010000
C       51.99110000      47.05460000      45.99240000
C       47.95260000      47.02400000      53.89870000
C       46.92520000      45.98380000      51.93900000
C       47.06770000      53.89460000      47.99360000
C       53.08980000      54.02390000      52.06430000
C       52.96210000      48.03910000      46.04310000
C       46.06300000      52.88460000      47.96960000
C       47.91590000      46.00670000      52.90300000
C       46.96750000      47.99720000      53.91730000
C       53.03510000      52.08350000      54.07870000
C       47.04770000      51.95200000      45.98010000
C       54.07890000      53.00850000      52.10210000
C       45.92280000      46.97800000      51.96620000
C       53.92600000      47.00050000      48.02310000
C       51.95520000      46.03260000      46.97630000
C       48.03250000      53.92950000      47.00200000
C       52.10960000      54.05860000      53.03740000
C       44.23810000      47.76560000      45.16590000
C       47.12280000      45.03680000      44.20170000
C       45.06780000      44.13860000      47.80580000
C       55.77950000      47.84630000      54.92920000
C       55.67020000      52.92380000      45.13660000
C       44.31640000      52.88280000      54.90350000
C       52.11950000      45.23370000      55.71890000
C       52.81400000      55.16100000      44.08510000
C       47.86170000      54.90210000      55.79010000
C       54.87470000      44.24530000      52.87170000
C       54.89130000      55.79120000      47.87730000
C       45.26500000      55.73720000      52.13910000
C       45.09380000      47.04840000      44.28210000
C       44.03080000      44.80910000      47.13360000
C       47.84080000      44.19270000      45.08190000
C       55.08670000      47.18310000      55.95720000
C       45.15420000      52.12830000      55.76100000
C       54.79150000      52.20850000      44.27580000
C       55.73000000      45.11900000      52.15870000
C       44.37440000      54.90110000      52.86890000
C       55.76730000      54.94110000      47.15990000
C       52.84100000      44.34030000      54.87730000
C       47.20230000      55.94640000      55.10860000
C       52.14090000      55.82060000      45.12950000
C       43.80770000      44.28490000      45.80820000
C       44.73930000      45.65000000      44.23520000
C       45.35160000      43.29620000      44.42270000
C       56.59700000      44.46640000      54.66090000
C       55.82120000      55.31830000      45.79120000
C       44.34090000      55.28060000      54.25550000
C       55.59750000      45.85480000      56.19270000
C       55.17230000      54.79600000      43.56390000
C       44.77330000      54.72320000      56.52720000
C       54.23490000      44.28810000      55.24800000
C       54.62550000      56.86080000      44.51130000
C       45.88980000      56.23710000      55.62710000
C       45.75400000      44.65650000      44.14190000
C       43.51760000      45.18240000      44.77570000
C       44.45340000      43.11260000      45.31820000
C       54.68900000      44.83010000      56.47410000
C       45.47230000      55.73000000      56.88450000
C       54.13720000      55.68950000      43.86230000
C       56.77630000      45.35590000      55.56550000
C       44.31060000      54.26550000      55.26160000
C       55.72110000      54.32310000      44.78020000
C       55.23980000      44.18870000      54.24470000
C       44.86350000      56.52000000      54.70290000
C       55.54060000      56.67830000      45.39030000
