240
Lattice="100.0 0.0 0.0 0.0 100.0 0.0 0.0 0.0 100.0" Properties=species:S:1:pos:R:3 name=C-2509655-3548-136 pressure=-0.0358296722683077 spacegroup=Td times_found=1 energy=-1712.90084336563 pbc="T T T"
C       51.15010000      53.78320000      44.21440000
C       53.78310000      44.21430000      51.15000000
C       44.21440000      51.15010000      53.78320000
C       48.84990000      53.78310000      55.78570000
C       48.84980000      46.21690000      44.21430000
C       51.15020000      46.21670000      55.78560000
C       46.21680000      44.21440000      48.84980000
C       46.21690000      55.78570000      51.15030000
C       53.78320000      55.78570000      48.84990000
C       55.78560000      51.15020000      46.21680000
C       55.78570000      48.84970000      53.78310000
C       44.21430000      48.84990000      46.21690000
C       44.21440000      53.78320000      51.15030000
C       51.15020000      44.21430000      53.78310000
C       53.78310000      51.15020000      44.21430000
C       55.78570000      53.78320000      48.84980000
C       44.21430000      46.21690000      48.84980000
C       55.78570000      46.21680000      51.15010000
C       48.84980000      44.21440000      46.21680000
C       51.15020000      55.78570000      46.21690000
C       48.84990000      55.78560000      53.78330000
C       46.21690000      51.15010000      55.78570000
C       53.78320000      48.84970000      55.78560000
C       46.21680000      48.84990000      44.21430000
C       53.38250000      47.64650000      45.58010000
C       47.64650000      45.58010000      53.38250000
C       45.58020000      53.38260000      47.64650000
C       46.61750000      47.64640000      54.41980000
C       46.61740000      52.35360000      45.58020000
C       53.38260000      52.35350000      54.41980000
C       52.35350000      45.58020000      46.61740000
C       52.35360000      54.41980000      53.38260000
C       47.64640000      54.41990000      46.61750000
C       54.41990000      53.38250000      52.35360000
C       54.41980000      46.61750000      47.64640000
C       45.58020000      46.61740000      52.35350000
C       45.58020000      47.64640000      53.38260000
C       53.38250000      45.58020000      47.64640000
C       47.64640000      53.38260000      45.58020000
C       54.41980000      47.64650000      46.61740000
C       45.58020000      52.35360000      46.61750000
C       54.41990000      52.35350000      53.38250000
C       46.61740000      45.58020000      52.35350000
C       53.38260000      54.41980000      52.35360000
C       46.61750000      54.41990000      47.64650000
C       52.35360000      53.38250000      54.41990000
C       47.64650000      46.61740000      54.41980000
C       52.35350000      46.61750000      45.58010000
C       51.86450000      45.89060000      50.98420000
C       45.89060000      50.98430000      51.86460000
C       50.98420000      51.86460000      45.89060000
C       48.13550000      45.89060000      49.01570000
C       48.13550000      54.10940000      50.98430000
C       51.86450000      54.10940000      49.01580000
C       54.10940000      50.98430000      48.13550000
C       54.10940000      49.01570000      51.86450000
C       45.89060000      49.01580000      48.13550000
C       49.01580000      51.86450000      54.10940000
C       49.01570000      48.13560000      45.89060000
C       50.98430000      48.13540000      54.10930000
C       50.98430000      45.89060000      51.86440000
C       51.86450000      50.98430000      45.89060000
C       45.89060000      51.86450000      50.98430000
C       49.01570000      45.89070000      48.13540000
C       50.98430000      54.10940000      48.13550000
C       49.01580000      54.10940000      51.86460000
C       48.13550000      50.98420000      54.10940000
C       51.86450000      49.01570000      54.10930000
C       48.13540000      49.01580000      45.89060000
C       54.10940000      51.86450000      49.01570000
C       45.89060000      48.13550000      49.01580000
C       54.10940000      48.13550000      50.98420000
C       55.94330000      51.91810000      50.93830000
C       51.91820000      50.93820000      55.94330000
C       50.93830000      55.94330000      51.91820000
C       44.05670000      51.91820000      49.06180000
C       44.05670000      48.08180000      50.93830000
C       55.94330000      48.08180000      49.06160000
C       48.08180000      50.93840000      44.05670000
C       48.08190000      49.06160000      55.94330000
C       51.91810000      49.06180000      44.05670000
C       49.06170000      55.94330000      48.08190000
C       49.06170000      44.05670000      51.91810000
C       50.93820000      44.05670000      48.08170000
C       50.93830000      51.91810000      55.94330000
C       55.94330000      50.93820000      51.91810000
C       51.91820000      55.94330000      50.93840000
C       49.06170000      51.91830000      44.05670000
C       50.93820000      48.08190000      44.05660000
C       49.06180000      48.08170000      55.94330000
C       44.05670000      50.93830000      48.08190000
C       55.94330000      49.06170000      48.08180000
C       44.05670000      49.06170000      51.91820000
C       48.08190000      55.94330000      49.06180000
C       51.91810000      44.05670000      49.06160000
C       48.08180000      44.05670000      50.93820000
C       44.40790000      47.62080000      48.70400000
C       47.62070000      48.70410000      44.40790000
C       48.70390000      44.40790000      47.62060000
C       55.59210000      47.62070000      51.29590000
C       55.59210000      52.37930000      48.70400000
C       44.40790000      52.37930000      51.29610000
C       52.37930000      48.70390000      55.59210000
C       52.37920000      51.29610000      44.40790000
C       47.62080000      51.29590000      55.59210000
C       51.29600000      44.40790000      52.37920000
C       51.29600000      55.59210000      47.62080000
C       48.70410000      55.59210000      52.37940000
C       48.70390000      47.62080000      44.40790000
C       44.40790000      48.70410000      47.62070000
C       47.62070000      44.40790000      48.70390000
C       51.29600000      47.62060000      55.59200000
C       48.70410000      52.37920000      55.59210000
C       51.29600000      52.37940000      44.40790000
C       55.59210000      48.70390000      52.37920000
C       44.40790000      51.29600000      52.37940000
C       55.59210000      51.29600000      47.62070000
C       52.37930000      44.40790000      51.29590000
C       47.62080000      55.59210000      51.29610000
C       52.37930000      55.59210000      48.70410000
C       49.82690000      55.25260000      45.77030000
C       55.25250000      45.77020000      49.82680000
C       45.77030000      49.82680000      55.25250000
C       50.17320000      55.25240000      54.22980000
C       50.17310000      44.74760000      45.77020000
C       49.82690000      44.74740000      54.22970000
C       44.74750000      45.77030000      50.17310000
C       44.74750000      54.22980000      49.82700000
C       55.25250000      54.22970000      50.17310000
C       54.22970000      49.82690000      44.74750000
C       54.22980000      50.17300000      55.25250000
C       45.77020000      50.17320000      44.74750000
C       45.77030000      55.25250000      49.82700000
C       49.82690000      45.77020000      55.25240000
C       55.25250000      49.82690000      45.77020000
C       54.22980000      55.25250000      50.17320000
C       45.77020000      44.74750000      50.17310000
C       54.22970000      44.74750000      49.82670000
C       50.17310000      45.77030000      44.74740000
C       49.82680000      54.22980000      44.74760000
C       50.17320000      54.22970000      55.25260000
C       44.74750000      49.82680000      54.22980000
C       55.25250000      50.17300000      54.22970000
C       44.74750000      50.17320000      45.77030000
C       45.34850000      44.28860000      46.32710000
C       44.28840000      46.32720000      45.34860000
C       46.32700000      45.34870000      44.28850000
C       54.65140000      44.28840000      53.67270000
C       54.65140000      55.71150000      46.32720000
C       45.34860000      55.71150000      53.67300000
C       55.71150000      46.32700000      54.65130000
C       55.71150000      53.67290000      45.34860000
C       44.28860000      53.67280000      54.65150000
C       53.67290000      45.34850000      55.71140000
C       53.67280000      54.65150000      44.28850000
C       46.32720000      54.65140000      55.71160000
C       46.32710000      44.28860000      45.34850000
C       45.34850000      46.32720000      44.28850000
C       44.28850000      45.34860000      46.32710000
C       53.67290000      44.28840000      54.65130000
C       46.32720000      55.71140000      54.65160000
C       53.67290000      55.71150000      45.34860000
C       54.65150000      46.32700000      55.71140000
C       45.34860000      53.67280000      55.71160000
C       54.65140000      53.67290000      44.28850000
C       55.71150000      45.34850000      53.67280000
C       44.28860000      54.65140000      53.67300000
C       55.71150000      54.65150000      46.32710000
C       48.79480000      55.29610000      46.75870000
C       55.29600000      46.75860000      48.79470000
C       46.75860000      48.79470000      55.29600000
C       51.20530000      55.29600000      53.24150000
C       51.20520000      44.70400000      46.75850000
C       48.79480000      44.70400000      53.24130000
C       44.70400000      46.75860000      51.20520000
C       44.70400000      53.24150000      48.79490000
C       55.29600000      53.24140000      51.20520000
C       53.24140000      48.79480000      44.70390000
C       53.24150000      51.20510000      55.29600000
C       46.75850000      51.20530000      44.70400000
C       46.75860000      55.29600000      48.79490000
C       48.79480000      46.75850000      55.29600000
C       55.29600000      48.79480000      46.75850000
C       53.24140000      55.29600000      51.20530000
C       46.75860000      44.70400000      51.20520000
C       53.24140000      44.70400000      48.79470000
C       51.20520000      46.75870000      44.70390000
C       48.79470000      53.24150000      44.70410000
C       51.20530000      53.24130000      55.29600000
C       44.70400000      48.79480000      53.24140000
C       55.29600000      51.20510000      53.24140000
C       44.70400000      51.20530000      46.75870000
C       54.68790000      47.78470000      55.71950000
C       47.78490000      55.71950000      54.68790000
C       55.71960000      54.68780000      47.78480000
C       45.31210000      47.78490000      44.28050000
C       45.31230000      52.21510000      55.71960000
C       54.68780000      52.21530000      44.28040000
C       52.21520000      55.71960000      45.31220000
C       52.21520000      44.28040000      54.68770000
C       47.78470000      44.28050000      45.31210000
C       44.28050000      54.68780000      52.21530000
C       44.28040000      45.31230000      47.78480000
C       55.71950000      45.31210000      52.21510000
C       55.71960000      47.78470000      54.68770000
C       54.68780000      55.71960000      47.78480000
C       47.78490000      54.68770000      55.71960000
C       44.28040000      47.78490000      45.31220000
C       55.71950000      52.21520000      45.31220000
C       44.28050000      52.21520000      54.68790000
C       45.31220000      55.71950000      52.21530000
C       54.68780000      44.28040000      52.21510000
C       45.31210000      44.28050000      47.78480000
C       52.21520000      54.68790000      44.28050000
C       47.78470000      45.31230000      44.28040000
C       52.21520000      45.31210000      55.71950000
C       56.23450000      51.44260000      49.60320000
C       51.44270000      49.60320000      56.23450000
C       49.60330000      56.23450000      51.44280000
C       43.76550000      51.44270000      50.39680000
C       43.76550000      48.55740000      49.60330000
C       56.23450000      48.55730000      50.39660000
C       48.55730000      49.60340000      43.76550000
C       48.55740000      50.39660000      56.23450000
C       51.44260000      50.39680000      43.76550000
C       50.39670000      56.23450000      48.55740000
C       50.39670000      43.76550000      51.44260000
C       49.60320000      43.76550000      48.55730000
C       49.60330000      51.44260000      56.23450000
C       56.23450000      49.60320000      51.44260000
C       51.44270000      56.23450000      49.60340000
C       50.39670000      51.44270000      43.76550000
C       49.60320000      48.55740000      43.76550000
C       50.39680000      48.55730000      56.23450000
C       43.76550000      49.60330000      48.55740000
C       56.23450000      50.39670000      48.55730000
C       43.76550000      50.39670000      51.44270000
C       48.55740000      56.23450000      50.39680000
C       51.44260000      43.76550000      50.39660000
C       48.55730000      43.76550000      49.60320000
