240
Lattice="100.0 0.0 0.0 0.0 100.0 0.0 0.0 0.0 100.0" Properties=species:S:1:pos:R:3 name=C-2509655-3548-1141 pressure=31.2886945705428 spacegroup=Oh times_found=1 energy=-1780.46911317281 pbc="T T T"
C       48.34030000      51.65960000      43.02840000
C       51.65950000      43.02830000      48.34040000
C       43.02840000      48.34050000      51.65970000
C       51.65940000      48.34040000      43.02830000
C       48.34050000      48.34050000      56.97170000
C       51.65970000      51.65960000      56.97160000
C       48.34040000      56.97160000      48.34040000
C       51.65960000      56.97160000      51.65950000
C       48.34040000      43.02840000      51.65960000
C       56.97170000      51.65960000      51.65940000
C       43.02830000      51.65960000      48.34050000
C       56.97160000      48.34040000      48.34030000
C       48.34060000      51.65960000      56.97170000
C       51.65960000      43.02840000      51.65960000
C       43.02830000      48.34040000      48.34060000
C       51.65970000      48.34040000      56.97160000
C       48.34030000      48.34040000      43.02840000
C       51.65950000      51.65950000      43.02830000
C       48.34050000      56.97170000      51.65960000
C       51.65960000      56.97160000      48.34040000
C       48.34040000      43.02840000      48.34050000
C       56.97160000      51.65950000      48.34030000
C       43.02840000      51.65960000      51.65970000
C       56.97170000      48.34040000      51.65950000
C       45.33560000      47.10530000      54.66460000
C       47.10520000      54.66450000      45.33560000
C       54.66440000      45.33550000      47.10520000
C       54.66460000      52.89470000      54.66440000
C       45.33550000      52.89470000      45.33560000
C       54.66440000      47.10520000      45.33550000
C       52.89460000      45.33550000      45.33550000
C       47.10530000      45.33560000      54.66450000
C       52.89480000      54.66450000      54.66440000
C       45.33550000      54.66450000      47.10530000
C       54.66450000      54.66450000      52.89460000
C       45.33560000      45.33560000      52.89480000
C       45.33540000      47.10530000      45.33560000
C       47.10540000      54.66450000      54.66450000
C       54.66450000      45.33550000      52.89470000
C       54.66440000      52.89470000      45.33540000
C       45.33560000      52.89480000      54.66450000
C       54.66450000      47.10530000      54.66440000
C       52.89480000      45.33550000      54.66440000
C       47.10520000      45.33550000      45.33560000
C       52.89470000      54.66440000      45.33550000
C       45.33560000      54.66450000      52.89480000
C       54.66440000      54.66440000      47.10520000
C       45.33550000      45.33550000      47.10540000
C       50.72790000      57.29400000      50.72780000
C       57.29400000      50.72790000      50.72780000
C       50.72800000      50.72790000      57.29400000
C       49.27210000      42.70600000      50.72790000
C       50.72790000      42.70600000      49.27210000
C       49.27210000      57.29400000      49.27210000
C       42.70600000      49.27210000      50.72800000
C       57.29400000      49.27210000      49.27200000
C       42.70600000      50.72790000      49.27220000
C       49.27220000      49.27210000      57.29400000
C       50.72780000      49.27210000      42.70600000
C       49.27200000      50.72790000      42.70600000
C       50.72790000      57.29400000      49.27210000
C       57.29400000      50.72790000      49.27200000
C       50.72780000      50.72790000      42.70600000
C       49.27210000      42.70600000      49.27220000
C       50.72790000      42.70600000      50.72790000
C       49.27210000      57.29400000      50.72790000
C       42.70600000      49.27210000      49.27220000
C       57.29400000      49.27210000      50.72780000
C       42.70600000      50.72790000      50.72800000
C       49.27200000      49.27210000      42.70600000
C       50.72800000      49.27210000      57.29400000
C       49.27220000      50.72790000      57.29400000
C       53.05910000      43.49800000      51.54990000
C       43.49800000      51.55000000      53.05920000
C       51.54980000      53.05910000      43.49790000
C       46.94100000      56.50200000      51.55000000
C       53.05910000      56.50200000      48.45000000
C       46.94090000      43.49800000      48.45010000
C       56.50210000      48.45010000      53.05900000
C       43.49790000      48.45010000      46.94100000
C       56.50200000      51.54990000      46.94080000
C       48.44990000      46.94090000      43.49800000
C       51.55000000      46.94090000      56.50200000
C       48.45020000      53.05910000      56.50200000
C       53.05900000      43.49800000      48.45000000
C       43.49790000      51.54990000      46.94100000
C       51.55010000      53.05910000      56.50200000
C       46.94090000      56.50200000      48.45010000
C       53.05910000      56.50200000      51.54990000
C       46.94090000      43.49800000      51.55000000
C       56.50200000      48.45000000      46.94080000
C       43.49800000      48.45010000      53.05920000
C       56.50210000      51.54990000      53.05900000
C       48.45020000      46.94090000      56.50210000
C       51.54980000      46.94090000      43.49800000
C       48.45000000      53.05910000      43.49800000
C       49.26300000      55.77140000      53.96840000
C       55.77140000      53.96840000      49.26270000
C       53.96850000      49.26290000      55.77130000
C       50.73720000      44.22860000      53.96850000
C       49.26280000      44.22860000      46.03160000
C       50.73710000      55.77140000      46.03150000
C       44.22860000      46.03160000      49.26300000
C       55.77140000      46.03150000      50.73700000
C       44.22860000      53.96850000      50.73720000
C       46.03170000      50.73720000      55.77140000
C       53.96830000      50.73710000      44.22850000
C       46.03150000      49.26290000      44.22870000
C       49.26280000      55.77140000      46.03150000
C       55.77140000      53.96840000      50.73700000
C       53.96830000      49.26280000      44.22860000
C       50.73700000      44.22860000      46.03160000
C       49.26290000      44.22860000      53.96850000
C       50.73720000      55.77140000      53.96840000
C       44.22860000      46.03160000      50.73730000
C       55.77140000      46.03150000      49.26280000
C       44.22860000      53.96850000      49.26300000
C       46.03150000      50.73710000      44.22870000
C       53.96850000      50.73710000      55.77130000
C       46.03170000      49.26290000      55.77140000
C       45.14530000      48.54360000      45.14550000
C       48.54350000      45.14540000      45.14550000
C       45.14540000      45.14540000      48.54370000
C       54.85450000      51.45640000      45.14530000
C       45.14550000      51.45650000      54.85470000
C       54.85470000      48.54360000      54.85450000
C       51.45640000      54.85460000      45.14540000
C       48.54370000      54.85460000      54.85460000
C       51.45650000      45.14540000      54.85460000
C       54.85460000      54.85460000      48.54350000
C       45.14550000      54.85460000      51.45650000
C       54.85460000      45.14540000      51.45640000
C       45.14550000      48.54360000      54.85470000
C       48.54360000      45.14540000      54.85460000
C       45.14540000      45.14540000      51.45650000
C       54.85470000      51.45640000      54.85450000
C       45.14530000      51.45640000      45.14550000
C       54.85450000      48.54350000      45.14530000
C       51.45650000      54.85460000      54.85450000
C       48.54350000      54.85460000      45.14540000
C       51.45630000      45.14540000      45.14540000
C       54.85460000      54.85460000      51.45630000
C       45.14540000      54.85460000      48.54360000
C       54.85450000      45.14540000      48.54350000
C       53.05900000      51.54990000      43.49790000
C       51.55000000      43.49800000      53.05910000
C       43.49800000      53.05910000      51.55000000
C       46.94080000      48.45000000      43.49800000
C       53.05920000      48.45010000      56.50200000
C       46.94100000      51.55000000      56.50210000
C       48.45010000      56.50200000      53.05910000
C       51.54990000      56.50200000      46.94090000
C       48.45000000      43.49800000      46.94100000
C       56.50200000      46.94090000      51.54980000
C       43.49790000      46.94090000      48.45020000
C       56.50200000      53.05910000      48.44990000
C       53.05920000      51.55000000      56.50200000
C       51.54990000      43.49800000      46.94090000
C       43.49800000      53.05910000      48.45020000
C       46.94100000      48.45010000      56.50210000
C       53.05900000      48.45000000      43.49790000
C       46.94080000      51.54990000      43.49800000
C       48.45000000      56.50200000      46.94090000
C       51.55000000      56.50200000      53.05900000
C       48.45010000      43.49800000      53.05910000
C       56.50200000      46.94090000      48.45000000
C       43.49800000      46.94090000      51.55010000
C       56.50210000      53.05910000      51.54980000
C       53.96840000      44.22860000      50.73710000
C       44.22870000      50.73720000      53.96850000
C       50.73700000      53.96840000      44.22860000
C       46.03160000      55.77140000      50.73720000
C       53.96840000      55.77140000      49.26280000
C       46.03150000      44.22860000      49.26300000
C       55.77140000      49.26290000      53.96830000
C       44.22850000      49.26290000      46.03170000
C       55.77130000      50.73710000      46.03150000
C       49.26280000      46.03150000      44.22870000
C       50.73720000      46.03160000      55.77140000
C       49.26300000      53.96850000      55.77140000
C       53.96840000      44.22860000      49.26280000
C       44.22860000      50.73710000      46.03170000
C       50.73720000      53.96850000      55.77130000
C       46.03160000      55.77140000      49.26290000
C       53.96850000      55.77140000      50.73700000
C       46.03160000      44.22860000      50.73720000
C       55.77130000      49.26280000      46.03150000
C       44.22870000      49.26290000      53.96850000
C       55.77140000      50.73710000      53.96830000
C       49.26300000      46.03160000      55.77140000
C       50.73700000      46.03150000      44.22860000
C       49.26280000      53.96840000      44.22860000
C       47.05410000      52.94600000      56.26170000
C       52.94600000      56.26170000      47.05390000
C       56.26180000      47.05400000      52.94590000
C       52.94610000      47.05400000      56.26170000
C       47.05390000      47.05400000      43.73840000
C       52.94590000      52.94600000      43.73820000
C       47.05390000      43.73830000      47.05410000
C       52.94600000      43.73830000      52.94600000
C       47.05410000      56.26170000      52.94600000
C       43.73840000      52.94600000      52.94610000
C       56.26170000      52.94600000      47.05390000
C       43.73820000      47.05400000      47.05410000
C       47.05390000      52.94600000      43.73830000
C       52.94610000      56.26170000      52.94590000
C       56.26170000      47.05400000      47.05390000
C       52.94590000      47.05400000      43.73830000
C       47.05410000      47.05400000      56.26180000
C       52.94610000      52.94600000      56.26160000
C       47.05400000      43.73830000      52.94610000
C       52.94590000      43.73830000      47.05400000
C       47.05400000      56.26170000      47.05400000
C       43.73820000      52.94600000      47.05410000
C       56.26180000      52.94600000      52.94590000
C       43.73830000      47.05400000      52.94610000
C       46.40800000      44.73850000      46.40820000
C       44.73840000      46.40810000      46.40820000
C       46.40800000      46.40810000      44.73860000
C       53.59180000      55.26150000      46.40800000
C       46.40820000      55.26150000      53.59190000
C       53.59190000      44.73850000      53.59180000
C       55.26140000      53.59180000      46.40800000
C       44.73860000      53.59190000      53.59200000
C       55.26160000      46.40810000      53.59180000
C       53.59180000      53.59180000      44.73840000
C       46.40820000      53.59190000      55.26150000
C       53.59200000      46.40810000      55.26150000
C       46.40820000      44.73850000      53.59200000
C       44.73860000      46.40820000      53.59200000
C       46.40820000      46.40820000      55.26160000
C       53.59200000      55.26150000      53.59180000
C       46.40810000      55.26150000      46.40820000
C       53.59180000      44.73850000      46.40810000
C       55.26160000      53.59190000      53.59180000
C       44.73840000      53.59190000      46.40820000
C       55.26140000      46.40810000      46.40800000
C       53.59200000      53.59190000      55.26140000
C       46.40800000      53.59190000      44.73850000
C       53.59180000      46.40810000      44.73850000
