240
Lattice="100.0 0.0 0.0 0.0 100.0 0.0 0.0 0.0 100.0" Properties=species:S:1:pos:R:3 name=C-2509655-3548-587 pressure=-26.3690780911183 energy=-1757.81657276479 spacegroup=Oh times_found=1 pbc="T T T"
C       55.52410000      53.83650000      48.61260000
C       53.83800000      48.61620000      55.52410000
C       48.61540000      55.52550000      53.83570000
C       55.52570000      46.16450000      51.38430000
C       44.47510000      53.83600000      51.38600000
C       44.47510000      46.16290000      48.61710000
C       53.83460000      51.38450000      44.47380000
C       46.16230000      48.61350000      44.47640000
C       46.16520000      51.38580000      55.52580000
C       48.61430000      44.47430000      46.16510000
C       51.38350000      55.52430000      46.16230000
C       51.38680000      44.47590000      53.83690000
C       44.47430000      53.83550000      48.61570000
C       46.16540000      48.61550000      55.52630000
C       51.38570000      55.52570000      53.83490000
C       44.47580000      46.16340000      51.38740000
C       55.52490000      53.83710000      51.38290000
C       55.52490000      46.16400000      48.61400000
C       46.16200000      51.38380000      44.47590000
C       53.83480000      48.61420000      44.47430000
C       53.83770000      51.38650000      55.52360000
C       51.38460000      44.47450000      46.16430000
C       48.61320000      55.52410000      46.16310000
C       48.61650000      44.47570000      53.83770000
C       48.49200000      43.38050000      51.51070000
C       43.37980000      51.50820000      48.49260000
C       51.50730000      48.48990000      43.38020000
C       48.48990000      56.61930000      48.49020000
C       51.50930000      43.38020000      48.49170000
C       51.50890000      56.62010000      51.50740000
C       43.38090000      48.49060000      51.51120000
C       56.61990000      51.50990000      51.50690000
C       56.61940000      48.49130000      48.48930000
C       51.51080000      51.51040000      56.61900000
C       48.49300000      48.49200000      56.62040000
C       48.48890000      51.50770000      43.38050000
C       51.51010000      43.38070000      51.50980000
C       56.61910000      51.50940000      48.48880000
C       48.48920000      48.48960000      43.38100000
C       51.50800000      56.61950000      48.48930000
C       48.49110000      43.37990000      48.49260000
C       48.49070000      56.61980000      51.50830000
C       56.62020000      48.49180000      51.50750000
C       43.38060000      51.50870000      51.51070000
C       43.38010000      48.49000000      48.49310000
C       48.49270000      51.51010000      56.61980000
C       51.51110000      48.49230000      56.61950000
C       51.50700000      51.50800000      43.37960000
C       50.76880000      47.28870000      56.14120000
C       47.28720000      56.14080000      50.76650000
C       56.14010000      50.76690000      47.28570000
C       50.76480000      52.71140000      43.85830000
C       49.23170000      47.28640000      43.85980000
C       49.23470000      52.71350000      56.14070000
C       47.28790000      43.85860000      49.23510000
C       52.71170000      56.14110000      49.23130000
C       52.71330000      43.85940000      50.76720000
C       56.14180000      49.23420000      52.71090000
C       43.85970000      50.76670000      52.71410000
C       43.85830000      49.23210000      47.28940000
C       49.23520000      47.28860000      56.14170000
C       52.71210000      56.14140000      50.76490000
C       43.85820000      50.76580000      47.28910000
C       49.23120000      52.71130000      43.85880000
C       50.76530000      47.28650000      43.85930000
C       50.76830000      52.71360000      56.14020000
C       52.71280000      43.85920000      49.23350000
C       47.28670000      56.14060000      49.23280000
C       47.28830000      43.85890000      50.76870000
C       43.85990000      49.23310000      52.71430000
C       56.14170000      50.76790000      52.71060000
C       56.14030000      49.23330000      47.28590000
C       53.77150000      46.23200000      55.94650000
C       46.23110000      55.94730000      53.76940000
C       55.94550000      53.76930000      46.22820000
C       53.76740000      53.76870000      44.05130000
C       46.22920000      46.22910000      44.05480000
C       46.23190000      53.77020000      55.94730000
C       46.23010000      44.05200000      46.23270000
C       53.76780000      55.94660000      46.22840000
C       53.77110000      44.05410000      53.76940000
C       55.94830000      46.23180000      53.76840000
C       44.05380000      53.76960000      53.77040000
C       44.05240000      46.22930000      46.23290000
C       46.23260000      46.23130000      55.94870000
C       53.76990000      55.94800000      53.76730000
C       44.05160000      53.76820000      46.23160000
C       46.22850000      53.76800000      44.05350000
C       53.76810000      46.22980000      44.05270000
C       53.77080000      53.77090000      55.94520000
C       53.76890000      44.05280000      46.23060000
C       46.22890000      55.94590000      46.23060000
C       46.23220000      44.05340000      53.77160000
C       44.05450000      46.23070000      53.77180000
C       55.94760000      53.77070000      53.76710000
C       55.94620000      46.23040000      46.22960000
C       47.30040000      44.54050000      45.59580000
C       44.54120000      45.59300000      47.30350000
C       45.59270000      47.29970000      44.54330000
C       47.30190000      55.45900000      54.40580000
C       52.70060000      44.54260000      54.40620000
C       52.69710000      55.45790000      45.59220000
C       44.54190000      54.40600000      52.69960000
C       55.45960000      45.59500000      52.69810000
C       55.45730000      54.40600000      47.29880000
C       45.59530000      52.69940000      55.45920000
C       54.40780000      47.30250000      55.45770000
C       54.40420000      52.69830000      44.53980000
C       52.69810000      44.54100000      45.59420000
C       55.45810000      45.59400000      47.30040000
C       54.40470000      47.30060000      44.54080000
C       52.69960000      55.45950000      54.40420000
C       47.30290000      44.54210000      54.40780000
C       47.29940000      55.45740000      45.59380000
C       55.45880000      54.40700000      52.69650000
C       44.54270000      45.59400000      52.70120000
C       44.54040000      54.40500000      47.30190000
C       54.40730000      52.70030000      55.45670000
C       45.59580000      47.30170000      55.46020000
C       45.59220000      52.69750000      44.54230000
C       50.76700000      56.14150000      52.71110000
C       56.14090000      52.71320000      50.76460000
C       52.71410000      50.76820000      56.14000000
C       50.76660000      43.85860000      47.28840000
C       49.23180000      56.14040000      47.28660000
C       49.23450000      43.85950000      52.71380000
C       56.14100000      47.28800000      49.23190000
C       43.85860000      52.71170000      49.23440000
C       43.85950000      47.28710000      50.76910000
C       52.71080000      49.23230000      43.85840000
C       47.28570000      50.76550000      43.85970000
C       47.28940000      49.23400000      56.14190000
C       49.23340000      56.14140000      52.71160000
C       43.85900000      52.71200000      50.76810000
C       47.28920000      50.76770000      56.14160000
C       49.23300000      43.85850000      47.28890000
C       50.76550000      56.14050000      47.28620000
C       50.76820000      43.85960000      52.71340000
C       43.85910000      47.28680000      49.23540000
C       56.14050000      52.71290000      49.23090000
C       56.14140000      47.28830000      50.76560000
C       47.28590000      49.23180000      43.86000000
C       52.71060000      50.76600000      43.85810000
C       52.71430000      49.23450000      56.14030000
C       48.61360000      46.16260000      44.47620000
C       46.16390000      44.47450000      48.61690000
C       44.47410000      48.61360000      46.16550000
C       48.61610000      53.83720000      55.52460000
C       51.38710000      46.16490000      55.52520000
C       51.38320000      53.83540000      44.47400000
C       46.16360000      55.52480000      51.38520000
C       53.83720000      44.47570000      51.38510000
C       53.83540000      55.52500000      48.61280000
C       44.47600000      51.38530000      53.83760000
C       55.52610000      48.61610000      53.83500000
C       55.52370000      51.38500000      46.16190000
C       51.38390000      46.16280000      44.47540000
C       53.83640000      44.47520000      48.61480000
C       55.52390000      48.61470000      46.16240000
C       51.38630000      53.83740000      55.52380000
C       48.61680000      46.16460000      55.52600000
C       48.61290000      53.83520000      44.47480000
C       53.83610000      55.52550000      51.38310000
C       46.16460000      44.47500000      51.38720000
C       46.16280000      55.52430000      48.61490000
C       55.52590000      51.38640000      53.83450000
C       44.47630000      48.61500000      53.83810000
C       44.47390000      51.38390000      46.16500000
C       45.59380000      44.54060000      47.30340000
C       44.54060000      47.29980000      45.59600000
C       47.30000000      45.59280000      44.54310000
C       45.59420000      55.45850000      52.69910000
C       54.40730000      44.54240000      52.69860000
C       54.40470000      55.45840000      47.29890000
C       44.54250000      52.69920000      54.40710000
C       55.46000000      47.30240000      54.40490000
C       55.45690000      52.69860000      45.59200000
C       47.30230000      54.40670000      55.45840000
C       52.70080000      45.59520000      55.45850000
C       52.69690000      54.40530000      44.54000000
C       54.40580000      44.54150000      47.30090000
C       55.45750000      47.30080000      45.59290000
C       52.69770000      45.59330000      44.54160000
C       54.40620000      55.45940000      52.69660000
C       45.59530000      44.54160000      52.70110000
C       45.59270000      55.45750000      47.30140000
C       55.45940000      52.70020000      54.40400000
C       44.54310000      47.30140000      54.40800000
C       44.54000000      52.69760000      45.59510000
C       52.70000000      54.40720000      55.45690000
C       47.30310000      45.59470000      55.46000000
C       47.29920000      54.40480000      44.54150000
C       54.63790000      54.63890000      49.33110000
C       54.63990000      49.33450000      54.63740000
C       49.33410000      54.63930000      54.63790000
C       54.63920000      45.36200000      50.66630000
C       45.36120000      54.63820000      50.66730000
C       45.36170000      45.36090000      49.33540000
C       54.63720000      50.66640000      45.36000000
C       45.36020000      49.33190000      45.36290000
C       45.36270000      50.66720000      54.63980000
C       49.33230000      45.36050000      45.36250000
C       50.66500000      54.63780000      45.36040000
C       50.66850000      45.36230000      54.63920000
C       45.36080000      54.63800000      49.33370000
C       45.36280000      49.33360000      54.64000000
C       50.66770000      54.63950000      54.63750000
C       45.36210000      45.36110000      50.66890000
C       54.63830000      54.63910000      50.66460000
C       54.63880000      45.36170000      49.33270000
C       45.36010000      50.66550000      45.36260000
C       54.63730000      49.33280000      45.36020000
C       54.63980000      50.66810000      54.63710000
C       50.66590000      45.36070000      45.36210000
C       49.33150000      54.63770000      45.36080000
C       49.33500000      45.36220000      54.63960000
C       42.57120000      49.27900000      50.72270000
C       49.27740000      50.71900000      42.57090000
C       50.72100000      42.57080000      49.28070000
C       42.57060000      50.71960000      49.28150000
C       57.42900000      49.28010000      49.27760000
C       57.42930000      50.72130000      50.71820000
C       49.28170000      49.28080000      57.42950000
C       50.72250000      50.72190000      57.42880000
C       50.71840000      49.27830000      42.57080000
C       50.72000000      57.42930000      50.71890000
C       49.28050000      42.57090000      50.72200000
C       49.27860000      57.42890000      49.27840000
C       57.42940000      49.28040000      50.71850000
C       50.71830000      50.71920000      42.57050000
C       49.28010000      42.57070000      49.28110000
C       57.42890000      50.72100000      49.27730000
C       42.57070000      49.27870000      49.28180000
C       42.57100000      50.71990000      50.72240000
C       50.72260000      49.28100000      57.42910000
C       49.28160000      50.72170000      57.42920000
C       49.27750000      49.27810000      42.57120000
C       49.27910000      57.42920000      50.71930000
C       50.72140000      42.57110000      50.72160000
C       50.71950000      57.42910000      49.27800000
