240
Lattice="100.0 0.0 0.0 0.0 100.0 0.0 0.0 0.0 100.0" Properties=species:S:1:pos:R:3 name=C-2509655-3548-128 pressure=2.84977141710248 spacegroup=Cs times_found=1 energy=-1745.5466209051 pbc="T T T"
C       42.58200000      52.64150000      53.58490000
C       53.54740000      42.60220000      52.65340000
C       52.65450000      53.49760000      42.61520000
C       57.40130000      47.35590000      53.54160000
C       57.39650000      52.65160000      46.47320000
C       42.42710000      47.43170000      46.27300000
C       46.44470000      57.39640000      52.64170000
C       46.46430000      42.59870000      47.35900000
C       53.52810000      57.39390000      47.34440000
C       47.25040000      46.69100000      42.74500000
C       47.35470000      53.55900000      57.40640000
C       52.65260000      46.45930000      57.40400000
C       52.65390000      42.60220000      53.54720000
C       42.61580000      53.49800000      52.65590000
C       53.58360000      52.64120000      42.58110000
C       47.34530000      57.39410000      53.52830000
C       52.64120000      57.39620000      46.44400000
C       47.35810000      42.59860000      46.46500000
C       57.40450000      46.45910000      52.65120000
C       42.74430000      46.69110000      47.25200000
C       57.40600000      53.55870000      47.35310000
C       46.27140000      47.43150000      42.42790000
C       53.54310000      47.35610000      57.40060000
C       46.47480000      52.65190000      57.39710000
C       49.14960000      43.90690000      48.13650000
C       48.13610000      49.13790000      43.92550000
C       43.92870000      48.13700000      49.16520000
C       50.85190000      56.08640000      48.12610000
C       50.86060000      43.90780000      51.87380000
C       49.14030000      56.08860000      51.86470000
C       51.87720000      50.85400000      43.90380000
C       51.87130000      49.14740000      56.09410000
C       48.13260000      50.85610000      56.09470000
C       56.09380000      51.87090000      49.14280000
C       56.09520000      48.13270000      50.85810000
C       43.90550000      51.85930000      50.85600000
C       43.92510000      49.13810000      48.13740000
C       49.16390000      48.13680000      43.92890000
C       48.13610000      43.90700000      49.15020000
C       56.09440000      50.85580000      48.13130000
C       43.90420000      50.85420000      51.87840000
C       56.09450000      49.14730000      51.87010000
C       50.85480000      51.85910000      43.90530000
C       49.14410000      51.87110000      56.09390000
C       50.85930000      48.13290000      56.09510000
C       51.86480000      56.08850000      49.13970000
C       48.12650000      56.08650000      50.85200000
C       51.87380000      43.90770000      50.86040000
C       44.96510000      50.11240000      45.99150000
C       45.98870000      44.96210000      50.13920000
C       50.13660000      45.98160000      44.96320000
C       55.03990000      49.86380000      45.98700000
C       55.03620000      50.13810000      54.01280000
C       44.96360000      49.86310000      54.01990000
C       54.00980000      55.03490000      50.13090000
C       54.01660000      44.96560000      49.86910000
C       45.98440000      55.02520000      49.86330000
C       49.86360000      54.00290000      44.96200000
C       49.86970000      45.98850000      55.03900000
C       50.13290000      54.01350000      55.03330000
C       50.13830000      44.96200000      45.98880000
C       44.96310000      45.98180000      50.13780000
C       45.99050000      50.11240000      44.96590000
C       49.86260000      55.02510000      45.98430000
C       50.13180000      55.03500000      54.00960000
C       49.86980000      44.96570000      54.01680000
C       55.03340000      54.01340000      50.13180000
C       44.96210000      54.00310000      49.86450000
C       55.03880000      45.98840000      49.86880000
C       54.01890000      49.86280000      44.96280000
C       45.98800000      49.86410000      55.04070000
C       54.01380000      50.13820000      55.03540000
C       52.63520000      46.34710000      45.36520000
C       45.36690000      52.61120000      46.35330000
C       46.35340000      45.36270000      52.63580000
C       47.36890000      53.63250000      45.36480000
C       47.37320000      46.35030000      54.63990000
C       52.62910000      53.65140000      54.63290000
C       54.63970000      47.36760000      46.35290000
C       54.63450000      52.63350000      53.64730000
C       45.36610000      47.36600000      53.65600000
C       53.64650000      54.63670000      52.62710000
C       53.65310000      45.36390000      47.37250000
C       46.34940000      54.61990000      47.36840000
C       46.35240000      52.61110000      45.36760000
C       52.63490000      45.36250000      46.35300000
C       45.36560000      46.34740000      52.63620000
C       53.65490000      47.36580000      45.36540000
C       46.35380000      47.36780000      54.64060000
C       53.64830000      52.63350000      54.63360000
C       47.36780000      54.61980000      46.34980000
C       52.62800000      54.63680000      53.64580000
C       47.37310000      45.36410000      53.65380000
C       54.63360000      53.65130000      52.62800000
C       45.36440000      53.63250000      47.36980000
C       54.63930000      46.35010000      47.37240000
C       56.32900000      47.52120000      48.52970000
C       48.52250000      56.31510000      47.51640000
C       47.52410000      48.52730000      56.32930000
C       43.67020000      52.46830000      48.52700000
C       43.67540000      47.51660000      51.48260000
C       56.32550000      52.48230000      51.47160000
C       51.47720000      43.67370000      47.52480000
C       51.46870000      56.32490000      52.47440000
C       48.53140000      43.67420000      52.48420000
C       52.47980000      51.47650000      56.32550000
C       52.49010000      48.52050000      43.67080000
C       47.51710000      51.46250000      43.67120000
C       47.51630000      56.31520000      48.52280000
C       56.32870000      48.52700000      47.52290000
C       48.53090000      47.52150000      56.32940000
C       52.48370000      43.67410000      48.53110000
C       47.52490000      43.67380000      51.47790000
C       52.47490000      56.32490000      51.46800000
C       43.67070000      51.46260000      47.51840000
C       56.32600000      51.47640000      52.47850000
C       43.67130000      48.52080000      52.49150000
C       51.47300000      52.48240000      56.32520000
C       48.52570000      52.46820000      43.67040000
C       51.48120000      47.51640000      43.67520000
C       50.96780000      46.65860000      55.72640000
C       55.72610000      50.96250000      46.65720000
C       46.65260000      55.71530000      50.96060000
C       49.03540000      53.34530000      55.72330000
C       49.04080000      46.66460000      44.28480000
C       50.96170000      53.33310000      44.27590000
C       44.26960000      49.01050000      46.65770000
C       44.27330000      50.96290000      53.35290000
C       55.72480000      49.04020000      53.34420000
C       53.34780000      44.27790000      50.96770000
C       53.33920000      55.72090000      49.03230000
C       46.66090000      44.27520000      49.04370000
C       46.65840000      50.96280000      55.72670000
C       50.96010000      55.71520000      46.65220000
C       55.72650000      46.65840000      50.96670000
C       53.34530000      49.04020000      55.72410000
C       46.65650000      49.01050000      44.27030000
C       53.35180000      50.96260000      44.27260000
C       49.04280000      44.27510000      46.66120000
C       50.96820000      44.27800000      53.34770000
C       49.03320000      55.72110000      53.33920000
C       44.27620000      53.33330000      50.96280000
C       55.72320000      53.34500000      49.03420000
C       44.28450000      46.66470000      49.04200000
C       46.51570000      48.57570000      55.38380000
C       55.38280000      46.51340000      48.57980000
C       48.57340000      55.36700000      46.51050000
C       53.48690000      51.42680000      55.37850000
C       53.49610000      48.57200000      44.61930000
C       46.51270000      51.40540000      44.62180000
C       44.61890000      53.47330000      48.57650000
C       44.62060000      46.50870000      51.42860000
C       55.37780000      53.48880000      51.42110000
C       51.42770000      44.61870000      46.51570000
C       51.42010000      55.37940000      53.48290000
C       48.58080000      44.62110000      53.49130000
C       48.58070000      46.51370000      55.38320000
C       46.51030000      55.36710000      48.57390000
C       55.38300000      48.57540000      46.51470000
C       51.42230000      53.48890000      55.37740000
C       48.57550000      53.47310000      44.61910000
C       51.42730000      46.50850000      44.62040000
C       53.49080000      44.62100000      48.58030000
C       46.51580000      44.61880000      51.42860000
C       53.48340000      55.37940000      51.41930000
C       44.62110000      51.40550000      46.51380000
C       55.37930000      51.42670000      53.48570000
C       44.61990000      48.57220000      53.49720000
C       52.13810000      56.09110000      46.01080000
C       46.02320000      52.14380000      56.10390000
C       56.10290000      46.02000000      52.14600000
C       47.86380000      43.90050000      46.02320000
C       47.85300000      56.09780000      53.97570000
C       52.14770000      43.90270000      53.98670000
C       53.98450000      47.86140000      56.10090000
C       53.99710000      52.13870000      43.89840000
C       46.01840000      47.82810000      43.85710000
C       43.89890000      53.96520000      52.14560000
C       43.89380000      46.06470000      47.84280000
C       56.09870000      53.98740000      47.85680000
C       56.10310000      52.14350000      46.02180000
C       52.14710000      46.02010000      56.10260000
C       46.01140000      56.09130000      52.13870000
C       43.85620000      47.82810000      46.01980000
C       56.10160000      47.86130000      53.98330000
C       43.89930000      52.13900000      53.99830000
C       47.85810000      53.98770000      56.09900000
C       52.14450000      53.96490000      43.89830000
C       47.84150000      46.06460000      43.89440000
C       53.98690000      43.90270000      52.14710000
C       46.02260000      43.90060000      47.86480000
C       53.97550000      56.09760000      47.85200000
C       56.47500000      49.57110000      48.51150000
C       48.50500000      56.46550000      49.56620000
C       49.57410000      48.51080000      56.47560000
C       43.52560000      50.41810000      48.50520000
C       43.52470000      49.56810000      51.50780000
C       56.47420000      50.43240000      51.49000000
C       51.49540000      43.52680000      49.57530000
C       51.48570000      56.46990000      50.42430000
C       48.51450000      43.52640000      50.43490000
C       50.42990000      51.49350000      56.47380000
C       50.44130000      48.51120000      43.53300000
C       49.56990000      51.47810000      43.52420000
C       49.56610000      56.46540000      48.50480000
C       56.47550000      48.51060000      49.57280000
C       48.51280000      49.57140000      56.47530000
C       50.43440000      43.52630000      48.51460000
C       49.57540000      43.52690000      51.49570000
C       50.42490000      56.46990000      51.48540000
C       43.52420000      51.47830000      49.57120000
C       56.47390000      51.49330000      50.42850000
C       43.53310000      48.51150000      50.44270000
C       51.49130000      50.43260000      56.47390000
C       48.50390000      50.41790000      43.52590000
C       51.50650000      49.56780000      43.52440000
C       44.76110000      54.25620000      53.25600000
C       53.25860000      44.76570000      54.26740000
C       54.26810000      53.25000000      44.76220000
C       55.24060000      45.73940000      53.25730000
C       55.23620000      54.26420000      46.74490000
C       44.77540000      45.73890000      46.75180000
C       46.74310000      55.23480000      54.26060000
C       46.75250000      44.76040000      45.74360000
C       53.25130000      55.23070000      45.73160000
C       45.73630000      46.74410000      44.76310000
C       45.73820000      53.25370000      55.24050000
C       54.26700000      46.74970000      55.23930000
C       54.26790000      44.76570000      53.25790000
C       44.76320000      53.25030000      54.26910000
C       53.25510000      54.25600000      44.76030000
C       45.73250000      55.23090000      53.25200000
C       54.26010000      55.23460000      46.74200000
C       45.74280000      44.76040000      46.75360000
C       55.24010000      46.74970000      54.26600000
C       44.76210000      46.74410000      45.73750000
C       55.23970000      53.25340000      45.73710000
C       46.75060000      45.73890000      44.77620000
C       53.25820000      45.73950000      55.24010000
C       46.74610000      54.26440000      55.23680000
