240
Lattice="100.0 0.0 0.0 0.0 100.0 0.0 0.0 0.0 100.0" Properties=species:S:1:pos:R:3 name=C-2509655-3548-545 pressure=4.15445550347926 energy=-1727.6970524244 spacegroup=D2d times_found=1 pbc="T T T"
C       47.41140000      45.34820000      46.33530000
C       46.37600000      47.41050000      45.29540000
C       45.34650000      46.37440000      47.36720000
C       52.58680000      45.34870000      53.66660000
C       47.41290000      54.65280000      53.66450000
C       52.58890000      54.65030000      46.33360000
C       53.62300000      47.41100000      54.70560000
C       46.37660000      52.59090000      54.70430000
C       53.62440000      52.58760000      45.29470000
C       54.65210000      46.37370000      52.63420000
C       45.34770000      53.62740000      52.63240000
C       54.65370000      53.62450000      47.36610000
C       46.37320000      45.34730000      47.36740000
C       45.34810000      47.41230000      46.33480000
C       47.41020000      46.37580000      45.29570000
C       53.62490000      45.34690000      52.63440000
C       53.62700000      54.65160000      47.36590000
C       46.37490000      54.65410000      52.63230000
C       54.65090000      47.41200000      53.66620000
C       54.65220000      52.58620000      46.33410000
C       45.34880000      52.58950000      53.66480000
C       52.58840000      46.37670000      54.70580000
C       52.59020000      53.62230000      45.29440000
C       47.41120000      53.62520000      54.70410000
C       46.41530000      51.62970000      44.42740000
C       44.40930000      46.42370000      51.59200000
C       51.62440000      44.40520000      46.44410000
C       53.58540000      51.63050000      55.57190000
C       46.41420000      48.37170000      55.57230000
C       53.58520000      48.36810000      44.42840000
C       55.58930000      46.42090000      48.40940000
C       44.41090000      53.57850000      48.40760000
C       55.59050000      53.57690000      51.59100000
C       48.37340000      44.40730000      53.55810000
C       51.62640000      55.59410000      53.55600000
C       48.37580000      55.59330000      46.44180000
C       44.40670000      51.62580000      46.44240000
C       51.62960000      46.41330000      44.42870000
C       46.42110000      44.41110000      51.59250000
C       55.59390000      51.62500000      53.55700000
C       55.59350000      48.37280000      46.44350000
C       44.40580000      48.37640000      53.55710000
C       48.36900000      46.41610000      55.57270000
C       48.37090000      53.58450000      44.42710000
C       51.63050000      53.58610000      55.57140000
C       53.57670000      44.40910000      48.40980000
C       53.57870000      55.58950000      51.59050000
C       46.42350000      55.59030000      48.40720000
C       51.23210000      56.18940000      47.79050000
C       47.78790000      51.24620000      56.32620000
C       56.19560000      47.80100000      51.25850000
C       48.77040000      56.19090000      52.20700000
C       51.22950000      43.81000000      52.20960000
C       48.76810000      43.80970000      47.79290000
C       52.21260000      51.24280000      43.67340000
C       47.78790000      48.75470000      43.67370000
C       52.21160000      48.75630000      56.32680000
C       43.80350000      47.80290000      48.74240000
C       56.19660000      52.19660000      48.74200000
C       43.80430000      52.19950000      51.25710000
C       47.80310000      56.19680000      51.25650000
C       56.19050000      51.22910000      47.79170000
C       51.24380000      47.78890000      56.32700000
C       52.19930000      56.19540000      48.74100000
C       52.19680000      43.80370000      51.25920000
C       47.80080000      43.80410000      48.74330000
C       43.81000000      51.23240000      52.20780000
C       43.80970000      48.77000000      47.79170000
C       56.18980000      48.76850000      52.20880000
C       48.75530000      47.78690000      43.67390000
C       48.75570000      52.21360000      56.32600000
C       51.24520000      52.21060000      43.67310000
C       51.41660000      52.40990000      56.38600000
C       56.38310000      51.39670000      52.36740000
C       52.38760000      56.38140000      51.37050000
C       48.58430000      52.40790000      43.61300000
C       51.41620000      47.58950000      43.61410000
C       48.58290000      47.59260000      56.38680000
C       43.61750000      51.39830000      47.63210000
C       56.38270000      48.60080000      47.63310000
C       43.61670000      48.60420000      52.36740000
C       47.61490000      56.38180000      48.62690000
C       52.38520000      43.61770000      48.62970000
C       47.61230000      43.61910000      51.37290000
C       56.38200000      52.38540000      51.37150000
C       52.40890000      51.41720000      56.38620000
C       51.39860000      56.38310000      52.36620000
C       43.61890000      52.38740000      48.62760000
C       43.61790000      47.61510000      51.37190000
C       56.38120000      47.61210000      48.62900000
C       47.59160000      51.41560000      43.61320000
C       47.59060000      48.58540000      56.38660000
C       52.40890000      48.58190000      43.61400000
C       48.60390000      56.38270000      47.63130000
C       48.60120000      43.61780000      52.36860000
C       51.39630000      43.61630000      47.63390000
C       43.68090000      45.70940000      49.42060000
C       49.46090000      43.67100000      45.70630000
C       45.68800000      49.48020000      43.66820000
C       56.31740000      45.70710000      50.58110000
C       43.68260000      54.29310000      50.57890000
C       56.31910000      54.29040000      49.41940000
C       50.53660000      43.67250000      54.29630000
C       49.46310000      56.32920000      54.29370000
C       50.53940000      56.32730000      45.70380000
C       54.31180000      49.48100000      56.33200000
C       45.68760000      50.52150000      56.33140000
C       54.31260000      50.51730000      43.66840000
C       49.48000000      45.68660000      43.66910000
C       45.70710000      43.68250000      49.42110000
C       43.67180000      49.46240000      45.70490000
C       50.51830000      45.68900000      56.33260000
C       50.52050000      54.31080000      43.66750000
C       49.48120000      54.31360000      56.33080000
C       54.29050000      43.68100000      50.58150000
C       54.29300000      56.31730000      49.41890000
C       45.70950000      56.31920000      50.57860000
C       56.32800000      49.46160000      54.29530000
C       56.32850000      50.53590000      45.70510000
C       43.67170000      50.54010000      54.29460000
C       55.65480000      53.48290000      48.38300000
C       48.42410000      55.65420000      53.50270000
C       53.48680000      48.41960000      55.72280000
C       44.34660000      53.48580000      51.61560000
C       55.65330000      46.51490000      51.61740000
C       44.34530000      46.51640000      48.38400000
C       51.57810000      55.65220000      46.49500000
C       48.42220000      44.34640000      46.49720000
C       51.57560000      44.34720000      53.50510000
C       46.51250000      48.41870000      44.27790000
C       53.48790000      51.57900000      44.27750000
C       46.51270000      51.58270000      55.72180000
C       48.41960000      53.48880000      55.72150000
C       53.48550000      55.65300000      48.38250000
C       55.65280000      48.42270000      53.50440000
C       51.58180000      53.48590000      44.27710000
C       51.57990000      46.51340000      55.72310000
C       48.41870000      46.51180000      44.27830000
C       46.51670000      55.65510000      51.61520000
C       46.51460000      44.34630000      48.38450000
C       53.48320000      44.34560000      51.61780000
C       44.34660000      48.42350000      46.49620000
C       44.34700000      51.57870000      53.50340000
C       55.65370000      51.57510000      46.49600000
C       49.76460000      57.57410000      53.65510000
C       53.74500000      49.83910000      57.59550000
C       57.56900000      53.66430000      49.72990000
C       50.23840000      57.57260000      46.34190000
C       49.76190000      42.42600000      46.34490000
C       50.23510000      42.42730000      53.65820000
C       46.25500000      49.83750000      42.40460000
C       53.74560000      50.15950000      42.40480000
C       46.25440000      50.16400000      57.59510000
C       42.43250000      53.66730000      50.26870000
C       57.56750000      46.33280000      50.27080000
C       42.43110000      46.33560000      49.73070000
C       53.66730000      57.56740000      49.72890000
C       57.57310000      49.76250000      53.65700000
C       49.83870000      53.74690000      57.59450000
C       46.33570000      57.56900000      50.26810000
C       46.33280000      42.43240000      49.73160000
C       53.66430000      42.43110000      50.27140000
C       42.42680000      49.76400000      46.34310000
C       42.42660000      50.23890000      53.65630000
C       57.57350000      50.23450000      46.34360000
C       50.16280000      53.74380000      42.40400000
C       50.16070000      46.25620000      57.59600000
C       49.83780000      46.25320000      42.40550000
C       55.54980000      49.37230000      45.43360000
C       45.42230000      55.54190000      49.41550000
C       49.37090000      45.41140000      55.52840000
C       44.45000000      49.37630000      54.56670000
C       55.54960000      50.62550000      54.56690000
C       44.45060000      50.62590000      45.43290000
C       54.57990000      55.54030000      50.58230000
C       45.42010000      44.45990000      50.58410000
C       54.57780000      44.45790000      49.41810000
C       50.62730000      45.40900000      44.47340000
C       49.37310000      54.58880000      44.47150000
C       50.62870000      54.59080000      55.52660000
C       45.40990000      49.37400000      55.52750000
C       49.37560000      55.54890000      45.43210000
C       55.54030000      45.42000000      49.41790000
C       54.58990000      49.37000000      44.47280000
C       54.58970000      50.62820000      55.52760000
C       45.41060000      50.62780000      44.47220000
C       50.62660000      55.55050000      54.56570000
C       50.62480000      44.44930000      45.43440000
C       49.37300000      44.45130000      54.56780000
C       44.45800000      45.42240000      50.58390000
C       44.45980000      54.57980000      49.41570000
C       55.54200000      54.57790000      50.58250000
C       43.03160000      47.56130000      50.02000000
C       50.04410000      43.03240000      47.56930000
C       47.50210000      50.08360000      42.97960000
C       56.96740000      47.55860000      49.98100000
C       43.03260000      52.44140000      49.97940000
C       56.96840000      52.43870000      50.01960000
C       49.95320000      43.03340000      52.43350000
C       50.04660000      56.96760000      52.43070000
C       49.95610000      56.96660000      47.56650000
C       52.49800000      50.08540000      57.02040000
C       47.50150000      49.91740000      57.02020000
C       52.49850000      49.91360000      42.97980000
C       50.08430000      47.50030000      42.98020000
C       47.55860000      43.03260000      50.02110000
C       43.03300000      50.04630000      47.56760000
C       49.91470000      47.50320000      57.02080000
C       49.91630000      52.49680000      42.97920000
C       50.08470000      52.49960000      57.01980000
C       52.43870000      43.03160000      49.98170000
C       52.44140000      56.96740000      50.01850000
C       47.56130000      56.96840000      49.97870000
C       56.96700000      50.04450000      52.43240000
C       56.96720000      49.95280000      47.56820000
C       43.03280000      49.95650000      52.43180000
C       46.28890000      47.28300000      54.68750000
C       54.71160000      46.29100000      47.31500000
C       47.28400000      54.71310000      46.31810000
C       53.71000000      47.27960000      45.31360000
C       46.29040000      52.71850000      45.31220000
C       53.71070000      52.71890000      54.68670000
C       45.28700000      46.29400000      52.68650000
C       54.71280000      53.70710000      52.68540000
C       45.28860000      53.70790000      47.31310000
C       52.71780000      54.71350000      53.68000000
C       47.28190000      45.28800000      53.68170000
C       52.71630000      45.28550000      46.32020000
C       54.71290000      47.28130000      46.31990000
C       47.28040000      46.29110000      54.68770000
C       46.29350000      54.71240000      47.31290000
C       45.28600000      47.28460000      53.68120000
C       45.28740000      52.71720000      46.31840000
C       54.71370000      52.71690000      53.68050000
C       52.71820000      46.28820000      45.31370000
C       52.71920000      53.71080000      54.68650000
C       47.28220000      53.71000000      45.31200000
C       53.70830000      54.71200000      52.68520000
C       53.70670000      45.28650000      47.31510000
C       46.29150000      45.28910000      52.68680000
