240
Lattice="100.0 0.0 0.0 0.0 100.0 0.0 0.0 0.0 100.0" Properties=species:S:1:pos:R:3 name=C-2509655-3548-807 pressure=0.0201839788888421 spacegroup=D2 times_found=1 energy=-1765.08189216076 pbc="T T T"
C       51.63350000      48.56900000      56.60000000
C       56.50050000      51.39430000      48.64790000
C       48.54120000      56.61660000      51.52830000
C       48.36670000      48.56830000      43.40010000
C       51.30520000      51.60200000      43.53640000
C       48.69450000      51.60220000      56.46350000
C       43.49920000      51.39320000      51.35200000
C       56.59740000      48.42990000      51.67640000
C       43.40280000      48.42870000      48.32370000
C       51.45760000      56.61680000      48.47130000
C       48.54000000      43.33190000      48.45030000
C       51.46120000      43.33220000      51.55010000
C       51.67630000      51.57110000      56.59720000
C       56.46370000      48.39850000      48.69470000
C       48.47210000      43.38320000      51.45840000
C       48.32340000      51.57030000      43.40270000
C       51.35210000      48.60620000      43.49940000
C       48.64820000      48.60640000      56.50070000
C       43.53660000      48.39740000      51.30540000
C       56.59980000      51.43200000      51.63330000
C       43.39990000      51.43070000      48.36660000
C       51.52910000      43.38340000      48.54200000
C       48.44950000      56.66780000      48.53920000
C       51.54930000      56.66810000      51.46040000
C       52.49850000      54.47580000      44.51640000
C       44.54830000      52.60090000      54.16850000
C       54.29130000      44.32750000      52.81780000
C       47.50070000      54.47570000      55.48330000
C       52.83010000      45.55630000      55.23150000
C       47.17060000      45.55540000      44.76880000
C       55.45120000      52.60160000      45.83130000
C       44.39670000      47.30670000      45.36480000
C       55.60380000      47.30800000      54.63530000
C       45.70970000      44.32660000      47.18260000
C       54.37040000      55.11190000      47.21290000
C       45.62870000      55.11130000      52.78680000
C       52.61050000      45.79250000      44.49250000
C       44.94770000      47.20900000      54.30310000
C       54.36440000      55.60630000      52.64390000
C       47.39020000      45.79240000      55.50770000
C       52.97940000      54.52790000      55.18830000
C       47.01980000      54.52710000      44.81140000
C       55.05280000      47.20970000      45.69710000
C       44.32890000      52.66270000      45.45650000
C       55.67070000      52.66400000      54.54340000
C       45.63460000      55.60530000      47.35570000
C       54.44750000      44.47360000      47.47280000
C       45.55350000      44.47300000      52.52760000
C       53.78280000      55.38510000      48.53590000
C       48.80370000      53.95130000      55.57970000
C       55.76870000      48.58860000      54.09320000
C       46.21620000      55.38460000      51.46380000
C       53.83790000      44.29080000      51.47670000
C       46.16310000      44.29000000      48.52360000
C       51.19560000      53.95110000      44.42010000
C       48.47760000      46.20580000      44.57120000
C       51.52300000      46.20650000      55.42910000
C       44.23160000      48.58740000      45.90690000
C       55.39680000      51.28570000      46.37300000
C       44.60300000      51.28500000      53.62690000
C       53.89350000      44.33060000      48.75090000
C       48.73000000      46.27530000      55.50560000
C       55.79710000      51.36110000      54.04920000
C       46.10750000      44.33000000      51.24950000
C       53.83400000      55.57980000      51.32320000
C       46.16500000      55.57900000      48.67650000
C       51.27070000      46.27510000      44.49470000
C       48.34730000      53.94910000      44.53490000
C       51.65200000      53.94980000      55.46490000
C       44.20270000      51.35980000      45.95070000
C       55.24830000      48.50790000      46.35800000
C       44.75200000      48.50720000      53.64210000
C       54.06980000      44.83360000      46.15410000
C       45.74160000      54.00220000      44.77260000
C       44.86250000      45.91590000      53.81920000
C       45.93110000      44.83320000      53.84620000
C       53.80990000      56.33550000      53.64440000
C       46.18890000      56.33460000      46.35520000
C       54.25760000      54.00330000      55.22720000
C       46.38990000      46.40650000      56.19400000
C       53.61070000      46.40680000      43.80620000
C       55.13820000      45.91660000      46.18110000
C       44.68500000      53.96970000      45.87030000
C       55.31430000      53.97090000      54.12940000
C       53.84560000      55.16680000      45.93040000
C       45.87080000      46.02910000      44.68550000
C       43.80580000      53.59290000      53.61030000
C       46.15350000      55.16640000      54.06920000
C       53.64520000      43.66540000      53.81070000
C       46.35600000      43.66450000      46.18970000
C       54.12990000      46.03020000      55.31480000
C       46.18060000      54.08360000      55.13780000
C       53.81870000      54.08390000      44.86200000
C       56.19350000      53.59380000      46.38940000
C       44.77300000      45.99670000      45.74220000
C       55.22770000      45.99790000      54.25810000
C       52.69610000      43.75730000      50.83640000
C       50.52410000      52.80860000      43.91480000
C       44.02040000      50.63680000      52.52150000
C       47.30500000      43.75680000      49.16400000
C       52.68210000      56.08530000      49.14820000
C       47.31680000      56.08480000      50.85140000
C       49.47540000      52.80890000      56.08500000
C       50.93060000      47.35930000      56.06150000
C       49.06990000      47.35870000      43.93870000
C       55.97950000      50.63770000      47.47850000
C       43.74430000      49.20000000      47.10030000
C       56.25580000      49.20130000      52.89980000
C       52.71780000      56.16100000      50.68540000
C       50.61080000      47.38860000      43.93380000
C       44.08040000      49.09390000      52.51410000
C       47.28110000      56.16040000      49.31420000
C       52.72070000      43.78070000      49.32890000
C       47.28040000      43.78030000      50.67150000
C       49.38960000      47.38890000      56.06640000
C       51.00510000      52.81040000      56.07990000
C       48.99440000      52.80980000      43.91990000
C       55.91970000      49.09470000      47.48590000
C       43.73570000      50.69670000      47.12210000
C       56.26410000      50.69800000      52.87790000
C       51.47610000      55.70990000      53.83720000
C       54.09300000      51.41260000      55.76850000
C       55.42860000      53.79440000      51.52250000
C       48.52290000      55.70930000      46.16240000
C       51.46440000      44.61520000      46.21680000
C       48.53660000      44.61510000      53.78350000
C       45.90670000      51.41140000      44.23140000
C       53.62700000      48.71480000      44.60310000
C       46.37320000      48.71450000      55.39700000
C       44.57070000      53.79330000      48.47720000
C       55.58010000      46.04920000      48.80410000
C       44.42060000      46.04830000      51.19620000
C       51.32390000      44.42080000      53.83470000
C       54.04940000      48.64010000      55.79720000
C       55.46530000      46.05110000      51.65250000
C       48.67710000      44.42030000      46.16570000
C       51.24880000      55.66970000      46.10680000
C       48.75020000      55.66970000      53.89280000
C       45.95080000      48.63900000      44.20280000
C       53.64190000      51.49260000      44.75180000
C       46.35780000      51.49230000      55.24810000
C       44.53540000      46.05000000      48.34780000
C       55.50510000      53.72520000      48.72950000
C       44.49420000      53.72430000      51.27020000
C       44.81200000      45.47190000      47.02040000
C       47.35640000      44.39380000      45.63530000
C       45.45670000      47.33600000      44.32920000
C       55.18880000      45.47310000      52.97990000
C       44.49210000      54.20720000      52.61000000
C       55.50720000      54.20800000      47.38970000
C       52.64460000      44.39460000      54.36510000
C       47.47210000      55.52660000      54.44680000
C       52.52690000      55.52680000      45.55280000
C       54.54370000      47.33720000      55.67100000
C       45.69680000      52.79040000      55.05250000
C       54.30270000      52.79090000      44.94730000
C       44.76830000      54.44360000      47.17010000
C       47.18190000      55.67250000      45.70900000
C       45.36450000      52.69210000      44.39640000
C       55.23090000      54.44470000      52.82960000
C       44.51700000      45.52380000      52.49910000
C       55.48380000      45.52460000      47.50120000
C       52.81710000      55.67330000      54.29060000
C       47.21350000      44.88830000      54.37100000
C       52.78740000      44.88850000      45.62930000
C       54.63500000      52.69330000      55.60340000
C       45.83170000      47.39860000      55.45160000
C       54.16880000      47.39900000      44.54860000
C       56.06120000      52.64150000      50.93020000
C       50.83570000      56.24310000      52.69540000
C       52.89970000      50.79980000      56.25570000
C       43.93840000      52.64040000      49.06960000
C       56.08540000      47.19180000      49.47570000
C       43.91520000      47.19080000      50.52450000
C       49.16320000      56.24280000      47.30420000
C       50.85210000      43.91490000      47.31760000
C       49.14890000      43.91500000      52.68280000
C       47.10020000      50.79890000      43.74420000
C       52.52150000      49.36280000      44.02050000
C       47.47860000      49.36270000      55.97960000
C       56.08030000      47.19050000      51.00540000
C       50.68610000      43.83950000      52.71850000
C       52.87800000      49.30310000      56.26420000
C       43.92020000      47.18930000      48.99480000
C       56.06600000      52.61180000      49.38930000
C       43.93350000      52.61080000      50.61060000
C       49.31500000      43.83920000      47.28190000
C       50.67070000      56.21950000      47.27960000
C       49.32820000      56.21950000      52.72000000
C       47.12210000      49.30220000      43.73580000
C       52.51400000      50.90570000      44.08030000
C       47.48580000      50.90570000      55.91960000
C       49.29010000      57.45970000      50.73440000
C       50.83450000      49.35940000      57.39300000
C       57.34790000      50.62080000      49.40000000
C       50.70860000      57.45980000      49.26510000
C       49.30120000      42.52910000      49.26440000
C       50.70010000      42.52920000      50.73610000
C       49.16560000      49.35880000      42.60700000
C       50.58660000      50.81700000      42.67000000
C       49.41330000      50.81740000      57.33000000
C       42.65200000      50.61950000      50.59990000
C       57.38430000      49.19570000      50.85170000
C       42.61580000      49.19430000      49.14830000
C       49.26600000      42.54020000      50.70950000
C       50.85170000      50.80530000      57.38420000
C       57.33010000      49.18340000      49.41330000
C       50.73530000      42.54030000      49.29100000
C       49.26340000      57.47080000      49.30030000
C       50.73520000      57.47090000      50.69920000
C       49.14820000      50.80470000      42.61570000
C       50.60000000      49.37970000      42.65210000
C       49.40020000      49.38000000      57.34800000
C       42.67010000      49.18220000      50.58670000
C       57.39290000      50.64160000      50.83440000
C       42.60700000      50.64020000      49.16560000
C       45.24440000      45.16010000      50.49630000
C       50.64070000      45.42840000      45.39860000
C       44.99290000      50.66530000      45.00940000
C       54.75640000      45.16090000      49.50400000
C       45.38320000      54.61350000      49.30140000
C       54.61590000      54.61440000      50.69830000
C       49.36010000      45.42860000      54.60170000
C       50.83900000      54.82720000      54.71510000
C       49.16010000      54.82680000      45.28460000
C       55.00700000      50.66650000      54.99060000
C       45.58850000      49.33130000      54.43140000
C       54.41170000      49.33180000      45.56860000
C       45.39810000      54.57110000      50.64020000
C       50.49570000      54.83940000      45.24380000
C       45.00940000      49.33350000      44.99300000
C       54.60110000      54.57190000      49.35950000
C       45.28520000      45.17260000      49.16080000
C       54.71560000      45.17350000      50.83950000
C       49.50350000      54.83960000      54.75580000
C       50.69890000      45.38630000      54.61650000
C       49.30190000      45.38580000      45.38380000
C       54.99070000      49.33470000      55.00700000
C       45.56860000      50.66820000      54.41160000
C       54.43130000      50.66870000      45.58840000
