240
Lattice="100.0 0.0 0.0 0.0 100.0 0.0 0.0 0.0 100.0" Properties=species:S:1:pos:R:3 name=C-2509655-3548-103 pressure=-161.750542649628 energy=-1769.42264674115 spacegroup=Td times_found=1 pbc="T T T"
C       57.25620000      52.17570000      46.85160000
C       46.85230000      57.25640000      52.17600000
C       52.17630000      46.85210000      57.25620000
C       42.74380000      52.17570000      53.14840000
C       57.25670000      47.82430000      53.14730000
C       42.74330000      47.82430000      46.85270000
C       53.14770000      57.25640000      47.82410000
C       46.85200000      42.74360000      47.82450000
C       53.14800000      42.74360000      52.17540000
C       47.82370000      46.85220000      42.74370000
C       52.17510000      53.14790000      42.74340000
C       47.82490000      53.14780000      57.25660000
C       46.85270000      52.17570000      57.25670000
C       52.17550000      57.25640000      46.85200000
C       57.25660000      46.85210000      52.17510000
C       53.14730000      52.17570000      42.74330000
C       53.14840000      47.82430000      57.25620000
C       46.85160000      47.82430000      42.74380000
C       47.82450000      57.25640000      53.14800000
C       47.82400000      42.74360000      46.85230000
C       52.17600000      42.74360000      53.14770000
C       42.74340000      46.85220000      47.82480000
C       42.74370000      53.14780000      52.17630000
C       57.25630000      53.14780000      47.82370000
C       49.48150000      43.96040000      46.22060000
C       46.22010000      49.48180000      43.96070000
C       43.96030000      46.22060000      49.48220000
C       50.51850000      43.96040000      53.77940000
C       49.48210000      56.03960000      53.77950000
C       50.51790000      56.03960000      46.22050000
C       53.77990000      49.48170000      56.03930000
C       46.22100000      50.51820000      56.03990000
C       53.77900000      50.51830000      43.96010000
C       56.03960000      46.22060000      50.51780000
C       43.96040000      53.77940000      50.51870000
C       56.03960000      53.77940000      49.48130000
C       46.22050000      43.96040000      49.48200000
C       43.96010000      49.48180000      46.22100000
C       49.48130000      46.22060000      43.96040000
C       53.77950000      43.96040000      50.51790000
C       53.77940000      56.03960000      49.48150000
C       46.22060000      56.03960000      50.51860000
C       56.03990000      49.48170000      53.77900000
C       56.03930000      50.51830000      46.22010000
C       43.96070000      50.51820000      53.77990000
C       50.51870000      46.22050000      56.03960000
C       50.51780000      53.77950000      43.96040000
C       49.48220000      53.77940000      56.03970000
C       55.59660000      48.29930000      46.41440000
C       46.41470000      55.59690000      48.29960000
C       48.29970000      46.41480000      55.59700000
C       44.40340000      48.29920000      53.58550000
C       55.59720000      51.70070000      53.58470000
C       44.40280000      51.70080000      46.41530000
C       53.58530000      55.59690000      51.70050000
C       46.41500000      44.40310000      51.70100000
C       53.58500000      44.40310000      48.29900000
C       51.70030000      46.41490000      44.40300000
C       48.29880000      53.58520000      44.40320000
C       51.70120000      53.58510000      55.59680000
C       46.41530000      48.29920000      55.59720000
C       48.29900000      55.59690000      46.41500000
C       55.59680000      46.41490000      48.29880000
C       53.58470000      48.29930000      44.40280000
C       53.58560000      51.70070000      55.59660000
C       46.41440000      51.70080000      44.40340000
C       51.70100000      55.59690000      53.58500000
C       51.70050000      44.40310000      46.41470000
C       48.29950000      44.40310000      53.58520000
C       44.40320000      46.41490000      51.70120000
C       44.40300000      53.58510000      48.29970000
C       55.59700000      53.58510000      51.70030000
C       54.02650000      44.96090000      52.99080000
C       52.99070000      54.02630000      44.96070000
C       44.96120000      52.99110000      54.02670000
C       45.97350000      44.96090000      47.00920000
C       54.02610000      55.03910000      47.00860000
C       45.97400000      55.03910000      52.99150000
C       47.00930000      54.02630000      55.03940000
C       52.99150000      45.97370000      55.03890000
C       47.00850000      45.97370000      44.96110000
C       55.03880000      52.99110000      45.97330000
C       44.96060000      47.00890000      45.97410000
C       55.03940000      47.00890000      54.02590000
C       52.99140000      44.96090000      54.02600000
C       44.96110000      54.02630000      52.99150000
C       54.02590000      52.99110000      44.96060000
C       47.00860000      44.96090000      45.97390000
C       47.00920000      55.03910000      54.02650000
C       52.99080000      55.03910000      45.97350000
C       55.03890000      54.02630000      47.00850000
C       55.03940000      45.97370000      52.99070000
C       44.96060000      45.97370000      47.00930000
C       45.97410000      52.99110000      55.03950000
C       45.97330000      47.00890000      44.96120000
C       54.02670000      47.00890000      55.03880000
C       52.41860000      56.41840000      51.40780000
C       51.40850000      52.41850000      56.41830000
C       56.41860000      51.40800000      52.41800000
C       47.58140000      56.41840000      48.59220000
C       52.41840000      43.58160000      48.59180000
C       47.58160000      43.58160000      51.40820000
C       48.59150000      52.41850000      43.58170000
C       51.40750000      47.58150000      43.58150000
C       48.59250000      47.58150000      56.41850000
C       43.58140000      51.40800000      47.58200000
C       56.41820000      48.59200000      47.58100000
C       43.58180000      48.59200000      52.41900000
C       51.40820000      56.41840000      52.41840000
C       56.41850000      52.41850000      51.40750000
C       52.41900000      51.40800000      56.41820000
C       48.59180000      56.41840000      47.58160000
C       48.59220000      43.58160000      52.41860000
C       51.40780000      43.58160000      47.58140000
C       43.58150000      52.41850000      48.59250000
C       43.58170000      47.58150000      51.40850000
C       56.41830000      47.58150000      48.59150000
C       47.58100000      51.40800000      43.58180000
C       47.58200000      48.59200000      56.41850000
C       52.41800000      48.59200000      43.58140000
C       50.00280000      56.77770000      47.38860000
C       47.38920000      50.00290000      56.77780000
C       56.77760000      47.38860000      50.00240000
C       49.99730000      56.77760000      52.61140000
C       50.00320000      43.22230000      52.61130000
C       49.99680000      43.22240000      47.38860000
C       52.61080000      50.00300000      43.22220000
C       47.38810000      49.99710000      43.22260000
C       52.61190000      49.99700000      56.77740000
C       43.22230000      47.38860000      49.99760000
C       56.77770000      52.61140000      49.99650000
C       43.22240000      52.61140000      50.00350000
C       47.38860000      56.77760000      50.00320000
C       56.77740000      50.00300000      47.38810000
C       50.00350000      47.38860000      56.77760000
C       52.61140000      56.77760000      49.99690000
C       52.61140000      43.22230000      50.00270000
C       47.38860000      43.22240000      49.99720000
C       43.22260000      50.00300000      52.61190000
C       43.22220000      49.99710000      47.38920000
C       56.77790000      49.99700000      52.61080000
C       49.99650000      47.38860000      43.22230000
C       49.99760000      52.61140000      56.77770000
C       50.00240000      52.61140000      43.22240000
C       44.66150000      50.53960000      45.64460000
C       45.64420000      44.66180000      50.53990000
C       50.53920000      45.64420000      44.66180000
C       55.33850000      50.53960000      54.35540000
C       44.66220000      49.46040000      54.35620000
C       55.33780000      49.46040000      45.64380000
C       54.35580000      44.66180000      49.46010000
C       45.64410000      55.33820000      49.46080000
C       54.35590000      55.33820000      50.53930000
C       49.46080000      45.64420000      55.33820000
C       50.54000000      54.35580000      55.33810000
C       49.46000000      54.35580000      44.66190000
C       45.64380000      50.53960000      44.66220000
C       50.53920000      44.66190000      45.64410000
C       44.66190000      45.64420000      50.54000000
C       54.35620000      50.53960000      55.33780000
C       54.35540000      49.46040000      44.66150000
C       45.64460000      49.46040000      55.33850000
C       49.46080000      44.66180000      54.35580000
C       49.46010000      55.33820000      45.64420000
C       50.53990000      55.33810000      54.35580000
C       55.33810000      45.64420000      49.46000000
C       55.33820000      54.35580000      50.53920000
C       44.66180000      54.35580000      49.46090000
C       48.06490000      56.07110000      53.90540000
C       53.90570000      48.06460000      56.07080000
C       56.07100000      53.90520000      48.06410000
C       51.93510000      56.07110000      46.09470000
C       48.06430000      43.92890000      46.09490000
C       51.93570000      43.92890000      53.90500000
C       46.09430000      48.06460000      43.92920000
C       53.90470000      51.93540000      43.92860000
C       46.09530000      51.93540000      56.07140000
C       43.92900000      53.90520000      51.93590000
C       56.07130000      46.09480000      51.93490000
C       43.92870000      46.09480000      48.06510000
C       53.90510000      56.07110000      48.06430000
C       56.07140000      48.06460000      53.90470000
C       48.06510000      53.90520000      56.07130000
C       46.09500000      56.07110000      51.93570000
C       46.09460000      43.92890000      48.06490000
C       53.90530000      43.92890000      51.93510000
C       43.92860000      48.06460000      46.09530000
C       43.92920000      51.93540000      53.90570000
C       56.07080000      51.93540000      46.09430000
C       51.93490000      53.90520000      43.92870000
C       51.93590000      46.09480000      56.07100000
C       48.06410000      46.09480000      43.92900000
C       57.50010000      48.91370000      52.09900000
C       52.09950000      57.49990000      48.91360000
C       48.91440000      52.09960000      57.50000000
C       42.49990000      48.91380000      47.90100000
C       57.49970000      51.08620000      47.89980000
C       42.50030000      51.08620000      52.10020000
C       47.90050000      57.49990000      51.08640000
C       52.09970000      42.50010000      51.08610000
C       47.90030000      42.50010000      48.91390000
C       51.08570000      52.09960000      42.50000000
C       48.91320000      47.90040000      42.50020000
C       51.08680000      47.90040000      57.49980000
C       52.10020000      48.91370000      57.49970000
C       48.91390000      57.49990000      52.09970000
C       57.49980000      52.09960000      48.91320000
C       47.89980000      48.91380000      42.50030000
C       47.90100000      51.08620000      57.50010000
C       52.09900000      51.08630000      42.49990000
C       51.08610000      57.49990000      47.90030000
C       51.08640000      42.50010000      52.09950000
C       48.91360000      42.50010000      47.90040000
C       42.50020000      52.09960000      51.08680000
C       42.50000000      47.90040000      48.91430000
C       57.50000000      47.90040000      51.08570000
C       45.14470000      53.84370000      47.14840000
C       47.14830000      45.14490000      53.84390000
C       53.84330000      47.14800000      45.14470000
C       54.85530000      53.84370000      52.85160000
C       45.14520000      46.15630000      52.85240000
C       54.85480000      46.15630000      47.14760000
C       52.85170000      45.14500000      46.15610000
C       47.14770000      54.85510000      46.15650000
C       52.85230000      54.85500000      53.84350000
C       46.15670000      47.14800000      54.85530000
C       53.84410000      52.85200000      54.85480000
C       46.15590000      52.85200000      45.14530000
C       47.14760000      53.84370000      45.14520000
C       53.84350000      45.14500000      47.14770000
C       45.14530000      47.14800000      53.84400000
C       52.85240000      53.84370000      54.85480000
C       52.85160000      46.15630000      45.14470000
C       47.14840000      46.15630000      54.85530000
C       46.15650000      45.14490000      52.85230000
C       46.15610000      54.85510000      47.14830000
C       53.84390000      54.85500000      52.85170000
C       54.85470000      47.14800000      46.15590000
C       54.85530000      52.85200000      53.84330000
C       45.14460000      52.85200000      46.15670000
