240
Lattice="100.0 0.0 0.0 0.0 100.0 0.0 0.0 0.0 100.0" Properties=species:S:1:pos:R:3 name=C-2509655-3548-605 pressure=-0.00518887472716786 spacegroup=C1 times_found=1 energy=-1691.95560381733 pbc="T T T"
C       47.55670000      55.96450000      47.01940000
C       47.32690000      47.74540000      55.55560000
C       55.12730000      46.90590000      47.53980000
C       47.39290000      44.51450000      53.11870000
C       52.37750000      44.03740000      47.02210000
C       52.41850000      55.94400000      52.97150000
C       46.89760000      52.33130000      44.30760000
C       53.13740000      52.32820000      55.69200000
C       53.04960000      47.69250000      44.35660000
C       55.18760000      53.11030000      52.49050000
C       44.79020000      53.08990000      47.47120000
C       44.34050000      46.72590000      52.19460000
C       52.38870000      55.93980000      47.06200000
C       53.33960000      47.65690000      55.91890000
C       44.65980000      46.89470000      47.37410000
C       52.32000000      44.15710000      53.00180000
C       47.64580000      44.29470000      47.22740000
C       47.64510000      55.86140000      52.92140000
C       53.07410000      52.30730000      44.34380000
C       47.00080000      52.21920000      55.60800000
C       46.87030000      47.74020000      44.28840000
C       44.93720000      52.95240000      52.39580000
C       55.17130000      53.10660000      47.50790000
C       55.25060000      46.89870000      52.62000000
C       56.03170000      49.28050000      52.62240000
C       52.61090000      56.88300000      49.26570000
C       49.31380000      52.37310000      56.09260000
C       55.95910000      50.73280000      47.44660000
C       44.18980000      50.53800000      52.35930000
C       43.86740000      49.26970000      47.31290000
C       52.48850000      43.27580000      50.77020000
C       47.33610000      43.33340000      49.38990000
C       47.38690000      56.83650000      50.73790000
C       49.22870000      47.66650000      43.97670000
C       51.03680000      47.53690000      56.41830000
C       50.72490000      52.37400000      43.99590000
C       44.05610000      49.07310000      52.29810000
C       47.36310000      56.86640000      49.24390000
C       50.79380000      52.37270000      56.09200000
C       43.92720000      50.73800000      47.34240000
C       56.00780000      50.74690000      52.58520000
C       55.94420000      49.26690000      47.46090000
C       47.26300000      43.37030000      50.87790000
C       52.53170000      43.19450000      49.27980000
C       52.62140000      56.88470000      50.76080000
C       50.70230000      47.64990000      43.99680000
C       49.57470000      47.56220000      56.34120000
C       49.25190000      52.38060000      43.98910000
C       48.30590000      55.47270000      45.92400000
C       45.99750000      48.18410000      55.42990000
C       55.29230000      45.69760000      48.33720000
C       48.33680000      44.63170000      54.20120000
C       51.60980000      44.54340000      45.94270000
C       51.68600000      55.45510000      54.08000000
C       45.65660000      51.65580000      44.16230000
C       54.39920000      51.68570000      55.80900000
C       54.29310000      48.36970000      44.23600000
C       55.35630000      54.31390000      51.68210000
C       44.63800000      54.27930000      48.30300000
C       44.22750000      45.50680000      51.47340000
C       51.65700000      55.45840000      45.95130000
C       54.53330000      48.41950000      55.93830000
C       44.48940000      45.68110000      48.18480000
C       51.72230000      44.51320000      54.23100000
C       48.28850000      44.65650000      46.03040000
C       48.37080000      55.40540000      54.04470000
C       54.31110000      51.61960000      44.22300000
C       45.84040000      51.41790000      55.58950000
C       45.63220000      48.41790000      44.13540000
C       44.72390000      54.18330000      51.64540000
C       55.34530000      54.31290000      48.31400000
C       55.33280000      45.71480000      51.76130000
C       49.20300000      46.54830000      44.88220000
C       44.24630000      49.29840000      45.91350000
C       46.00170000      43.94350000      49.36480000
C       49.31090000      53.47540000      55.16330000
C       50.72980000      53.49680000      44.89770000
C       51.09160000      46.33180000      55.60530000
C       44.76490000      50.40960000      53.67010000
C       55.63390000      50.72000000      46.03600000
C       55.73430000      49.31130000      54.03680000
C       46.10600000      56.11060000      50.70310000
C       53.90620000      56.18320000      49.29560000
C       53.79170000      43.94940000      50.73930000
C       50.68830000      46.52940000      44.90160000
C       55.62220000      49.26290000      46.04860000
C       53.83280000      43.87630000      49.31830000
C       50.78800000      53.48600000      55.16890000
C       49.24510000      53.50130000      44.89230000
C       49.65350000      46.33060000      55.56910000
C       55.71020000      50.76700000      54.00240000
C       44.28520000      50.75430000      45.94140000
C       44.72630000      48.94690000      53.57610000
C       53.91540000      56.18650000      50.71780000
C       46.07970000      56.14640000      49.28260000
C       45.93000000      43.92920000      50.80190000
C       55.93300000      51.93830000      48.09910000
C       48.11310000      56.89540000      51.92700000
C       52.21720000      48.14440000      56.72030000
C       55.99580000      48.06480000      51.98940000
C       43.83000000      48.03960000      47.93250000
C       44.13800000      51.79370000      51.80250000
C       48.09010000      43.26260000      48.21200000
C       51.74580000      43.24710000      51.94530000
C       51.88730000      56.94570000      48.07490000
C       51.92610000      51.83940000      43.58540000
C       48.10150000      51.83110000      56.47530000
C       48.03360000      48.20270000      43.54990000
C       44.00450000      51.91970000      48.03430000
C       51.91100000      56.94730000      51.95760000
C       48.36390000      48.22020000      56.48950000
C       43.67780000      47.91340000      51.67160000
C       55.89400000      48.07580000      48.14050000
C       55.94760000      51.93560000      51.90180000
C       51.84560000      43.08720000      48.07540000
C       47.89650000      43.45710000      52.09670000
C       48.06770000      56.95520000      48.04550000
C       48.05120000      51.86250000      43.55960000
C       52.01040000      51.84590000      56.48520000
C       51.91000000      48.16960000      43.59090000
C       42.60640000      53.38470000      49.28600000
C       49.13960000      42.40430000      53.83530000
C       53.51950000      49.26430000      42.16280000
C       42.26810000      46.41370000      50.43120000
C       57.32570000      46.57490000      49.30400000
C       57.38860000      53.42160000      50.71740000
C       49.27130000      57.69950000      46.15420000
C       50.70900000      57.68430000      53.85830000
C       50.58970000      42.33610000      46.21550000
C       53.69580000      50.85770000      57.91700000
C       46.46620000      50.77560000      42.09620000
C       46.50550000      49.14230000      57.63540000
C       57.38470000      53.42250000      49.26970000
C       50.58820000      42.37650000      53.79790000
C       46.46000000      49.31840000      42.08780000
C       57.35790000      46.56540000      50.75080000
C       42.36450000      46.46920000      48.98210000
C       42.64700000      53.34040000      50.73480000
C       50.70990000      57.69360000      46.16480000
C       49.26980000      57.66590000      53.84780000
C       49.15230000      42.38780000      46.26450000
C       46.40960000      50.58460000      57.72410000
C       53.52570000      50.72160000      42.15800000
C       53.77660000      49.40910000      57.99380000
C       56.39110000      54.46430000      49.24520000
C       49.26660000      56.37740000      54.53390000
C       54.79070000      49.36410000      56.96810000
C       56.34460000      45.54350000      50.79360000
C       43.34510000      45.42670000      48.97320000
C       43.65020000      54.37320000      50.75670000
C       49.16190000      43.66000000      45.54790000
C       50.69720000      43.59330000      54.60200000
C       50.72950000      56.40750000      45.47590000
C       54.57820000      50.74380000      43.14580000
C       45.48520000      50.53140000      56.61360000
C       45.38730000      49.29350000      43.05290000
C       43.61300000      54.41520000      49.26000000
C       50.74500000      56.39690000      54.54460000
C       45.60050000      49.04000000      56.50320000
C       43.23790000      45.33930000      50.47650000
C       56.31740000      45.54760000      49.29070000
C       56.39550000      54.46460000      50.74440000
C       50.64030000      43.61280000      45.50800000
C       49.19270000      43.59990000      54.61620000
C       49.24960000      56.41410000      45.46510000
C       45.39620000      50.80090000      43.06530000
C       54.72610000      50.86550000      56.90360000
C       54.57020000      49.23560000      43.15250000
C       46.88270000      53.23320000      45.43830000
C       45.38780000      46.65750000      53.20020000
C       53.52420000      44.66330000      47.20480000
C       47.62040000      46.78380000      54.69780000
C       53.04700000      46.78060000      45.48100000
C       53.12350000      53.22770000      54.55880000
C       45.57250000      52.87550000      46.23100000
C       54.42160000      52.89030000      53.74000000
C       54.34930000      47.13040000      46.29420000
C       53.53750000      55.28320000      52.75850000
C       46.43580000      55.29950000      47.21810000
C       46.17910000      45.32230000      52.84620000
C       53.08410000      53.22130000      45.46650000
C       54.53920000      47.12160000      53.90640000
C       46.57090000      45.02010000      47.45740000
C       53.32230000      46.70480000      54.80450000
C       46.84110000      46.83760000      45.41900000
C       47.00630000      53.12930000      54.48220000
C       54.38680000      52.87280000      46.27140000
C       45.77380000      52.69440000      53.58630000
C       45.50150000      47.16000000      46.18100000
C       46.56310000      55.14670000      52.69120000
C       53.50430000      55.27090000      47.26740000
C       53.41950000      44.85220000      52.77270000
C       51.91480000      54.09320000      54.55520000
C       55.00560000      51.81770000      54.54230000
C       54.38380000      55.32340000      51.72230000
C       51.82620000      45.91410000      45.48730000
C       48.56970000      45.85370000      54.82540000
C       48.09600000      54.10400000      45.46430000
C       54.91490000      48.21980000      45.49800000
C       45.36070000      47.83500000      54.12860000
C       45.01520000      51.79480000      45.41570000
C       54.33120000      44.67600000      48.27560000
C       45.40280000      44.77440000      51.75590000
C       45.60360000      55.29860000      48.26680000
C       48.17800000      54.04180000      54.52030000
C       45.33220000      51.49690000      54.28570000
C       45.68800000      55.19810000      51.68400000
C       48.05390000      45.98140000      45.47710000
C       52.14430000      45.79380000      54.85650000
C       51.87380000      54.09410000      45.48220000
C       44.96510000      48.25690000      45.37170000
C       55.09390000      48.25810000      54.64680000
C       54.93920000      51.77010000      45.48070000
C       45.59030000      44.82900000      48.34990000
C       54.28290000      44.78630000      51.75290000
C       54.36630000      55.31670000      48.28950000
C       47.80640000      49.28640000      42.62730000
C       42.94930000      47.79540000      49.03180000
C       49.16540000      42.45770000      47.73490000
C       47.81620000      50.75370000      57.39830000
C       52.16940000      50.75280000      42.67030000
C       52.40800000      49.30240000      57.53900000
C       43.26240000      52.02750000      50.70310000
C       56.75100000      52.11390000      49.25210000
C       56.75410000      47.88200000      50.79610000
C       49.23690000      57.64340000      52.38450000
C       50.74530000      57.66980000      47.62600000
C       50.56160000      42.56650000      52.34310000
C       52.16290000      49.25020000      42.67290000
C       56.71160000      47.89270000      49.29790000
C       50.67900000      42.38630000      47.67450000
C       52.32190000      50.80370000      57.43820000
C       47.81340000      50.78750000      42.63170000
C       47.94420000      49.26460000      57.34770000
C       56.75430000      52.11070000      50.73940000
C       43.21490000      52.06920000      49.21120000
C       42.83960000      47.75410000      50.52260000
C       50.76290000      57.66420000      52.39670000
C       49.21620000      57.67620000      47.61370000
C       49.03030000      42.64610000      52.42230000
