240
Lattice="100.0 0.0 0.0 0.0 100.0 0.0 0.0 0.0 100.0" Properties=species:S:1:pos:R:3 name=C-2509655-3548-1411 pressure=0.0158259811427812 spacegroup=C1 times_found=1 energy=-1758.34621919073 pbc="T T T"
C       57.52480000      47.17290000      48.95200000
C       49.35840000      56.65710000      47.12000000
C       47.06290000      49.34930000      56.69080000
C       42.54370000      52.91010000      49.34560000
C       42.88610000      47.10130000      50.63750000
C       57.52030000      52.80150000      51.00480000
C       50.53380000      42.63770000      47.15640000
C       50.71080000      57.60610000      52.83060000
C       49.71610000      42.59750000      53.04240000
C       52.67140000      50.77890000      56.75650000
C       52.76770000      49.19470000      43.10110000
C       47.15130000      50.81370000      42.47900000
C       57.51480000      47.06180000      50.36790000
C       49.26850000      57.63170000      52.80700000
C       47.08200000      49.39840000      42.57620000
C       42.46400000      52.84810000      50.76200000
C       43.19100000      47.24370000      49.25670000
C       57.49700000      52.90590000      49.58840000
C       51.12240000      42.86210000      52.87010000
C       50.79170000      56.63490000      47.14540000
C       49.11580000      42.59570000      47.28530000
C       52.90630000      50.58230000      42.82500000
C       52.75350000      49.38290000      57.00230000
C       47.03060000      50.77670000      56.65920000
C       47.47600000      46.02120000      54.47780000
C       55.24690000      47.52550000      46.18290000
C       46.21500000      54.20500000      47.46500000
C       52.56180000      53.99100000      54.42250000
C       52.39850000      46.26440000      45.73070000
C       47.42090000      53.88470000      44.35620000
C       45.39700000      53.14200000      46.80910000
C       44.48000000      47.28390000      53.86780000
C       55.26110000      52.45890000      53.77790000
C       53.09260000      45.48030000      46.79570000
C       53.19710000      54.68390000      53.26580000
C       46.96490000      45.25070000      53.27410000
C       46.86020000      46.91530000      45.48880000
C       54.74650000      46.90380000      52.98450000
C       46.66830000      54.80830000      53.16310000
C       52.75950000      53.76470000      44.53280000
C       52.80410000      46.09260000      55.46480000
C       47.21770000      54.09930000      54.37420000
C       44.31550000      52.62320000      53.85970000
C       45.80680000      47.61140000      46.29550000
C       54.71170000      53.00230000      46.98030000
C       53.91940000      45.78040000      52.37910000
C       53.84080000      54.05020000      47.60120000
C       46.33920000      44.88540000      47.64370000
C       52.36160000      44.21650000      47.08550000
C       47.41220000      52.90010000      43.39140000
C       43.55890000      47.25920000      52.83500000
C       47.39750000      55.24400000      47.37870000
C       47.70290000      43.98220000      53.04610000
C       52.52270000      55.97490000      52.92690000
C       52.45190000      47.40920000      44.67020000
C       52.51540000      52.69960000      55.32400000
C       47.33630000      47.28070000      55.45620000
C       56.39250000      52.44060000      52.98210000
C       56.37600000      47.53570000      46.98370000
C       44.13560000      52.88700000      47.54860000
C       52.83940000      44.57830000      52.51230000
C       47.17880000      52.81180000      55.33100000
C       44.76020000      47.56240000      47.46800000
C       47.39670000      56.06920000      52.83990000
C       47.14400000      43.75780000      47.65120000
C       52.68910000      55.14230000      47.46890000
C       52.67350000      47.20970000      56.25700000
C       52.76950000      52.75380000      43.58670000
C       47.10370000      47.62680000      44.20440000
C       55.97530000      52.82710000      47.72890000
C       56.00230000      47.11290000      52.23810000
C       43.37900000      52.61600000      52.84580000
C       46.70650000      51.69140000      43.47670000
C       43.80710000      46.66510000      51.58750000
C       51.11000000      43.76870000      46.59970000
C       53.14650000      48.62260000      44.31670000
C       53.11860000      51.39670000      55.58680000
C       46.59030000      48.51370000      55.67670000
C       56.47210000      53.22570000      51.83210000
C       56.46460000      46.75710000      48.13610000
C       43.70150000      53.42150000      48.78210000
C       48.57570000      55.60990000      46.60810000
C       48.90900000      43.56110000      53.63620000
C       51.40540000      56.60840000      53.52460000
C       46.50030000      51.54920000      55.62500000
C       44.43040000      46.90620000      48.71440000
C       51.79730000      44.00760000      53.35940000
C       53.27110000      48.47070000      56.09050000
C       53.36570000      51.49800000      43.76890000
C       46.57800000      48.85450000      43.74650000
C       56.32510000      53.34670000      48.99240000
C       56.35530000      46.60110000      50.97160000
C       43.46330000      53.31180000      51.62940000
C       48.51500000      56.65880000      53.47620000
C       48.27260000      43.62830000      46.84320000
C       51.55770000      55.56080000      46.66340000
C       44.44680000      51.01420000      46.37700000
C       46.49220000      44.18080000      51.17000000
C       50.33690000      46.46060000      44.55930000
C       56.11610000      49.67570000      46.20830000
C       56.10000000      50.29340000      53.73020000
C       43.27280000      49.23640000      53.96400000
C       53.53020000      55.36320000      51.02470000
C       53.57230000      44.56190000      48.92700000
C       46.47840000      55.36830000      49.52630000
C       49.44560000      53.96740000      43.28780000
C       49.31180000      46.15340000      56.03000000
C       50.56760000      53.92720000      55.73450000
C       43.23020000      50.60520000      53.96430000
C       46.37750000      44.02860000      49.79880000
C       50.66560000      46.07800000      56.30100000
C       55.91170000      48.93080000      53.55810000
C       55.92770000      51.03670000      46.37680000
C       44.57320000      49.64210000      46.45370000
C       53.49620000      55.20440000      49.65710000
C       53.58160000      44.64930000      50.30250000
C       46.41370000      55.51150000      50.89960000
C       49.17980000      53.95810000      55.73390000
C       48.95990000      46.43290000      44.49160000
C       50.81320000      53.93030000      43.32690000
C       42.18290000      49.16620000      51.77800000
C       51.80490000      42.85980000      49.19900000
C       49.38210000      51.81150000      42.14080000
C       57.67220000      50.50990000      51.87000000
C       57.67480000      49.46000000      48.08320000
C       42.77850000      50.79430000      48.19110000
C       48.29230000      56.89830000      49.23890000
C       48.38230000      42.56430000      51.01840000
C       51.78010000      57.05640000      50.71740000
C       50.61420000      48.21640000      42.94260000
C       50.55900000      51.84670000      56.87020000
C       49.14890000      48.27470000      57.12910000
C       42.97030000      49.36540000      48.22670000
C       51.90110000      42.96940000      50.62610000
C       49.11920000      51.86980000      56.86740000
C       57.57340000      50.88890000      48.25070000
C       57.57230000      49.08000000      51.70220000
C       42.12760000      50.62650000      51.78710000
C       48.24850000      57.12530000      50.65880000
C       48.25160000      42.49090000      49.58580000
C       51.78080000      56.82760000      49.29950000
C       50.58820000      48.26130000      57.33610000
C       50.84000000      51.76470000      42.19640000
C       49.18130000      48.22040000      42.79390000
C       48.78940000      44.75310000      46.09060000
C       46.01400000      49.70840000      44.70230000
C       45.15750000      46.03840000      49.62980000
C       50.81790000      55.04830000      45.51920000
C       51.03600000      44.55110000      54.46830000
C       49.19500000      55.84100000      54.38580000
C       54.03390000      51.00150000      44.95210000
C       53.99820000      48.97900000      54.95230000
C       45.41800000      50.72640000      55.09140000
C       55.30200000      53.86560000      49.79970000
C       55.33220000      46.07180000      50.17250000
C       44.63850000      54.00940000      51.11710000
C       49.57480000      44.45270000      54.45990000
C       45.46410000      49.25190000      55.10110000
C       45.03240000      46.03640000      51.13590000
C       50.66160000      55.81540000      54.40650000
C       50.27230000      44.73040000      46.01770000
C       49.34840000      55.07190000      45.48830000
C       54.03270000      50.49380000      54.88800000
C       54.06440000      49.50200000      45.02390000
C       46.02770000      51.19400000      44.66530000
C       55.29770000      53.89250000      51.29210000
C       55.29860000      46.09180000      48.68720000
C       44.67030000      53.99920000      49.61830000
C       48.38110000      47.36130000      43.63260000
C       43.98130000      48.80400000      47.38500000
C       47.17160000      43.18560000      49.01240000
C       51.53170000      52.85320000      42.77430000
C       51.32730000      47.16440000      56.87210000
C       48.42410000      52.85720000      56.09800000
C       56.69550000      51.64270000      47.38430000
C       56.69750000      48.32100000      52.56790000
C       42.64970000      51.31890000      52.90300000
C       52.64770000      55.83540000      48.76280000
C       52.77580000      43.95170000      51.18860000
C       47.30270000      56.41870000      51.46610000
C       48.52220000      47.25570000      56.33680000
C       42.73760000      48.49590000      52.89320000
C       47.46520000      43.37420000      51.77890000
C       51.28150000      52.80110000      56.09490000
C       51.18370000      47.36060000      43.93240000
C       48.71310000      52.93880000      42.67410000
C       56.96610000      51.07540000      52.95310000
C       56.96660000      48.89260000      47.00180000
C       43.58630000      51.59480000      47.30710000
C       52.66700000      56.31230000      51.55730000
C       52.64250000      43.68480000      48.37320000
C       47.40170000      55.94880000      48.66810000
C       51.34550000      54.69780000      54.87260000
C       55.04330000      51.12160000      54.20360000
C       54.13400000      54.45860000      51.97390000
C       48.73000000      45.43740000      54.98240000
C       48.69380000      54.47230000      44.41810000
C       51.03730000      45.77370000      45.52100000
C       44.43870000      48.54620000      54.47900000
C       45.44320000      51.89450000      45.80760000
C       55.05110000      48.85910000      45.73310000
C       46.04390000      45.31660000      51.93950000
C       45.74450000      54.43410000      48.84170000
C       54.11870000      45.55220000      48.02020000
C       51.51290000      54.41100000      44.49660000
C       54.74360000      51.76740000      45.98350000
C       54.23530000      54.25690000      48.99600000
C       48.09330000      45.90330000      45.52980000
C       48.45270000      54.75350000      54.84580000
C       51.58030000      45.41610000      55.39590000
C       45.55720000      48.95740000      45.77910000
C       44.35000000      51.36310000      54.47430000
C       54.73390000      48.19490000      53.95040000
C       45.90310000      45.08370000      48.98430000
C       45.77330000      54.61350000      51.82430000
C       54.29620000      45.61160000      50.98020000
C       50.80240000      57.28640000      48.41830000
C       48.31220000      50.83010000      57.29860000
C       58.00460000      48.40600000      50.54810000
C       49.25710000      42.14160000      48.66550000
C       49.27310000      57.76680000      51.37150000
C       51.02020000      42.38500000      51.52530000
C       51.40670000      49.37880000      57.55600000
C       51.61990000      50.60150000      42.15150000
C       48.46420000      49.25730000      42.16950000
C       41.99440000      51.46600000      50.67840000
C       42.47890000      48.48600000      49.19030000
C       57.99620000      51.56470000      49.40700000
C       50.75830000      57.73950000      51.39550000
C       48.52750000      50.71620000      42.00080000
C       58.04510000      48.53270000      49.07750000
C       49.55940000      42.17380000      51.68520000
C       49.32040000      57.31050000      48.39230000
C       50.72350000      42.24700000      48.53440000
C       51.50110000      49.16120000      42.42780000
C       51.35690000      50.82040000      57.33740000
C       48.32800000      49.36070000      57.35600000
C       42.15060000      51.52020000      49.22050000
C       42.17590000      48.36970000      50.62610000
C       58.04280000      51.44080000      50.87720000
