240
Lattice="100.0 0.0 0.0 0.0 100.0 0.0 0.0 0.0 100.0" Properties=species:S:1:pos:R:3 name=C-2509655-3548-1381 pressure=-0.0412211435161235 energy=-1732.04833882364 spacegroup=C1 times_found=1 pbc="T T T"
C       52.60490000      50.73530000      56.03240000
C       50.74780000      56.01740000      52.61150000
C       56.03310000      52.60680000      50.74930000
C       47.38260000      50.74900000      43.97930000
C       47.39560000      49.24620000      56.03970000
C       52.60030000      49.25370000      43.96360000
C       49.24600000      56.03440000      47.40200000
C       49.24530000      43.96250000      52.60060000
C       50.74470000      43.96780000      47.39500000
C       43.96240000      52.59930000      49.26000000
C       43.96240000      47.38640000      50.75860000
C       56.02390000      47.39060000      49.24830000
C       52.60970000      49.23880000      56.03490000
C       50.74160000      43.95790000      52.60520000
C       56.01960000      47.39630000      50.74310000
C       47.38930000      49.25410000      43.98300000
C       47.39860000      50.74240000      56.03980000
C       52.59380000      50.75200000      43.97030000
C       49.24840000      43.96440000      47.39060000
C       49.25300000      56.02020000      52.61670000
C       50.74420000      56.03180000      47.40390000
C       43.96540000      47.39310000      49.26210000
C       43.96300000      52.60050000      50.75630000
C       56.02630000      52.60160000      49.25100000
C       45.05640000      46.02850000      46.03450000
C       46.02570000      46.02440000      45.05490000
C       46.02610000      45.04950000      46.02450000
C       54.93520000      46.03060000      53.96710000
C       54.94010000      53.97430000      46.02710000
C       45.06280000      53.96410000      53.97340000
C       53.96770000      46.02260000      54.94620000
C       53.96580000      53.97640000      45.05470000
C       46.03720000      53.96520000      54.94960000
C       53.96130000      45.05370000      53.96870000
C       53.96840000      54.94900000      46.02860000
C       46.03290000      54.94080000      53.97870000
C       45.05130000      53.96390000      46.03810000
C       46.02170000      53.96890000      45.06190000
C       46.02820000      54.93770000      46.03980000
C       54.95120000      53.97150000      53.97240000
C       54.94320000      46.03030000      46.02820000
C       45.04940000      46.02480000      53.97420000
C       53.97260000      53.96200000      54.94260000
C       53.96590000      46.03620000      45.05880000
C       46.02850000      46.02960000      54.94160000
C       53.97740000      54.94230000      53.97390000
C       53.96640000      45.06030000      46.03360000
C       46.02570000      45.05470000      53.96590000
C       48.33100000      44.65380000      46.52440000
C       44.63830000      46.52240000      48.34830000
C       46.51620000      48.34280000      44.65410000
C       51.65810000      44.64600000      53.47260000
C       51.65480000      55.35950000      46.53050000
C       48.34000000      55.33290000      53.48670000
C       55.34790000      46.52200000      51.65200000
C       55.35260000      53.47420000      48.34080000
C       44.65380000      53.46650000      51.67170000
C       53.47710000      48.32810000      55.34360000
C       53.46580000      51.66280000      44.64370000
C       46.52560000      51.65040000      55.36670000
C       48.33070000      55.34480000      46.53620000
C       44.63570000      53.47280000      48.35270000
C       46.51290000      51.66190000      44.66730000
C       51.65910000      55.34550000      53.48430000
C       51.65170000      44.64240000      46.52230000
C       48.33920000      44.63670000      53.47420000
C       55.34490000      53.47280000      51.66650000
C       55.33660000      46.52110000      48.33490000
C       44.65220000      46.51700000      51.66850000
C       53.47610000      51.64840000      55.35930000
C       53.46740000      48.33870000      44.65230000
C       46.52760000      48.33150000      55.35040000
C       49.25380000      52.59990000      56.04720000
C       52.60160000      56.02930000      49.25750000
C       56.02930000      49.25050000      52.60400000
C       50.73550000      52.60570000      43.97780000
C       50.74890000      47.38290000      56.03170000
C       49.24620000      47.39540000      43.97170000
C       47.39230000      56.02220000      50.75940000
C       47.39130000      43.96570000      49.24810000
C       52.59750000      43.96400000      50.74760000
C       43.95970000      49.24810000      47.40640000
C       43.97290000      50.74010000      52.61090000
C       56.02090000      50.74490000      47.39550000
C       49.25430000      47.39000000      56.02770000
C       52.60210000      43.96130000      49.25130000
C       56.02850000      50.74700000      52.60320000
C       50.74250000      47.39850000      43.97140000
C       50.75190000      52.59290000      56.03990000
C       49.23880000      52.61000000      43.97580000
C       47.38740000      43.96050000      50.74450000
C       47.39450000      56.02130000      49.26460000
C       52.60690000      56.03010000      50.75580000
C       43.95310000      50.74620000      47.40060000
C       43.96780000      49.24550000      52.61630000
C       56.02530000      49.24830000      47.38920000
C       53.47480000      55.34020000      51.66970000
C       55.35710000      51.65480000      53.47850000
C       51.66140000      53.46400000      55.36450000
C       46.51940000      55.35050000      48.35540000
C       46.52120000      44.64880000      51.66210000
C       53.46890000      44.65130000      48.33580000
C       44.64280000      51.66120000      46.53440000
C       44.65630000      48.33160000      53.48440000
C       55.33640000      48.33690000      46.52030000
C       48.32760000      53.47780000      44.66630000
C       48.34430000      46.51770000      55.35480000
C       51.65080000      46.52480000      44.64320000
C       53.47020000      44.63830000      51.65460000
C       55.34130000      48.33370000      53.47080000
C       51.66130000      46.51350000      55.34260000
C       46.51750000      44.63960000      48.34100000
C       46.52350000      55.33410000      51.67250000
C       53.47220000      55.35720000      48.34400000
C       44.63510000      48.33910000      46.53480000
C       44.64620000      51.64870000      53.48450000
C       55.34810000      51.65910000      46.52460000
C       48.33020000      46.52650000      44.65930000
C       48.33930000      53.46680000      55.35770000
C       51.64990000      53.47780000      44.64900000
C       56.57180000      51.41710000      48.57750000
C       51.42980000      48.55950000      56.57960000
C       48.57250000      56.56580000      51.43820000
C       43.42170000      51.42240000      51.42680000
C       43.41430000      48.57500000      48.59080000
C       56.57000000      48.58090000      51.42490000
C       48.57460000      48.57370000      43.43160000
C       48.58340000      51.42310000      56.59140000
C       51.40810000      51.42430000      43.42610000
C       51.41800000      56.57950000      48.58680000
C       51.41200000      43.41380000      51.42870000
C       48.57760000      43.41760000      48.56590000
C       56.57030000      48.56870000      48.56880000
C       51.42410000      51.40780000      56.58460000
C       48.56350000      43.41450000      51.41440000
C       43.41910000      48.56630000      51.43900000
C       43.40960000      51.41580000      48.57820000
C       56.57850000      51.42940000      51.41840000
C       48.55960000      51.42970000      43.43170000
C       48.57370000      48.57460000      56.57980000
C       51.42310000      48.58340000      43.41990000
C       51.42620000      43.41710000      48.58020000
C       51.42850000      56.57080000      51.42770000
C       48.57710000      56.57450000      48.58210000
C       48.73170000      45.17390000      54.81700000
C       45.17560000      54.81440000      48.74510000
C       54.70720000      48.69690000      45.27960000
C       51.25990000      45.18180000      45.18040000
C       51.27010000      54.80470000      54.82740000
C       48.68740000      54.71860000      45.29550000
C       54.71460000      54.71240000      51.30920000
C       54.70910000      45.27870000      48.69240000
C       45.28050000      45.27620000      51.30730000
C       45.28630000      48.68860000      54.72560000
C       45.27090000      51.30350000      45.29490000
C       54.81700000      51.26040000      54.82050000
C       48.69790000      54.70570000      54.72900000
C       45.17560000      45.18050000      48.73490000
C       54.80620000      51.27040000      45.18390000
C       51.26080000      54.81830000      45.19100000
C       51.30250000      45.27220000      54.71370000
C       48.68780000      45.28480000      45.28500000
C       54.81220000      45.17780000      51.26300000
C       54.81200000      54.81410000      48.73430000
C       45.28080000      54.70700000      51.31560000
C       45.18300000      51.25940000      54.82830000
C       45.17280000      48.73140000      45.19460000
C       54.71700000      48.68830000      54.71310000
C       49.26920000      49.28060000      42.48410000
C       49.27720000      42.47180000      49.27100000
C       42.46850000      49.27270000      49.29360000
C       50.72430000      49.26290000      57.52470000
C       50.70560000      50.72630000      42.48040000
C       49.28460000      50.71190000      57.53200000
C       50.71210000      42.46970000      50.72160000
C       50.71640000      57.52170000      49.29100000
C       49.27520000      57.51290000      50.73520000
C       57.51700000      49.27730000      50.71880000
C       57.51860000      50.71520000      49.27460000
C       42.47320000      50.71700000      50.73160000
C       49.26290000      50.72420000      42.48660000
C       49.27460000      57.51850000      49.29160000
C       42.46870000      50.71460000      49.28880000
C       50.72640000      50.70560000      57.53080000
C       50.71190000      49.28450000      42.47940000
C       49.28070000      49.26920000      57.52750000
C       50.71880000      57.51640000      50.73280000
C       50.71990000      42.47140000      49.27880000
C       49.26940000      42.47000000      50.71370000
C       57.51950000      50.72000000      50.71640000
C       57.51440000      49.27250000      49.27520000
C       42.47460000      49.27340000      50.73630000
C       50.60730000      44.00920000      44.00520000
C       44.76160000      44.76140000      50.10200000
C       44.75470000      50.09800000      44.77800000
C       49.37950000      43.99920000      55.99030000
C       49.89210000      55.23630000      44.77660000
C       50.61660000      55.98510000      56.00330000
C       55.22690000      44.76220000      49.89650000
C       55.23040000      55.23040000      50.10170000
C       44.00470000      55.98810000      49.39800000
C       55.99740000      50.60210000      55.99350000
C       55.22370000      49.90350000      44.76370000
C       44.76930000      49.89240000      55.24360000
C       50.59680000      55.99970000      44.01120000
C       44.76250000      55.22660000      50.11320000
C       43.99700000      49.38530000      44.01420000
C       49.90370000      55.22200000      55.24520000
C       49.89300000      44.76830000      44.76620000
C       50.09780000      44.75620000      55.23100000
C       55.99510000      55.99540000      49.39770000
C       55.98710000      44.00560000      50.61440000
C       44.00030000      44.00030000      49.39020000
C       55.23450000      49.89210000      55.23230000
C       55.98750000      50.61100000      44.00120000
C       44.00960000      50.60940000      56.00140000
C       44.72230000      52.99850000      53.02690000
C       53.00500000      53.01760000      44.71840000
C       53.01330000      44.71330000      53.00480000
C       55.27750000      53.01380000      46.98560000
C       55.27330000      46.97860000      53.00210000
C       44.71560000      46.98400000      46.99400000
C       46.98340000      53.00030000      55.29120000
C       46.97500000      46.99310000      44.72220000
C       53.01100000      46.97850000      55.28210000
C       46.97590000      44.71300000      46.99110000
C       46.99010000      55.27320000      53.02180000
C       53.01030000      55.28640000      46.98930000
C       44.71480000      46.98210000      53.01850000
C       53.00080000      46.98280000      44.71870000
C       53.00880000      55.27690000      53.02540000
C       55.27630000      46.98680000      46.98540000
C       55.28590000      53.00530000      53.02170000
C       44.71020000      53.01660000      47.00220000
C       46.99470000      46.97600000      55.28090000
C       46.97780000      53.01180000      44.72760000
C       53.01600000      53.00340000      55.28300000
C       46.97550000      55.27650000      47.00500000
C       46.98910000      44.71420000      53.01740000
C       53.00180000      44.71900000      46.98030000
