240
Lattice="100.0 0.0 0.0 0.0 100.0 0.0 0.0 0.0 100.0" Properties=species:S:1:pos:R:3 name=C-2509655-3548-451 pressure=-37.5366393861895 spacegroup=C1 times_found=1 energy=-1739.06618917356 pbc="T T T"
C       53.15060000      43.54820000      49.24470000
C       49.47890000      54.08680000      44.72940000
C       44.54370000      49.14580000      53.15600000
C       53.10170000      56.13900000      50.81350000
C       46.91330000      56.59650000      49.01330000
C       46.66110000      43.56150000      50.18890000
C       49.26290000      46.66210000      55.84010000
C       50.80550000      46.54040000      44.77130000
C       50.22530000      53.23180000      55.99810000
C       44.29000000      50.70530000      46.94300000
C       56.11730000      51.13900000      52.85610000
C       56.13200000      49.34770000      46.88720000
C       45.85190000      43.40180000      49.14290000
C       50.67060000      53.47180000      44.64500000
C       55.92030000      49.67090000      52.82290000
C       46.94350000      56.30430000      50.46320000
C       53.11410000      56.33620000      49.30240000
C       52.98660000      43.68460000      50.72810000
C       50.74960000      46.79030000      55.59210000
C       49.21080000      46.45110000      44.74640000
C       49.17900000      54.02500000      56.24380000
C       56.15550000      50.78320000      46.84360000
C       44.66110000      50.73580000      53.17450000
C       44.14170000      49.28260000      46.92410000
C       54.78180000      45.36420000      51.60630000
C       51.70760000      55.82230000      45.42520000
C       45.85500000      51.55320000      55.40990000
C       54.98380000      54.93850000      48.23090000
C       45.12930000      54.78020000      51.63910000
C       44.40250000      44.92920000      48.01810000
C       51.44890000      44.52910000      54.42410000
C       48.34600000      44.19660000      45.83850000
C       48.00060000      55.54630000      54.81570000
C       45.35050000      48.07650000      45.09020000
C       54.47440000      48.51870000      54.68880000
C       54.64030000      51.83890000      45.12230000
C       44.88870000      45.11810000      51.43260000
C       48.30310000      56.15980000      45.33320000
C       54.41830000      51.91890000      54.54980000
C       45.20890000      54.95950000      48.20740000
C       55.39440000      54.95700000      51.50700000
C       54.95980000      45.18030000      48.36900000
C       48.18390000      44.93670000      54.31960000
C       51.80100000      44.21280000      45.44870000
C       51.43050000      55.16220000      54.62730000
C       54.67490000      48.22470000      45.17770000
C       45.36590000      48.10760000      55.41660000
C       45.85780000      51.71930000      45.24360000
C       45.92810000      46.97520000      56.24790000
C       55.03070000      45.86400000      47.11540000
C       47.19290000      56.89460000      45.92020000
C       46.88420000      52.73060000      44.90620000
C       53.69080000      53.13000000      54.63480000
C       53.96120000      47.09070000      44.57290000
C       56.23300000      54.32400000      52.56080000
C       45.23130000      54.20030000      46.99880000
C       44.36240000      45.87140000      52.62360000
C       46.94370000      44.93710000      53.63970000
C       52.93460000      43.36310000      45.96480000
C       52.61960000      55.78400000      53.94460000
C       53.85250000      47.33640000      55.35350000
C       44.64020000      45.70360000      46.85080000
C       52.79850000      56.70260000      46.01480000
C       53.90470000      52.95460000      44.51650000
C       46.69870000      52.53740000      56.07370000
C       46.01820000      46.88410000      44.52260000
C       44.57930000      54.00520000      52.80030000
C       55.00840000      54.24640000      46.98050000
C       54.78130000      46.12330000      52.81670000
C       52.50440000      43.66890000      53.84740000
C       47.33250000      43.53840000      46.65000000
C       46.85770000      55.31520000      54.00510000
C       43.86550000      51.71090000      50.73990000
C       50.45380000      42.96640000      51.42780000
C       51.49530000      50.74360000      44.08620000
C       43.67540000      48.26590000      49.22860000
C       56.43940000      48.48450000      50.65930000
C       56.76890000      51.91980000      49.04430000
C       50.81040000      57.35490000      48.34050000
C       49.16390000      56.76280000      51.62630000
C       49.70360000      42.14240000      48.20910000
C       51.47390000      49.38490000      56.26220000
C       48.35480000      48.81530000      43.72640000
C       48.30560000      50.11880000      57.30280000
C       56.97210000      52.03310000      50.48910000
C       48.98070000      43.20090000      51.22820000
C       48.50000000      50.20780000      43.63640000
C       56.54530000      48.36320000      49.18900000
C       43.67310000      48.24920000      50.71310000
C       43.95520000      51.72460000      49.26990000
C       49.36000000      57.48900000      48.24690000
C       50.63500000      56.88060000      51.76050000
C       51.07700000      42.32590000      48.15540000
C       48.24900000      48.75270000      57.09050000
C       51.52780000      49.18720000      44.10590000
C       51.27670000      50.88230000      56.12310000
C       44.75760000      52.91620000      47.19730000
C       47.02330000      44.29070000      52.39910000
C       53.23730000      47.47170000      43.40920000
C       43.09910000      46.50780000      52.41410000
C       55.66900000      47.09870000      47.21370000
C       57.50390000      53.79360000      52.18350000
C       47.57970000      58.11740000      46.55520000
C       52.37770000      57.11180000      53.49950000
C       52.65940000      41.97330000      46.19850000
C       52.43170000      52.94900000      55.22330000
C       47.85700000      52.15390000      44.04590000
C       46.24150000      47.25600000      57.62710000
C       55.70710000      53.04330000      47.05820000
C       52.08890000      42.41680000      53.28210000
C       46.58720000      47.15190000      43.25110000
C       55.41610000      47.37830000      52.66620000
C       44.23490000      47.01650000      47.08400000
C       43.34210000      53.37930000      52.48980000
C       52.46140000      58.03410000      46.45980000
C       47.07870000      55.86230000      52.73060000
C       47.81280000      42.52590000      47.51540000
C       47.60140000      52.02730000      57.04100000
C       53.11210000      52.52440000      43.42700000
C       53.29360000      47.70010000      56.61260000
C       46.66280000      45.85080000      45.26410000
C       45.78540000      45.20770000      46.15340000
C       46.10010000      44.03240000      46.83030000
C       46.86850000      53.78460000      55.62090000
C       53.30040000      54.08930000      45.12760000
C       53.17070000      46.23020000      54.76560000
C       45.29020000      53.28750000      53.80590000
C       54.01780000      54.75150000      46.14390000
C       53.83370000      45.58770000      53.71120000
C       46.18710000      54.13920000      54.45980000
C       53.63130000      55.93990000      46.77490000
C       53.44420000      44.37060000      53.14100000
C       53.35960000      45.99260000      45.21630000
C       54.08790000      45.33510000      46.21980000
C       53.74140000      44.10580000      46.79450000
C       54.28040000      54.10040000      53.81030000
C       47.02970000      54.08430000      45.25590000
C       46.71580000      46.17930000      55.45440000
C       55.51420000      53.55990000      53.44260000
C       46.09840000      54.78270000      46.05740000
C       45.04850000      46.56860000      53.64170000
C       53.67560000      55.20140000      53.19940000
C       46.31120000      56.08270000      46.57330000
C       46.09560000      45.86790000      54.23110000
C       53.98810000      44.11830000      48.25570000
C       48.32120000      54.76230000      45.00610000
C       44.90890000      48.03490000      54.03950000
C       54.04310000      55.50410000      51.76240000
C       46.06580000      56.09380000      48.02260000
C       46.11700000      44.32610000      51.33680000
C       48.17130000      45.88340000      55.38950000
C       51.89050000      45.62000000      45.08520000
C       51.35800000      53.84870000      55.27510000
C       44.93860000      51.78850000      46.35110000
C       55.53660000      52.11610000      53.66780000
C       55.52390000      48.21480000      46.33040000
C       45.30580000      43.85460000      48.03310000
C       51.87360000      54.44530000      44.98730000
C       55.27720000      48.56600000      53.46950000
C       46.30200000      55.64760000      51.55730000
C       53.93190000      55.90870000      48.22990000
C       53.77100000      44.32310000      51.71200000
C       51.72140000      45.87510000      54.98230000
C       48.14880000      45.52000000      45.21780000
C       48.05570000      54.58480000      55.83610000
C       55.53930000      51.89000000      46.23740000
C       45.20430000      51.78530000      54.10070000
C       44.55820000      48.12790000      46.27350000
C       43.69600000      53.04620000      51.18140000
C       50.87590000      42.90350000      52.80950000
C       52.79740000      51.23950000      43.84840000
C       43.82490000      47.08760000      48.46580000
C       55.92500000      47.36630000      51.32790000
C       56.26440000      53.03840000      48.37310000
C       51.30960000      57.53330000      46.98570000
C       48.42470000      56.37060000      52.74930000
C       49.08270000      42.26350000      46.94000000
C       52.83950000      48.98390000      56.26500000
C       46.97380000      48.43690000      43.54430000
C       47.03420000      50.74800000      57.28390000
C       57.06140000      53.39460000      50.93620000
C       48.35750000      43.77450000      52.33320000
C       47.27010000      50.90920000      43.66380000
C       56.09600000      47.18720000      48.58030000
C       43.42390000      46.90350000      51.12260000
C       44.32710000      52.87640000      48.56420000
C       48.86770000      57.74910000      46.91230000
C       51.05910000      56.89340000      53.11240000
C       51.48080000      42.32400000      46.74980000
C       46.83010000      48.38930000      57.19930000
C       52.86620000      48.73560000      43.84070000
C       52.38260000      51.56140000      55.59980000
C       48.44390000      42.50960000      48.85920000
C       49.24630000      47.84030000      44.22730000
C       43.70710000      49.30290000      48.32070000
C       48.29120000      56.81790000      50.53940000
C       51.73490000      56.90440000      49.34410000
C       51.60470000      43.07710000      50.59400000
C       48.94180000      51.38520000      56.95720000
C       50.49820000      51.84840000      44.27560000
C       50.63790000      48.21110000      56.17680000
C       44.13250000      50.70640000      51.75960000
C       56.73050000      50.81570000      48.19340000
C       56.48680000      49.62000000      51.49400000
C       51.85860000      42.85760000      49.17200000
C       50.67150000      48.00280000      44.36770000
C       56.68350000      49.37890000      48.24140000
C       51.68920000      56.70470000      50.80380000
C       48.31720000      57.14130000      49.12690000
C       48.06820000      43.05690000      50.11020000
C       50.16880000      51.78850000      56.38110000
C       49.18490000      51.47060000      44.03230000
C       49.24100000      47.97170000      56.49310000
C       56.71530000      51.07290000      51.48550000
C       43.84110000      50.71900000      48.33620000
C       44.04350000      49.22860000      51.74820000
C       55.61520000      46.03170000      49.29680000
C       49.38140000      56.85650000      45.86650000
C       45.89750000      49.10040000      56.22830000
C       56.08030000      54.36220000      50.41060000
C       44.63730000      54.12560000      49.20030000
C       44.08160000      45.76000000      50.43090000
C       49.05310000      44.18380000      53.53950000
C       50.79460000      43.35350000      45.88340000
C       50.40240000      56.04630000      54.11970000
C       46.16000000      50.52960000      44.45300000
C       53.62590000      50.93070000      55.16050000
C       54.01490000      49.33580000      44.57700000
C       44.00280000      45.79840000      49.05750000
C       50.67850000      56.60330000      45.96800000
C       53.79150000      49.57870000      55.35370000
C       44.46180000      54.14120000      50.57250000
C       55.81800000      54.21640000      49.08170000
C       55.52830000      46.12700000      50.67790000
C       50.36570000      43.89700000      53.74370000
C       49.45350000      43.31070000      46.02180000
C       49.02580000      56.07860000      54.02260000
C       53.98710000      50.69650000      44.56800000
C       46.05850000      50.43180000      56.27410000
C       45.97240000      49.14370000      44.39020000
