240
Lattice="100.0 0.0 0.0 0.0 100.0 0.0 0.0 0.0 100.0" Properties=species:S:1:pos:R:3 name=C-2509655-3548-189 pressure=-0.00441659557643789 spacegroup=C1 times_found=1 energy=-1726.01528681274 pbc="T T T"
C       47.01550000      43.58550000      51.77170000
C       43.84750000      51.84050000      47.74360000
C       51.83670000      47.38290000      44.21950000
C       52.81580000      56.09790000      51.60850000
C       47.24410000      56.55450000      48.51100000
C       52.76870000      43.73010000      48.59280000
C       56.39480000      48.31750000      47.09670000
C       43.49540000      48.32090000      52.02160000
C       56.30890000      51.76050000      52.63390000
C       48.14950000      52.61950000      44.16990000
C       51.66040000      52.56410000      56.24940000
C       48.27240000      47.33520000      55.77510000
C       47.10250000      43.55280000      48.37730000
C       43.67860000      51.79870000      51.92910000
C       51.71130000      47.15750000      56.03990000
C       52.74940000      56.23680000      48.20360000
C       47.35970000      56.39030000      51.91370000
C       52.74260000      43.84130000      51.76530000
C       56.40060000      48.42450000      52.56410000
C       43.57680000      48.25530000      47.79300000
C       56.48590000      51.67620000      47.14370000
C       48.31660000      52.54650000      55.87500000
C       51.55450000      52.77690000      44.04580000
C       48.54080000      47.24450000      44.37300000
C       48.64450000      55.84050000      54.47900000
C       55.82430000      54.20080000      48.25700000
C       54.26940000      48.36830000      55.53390000
C       51.39610000      43.95660000      54.32400000
C       48.62290000      43.98960000      45.92470000
C       51.33860000      55.98440000      45.70830000
C       43.92550000      45.42510000      48.35940000
C       55.93330000      45.85670000      51.49650000
C       44.16100000      54.65490000      51.54510000
C       45.71550000      51.67430000      54.89080000
C       54.31790000      51.86650000      44.46920000
C       45.84460000      48.18140000      45.00200000
C       48.28350000      55.79490000      45.98360000
C       56.00990000      54.35310000      51.34560000
C       54.44740000      48.65540000      44.08660000
C       51.62240000      44.10250000      46.08110000
C       48.39740000      44.02530000      54.32130000
C       51.85480000      55.45440000      54.30690000
C       43.84320000      45.47370000      51.55380000
C       55.78320000      45.81270000      48.38160000
C       44.42000000      54.75200000      48.24420000
C       45.62120000      51.29500000      44.60170000
C       54.19190000      51.51100000      55.63440000
C       45.65430000      48.32950000      54.88020000
C       47.00800000      54.61680000      44.45300000
C       54.64190000      44.11460000      47.32550000
C       43.40850000      47.71490000      54.36920000
C       53.13550000      45.46930000      44.67070000
C       47.27100000      45.27170000      55.92960000
C       52.59580000      54.73620000      56.52370000
C       45.06910000      56.89480000      47.52720000
C       54.93540000      56.03180000      52.51080000
C       45.06550000      44.15130000      52.91110000
C       55.75990000      52.83930000      54.59910000
C       43.91820000      52.52390000      45.51010000
C       56.08930000      47.28460000      45.03890000
C       47.39840000      54.64510000      56.04040000
C       54.61010000      44.47570000      53.05810000
C       43.58470000      47.57620000      45.46430000
C       52.70660000      45.06890000      55.91470000
C       47.62110000      45.15090000      44.20930000
C       52.42080000      54.90960000      43.97070000
C       45.34040000      55.91460000      53.00980000
C       54.67920000      55.77230000      47.01850000
C       45.22430000      44.07100000      47.10800000
C       56.56120000      52.64860000      44.96660000
C       43.51320000      52.39130000      54.27950000
C       55.96910000      47.21760000      54.46880000
C       49.29100000      43.81010000      47.20620000
C       43.49850000      46.38050000      49.24490000
C       46.97870000      49.11090000      44.72590000
C       50.62920000      56.14320000      46.96880000
C       49.45240000      55.99130000      53.26450000
C       50.60670000      43.82580000      53.06760000
C       56.15750000      53.08050000      49.13940000
C       43.96740000      53.74640000      50.53720000
C       56.11430000      47.03630000      50.58160000
C       53.17390000      50.91900000      44.28240000
C       46.82560000      50.70320000      55.14910000
C       53.09990000      49.17030000      55.80430000
C       49.14770000      43.80300000      53.08070000
C       43.46500000      46.40310000      50.62100000
C       46.80720000      49.24270000      55.12770000
C       50.90900000      55.81520000      53.18430000
C       49.19490000      56.12270000      47.08240000
C       50.71990000      43.89570000      47.29540000
C       56.19160000      53.13600000      50.57870000
C       44.11320000      53.76000000      49.15930000
C       56.10020000      46.99190000      49.15670000
C       53.06830000      50.60580000      55.85710000
C       46.86540000      50.53840000      44.55370000
C       53.22110000      49.47130000      44.17440000
C       47.33890000      46.51150000      44.09660000
C       46.50420000      43.51330000      47.04510000
C       43.36320000      47.14300000      46.75920000
C       52.72960000      53.56090000      43.78170000
C       47.09790000      53.28000000      56.07010000
C       52.95360000      46.42300000      56.19880000
C       53.41730000      56.36910000      46.92100000
C       46.64300000      56.40980000      53.18910000
C       53.42820000      43.68190000      52.99800000
C       56.69110000      52.89530000      46.35940000
C       43.38580000      52.87570000      52.98420000
C       56.67620000      47.16520000      53.26220000
C       47.02610000      46.64640000      55.97830000
C       46.33730000      43.58550000      53.06260000
C       43.22430000      47.24620000      53.07520000
C       52.85040000      53.34180000      56.58130000
C       46.88050000      53.30270000      43.97200000
C       53.03650000      46.67310000      43.92050000
C       53.58700000      56.23690000      52.80980000
C       46.45880000      56.77540000      47.28110000
C       53.43240000      43.41100000      47.33060000
C       56.38370000      53.01400000      53.36080000
C       43.72090000      52.96640000      46.81310000
C       56.44330000      47.05080000      46.38220000
C       54.89890000      55.31250000      48.33670000
C       55.41960000      48.51180000      54.67020000
C       48.69650000      54.84650000      55.53460000
C       44.89250000      44.34710000      48.45430000
C       54.86080000      44.94360000      51.72520000
C       45.12110000      55.72210000      51.64130000
C       44.55130000      51.46940000      54.10100000
C       55.62870000      51.56610000      44.98380000
C       44.61890000      48.48760000      45.67920000
C       51.36080000      44.91630000      55.42370000
C       48.86580000      44.95510000      44.85380000
C       51.16270000      55.04880000      44.59880000
C       55.08650000      55.48690000      51.21850000
C       55.64030000      48.64900000      44.90470000
C       48.32680000      54.83310000      44.90510000
C       44.81220000      44.39100000      51.54380000
C       54.88900000      44.69880000      48.59640000
C       45.01300000      56.01230000      48.64270000
C       44.49080000      51.24410000      45.52190000
C       55.32240000      51.49900000      54.74150000
C       44.45860000      48.61930000      54.15240000
C       51.83810000      45.21030000      45.20840000
C       48.55280000      45.01200000      55.40180000
C       51.56410000      54.78070000      55.54490000
C       46.44020000      55.35960000      55.33490000
C       55.24840000      54.87750000      46.06940000
C       55.13070000      46.21870000      54.99910000
C       53.61200000      44.33270000      55.14440000
C       46.56650000      44.48780000      44.83790000
C       53.44790000      55.55680000      44.65690000
C       44.71730000      45.08820000      46.21040000
C       54.72730000      44.95980000      54.44270000
C       44.71980000      54.85960000      53.78300000
C       45.41330000      54.39900000      54.92050000
C       54.51210000      54.57900000      44.89430000
C       45.52110000      45.46970000      45.11210000
C       46.08340000      55.28640000      45.30610000
C       55.54770000      55.26570000      53.50240000
C       55.22900000      46.40680000      44.36800000
C       54.54590000      45.31100000      45.04830000
C       46.26340000      44.61310000      55.23540000
C       54.55180000      54.96760000      54.52780000
C       44.51690000      45.19740000      53.74650000
C       55.15730000      44.91030000      46.28220000
C       44.87980000      54.60760000      45.60710000
C       44.62320000      53.45930000      44.74570000
C       54.84210000      53.74540000      55.19610000
C       45.26360000      45.61260000      54.86770000
C       45.80330000      46.96370000      55.33800000
C       46.90680000      56.13860000      46.13660000
C       56.01270000      45.87100000      46.97020000
C       54.01940000      52.88470000      56.01500000
C       45.66120000      52.67930000      44.13350000
C       54.26810000      47.27270000      43.73670000
C       52.75850000      43.25260000      46.16090000
C       46.96540000      43.78920000      54.27310000
C       53.25470000      55.65250000      54.05460000
C       44.24340000      54.28880000      46.91710000
C       56.27760000      54.25710000      52.77180000
C       43.64310000      45.93600000      52.87980000
C       46.05830000      46.81090000      44.62710000
C       47.22400000      56.16110000      54.40570000
C       56.78750000      45.97390000      52.62500000
C       54.02160000      53.26120000      44.27380000
C       45.88970000      53.02320000      55.38780000
C       54.16450000      46.96300000      55.79790000
C       52.78650000      43.60900000      54.22190000
C       47.20580000      43.70700000      45.87100000
C       52.76480000      56.27460000      45.71080000
C       43.85750000      54.17380000      52.84920000
C       56.12370000      54.04780000      46.86530000
C       43.79620000      45.84620000      47.01010000
C       44.21200000      50.73020000      52.79980000
C       50.49690000      53.74880000      44.44660000
C       53.77090000      44.43170000      50.86380000
C       55.84460000      49.34980000      53.57410000
C       44.21430000      49.27920000      46.95640000
C       56.01970000      50.73130000      46.16050000
C       49.58250000      46.23720000      44.74260000
C       50.67020000      46.18190000      55.66090000
C       49.38160000      53.56750000      55.68680000
C       46.29080000      56.11680000      50.87800000
C       53.77280000      55.73500000      49.15260000
C       45.99310000      43.93980000      49.32690000
C       44.22170000      50.65580000      46.86800000
C       50.73960000      53.55270000      55.77450000
C       53.79830000      44.33400000      49.47570000
C       56.02250000      49.35970000      46.10930000
C       44.12840000      49.36060000      52.84680000
C       55.80540000      50.74320000      53.60720000
C       49.29520000      46.26380000      55.57060000
C       50.95780000      46.33350000      44.80170000
C       49.12130000      53.67690000      44.53890000
C       46.24080000      56.21670000      49.49300000
C       53.80890000      55.73140000      50.53780000
C       45.95910000      43.95750000      50.74780000
C       48.05930000      51.24520000      55.54570000
C       51.38350000      56.28670000      48.15310000
C       56.30550000      48.28170000      51.20090000
C       51.86020000      48.51320000      55.98760000
C       48.25820000      48.56970000      44.54140000
C       51.87040000      51.45540000      44.18450000
C       48.47700000      43.59690000      48.34530000
C       51.35540000      43.75840000      51.88730000
C       48.73130000      56.27740000      52.06630000
C       43.74160000      52.28010000      50.61570000
C       56.39280000      51.85010000      48.50080000
C       43.44230000      47.85780000      49.12180000
C       48.06650000      51.25910000      44.30890000
C       51.47830000      56.01610000      51.91210000
C       56.36040000      48.19270000      48.45820000
C       51.98520000      48.76400000      44.18490000
C       48.04010000      48.65070000      55.47970000
C       51.82180000      51.21810000      56.08390000
C       48.39010000      43.60850000      51.90050000
C       51.39700000      43.79190000      48.50420000
C       48.58870000      56.38210000      48.32820000
C       43.85980000      52.29230000      49.06250000
C       56.36370000      51.91700000      51.27190000
C       43.40810000      47.88420000      50.69630000
