240
Lattice="100.0 0.0 0.0 0.0 100.0 0.0 0.0 0.0 100.0" Properties=species:S:1:pos:R:3 name=C-2509655-3548-142 pressure=-0.0128171305261053 energy=-1793.58484868327 spacegroup=C1 times_found=1 pbc="T T T"
C       53.71760000      55.58780000      48.69900000
C       55.60350000      48.54740000      53.67220000
C       48.72110000      53.66340000      55.54210000
C       46.29760000      55.53710000      51.30140000
C       46.25500000      44.58510000      48.45250000
C       53.62790000      44.64450000      51.48830000
C       44.36710000      48.52870000      46.26220000
C       44.75060000      51.48800000      53.66550000
C       55.32810000      51.62050000      46.31000000
C       51.31110000      53.69410000      44.45470000
C       51.33510000      46.20250000      55.56200000
C       48.69940000      46.17430000      44.50420000
C       53.66470000      44.48390000      48.67020000
C       55.56700000      51.31770000      53.75750000
C       48.56130000      46.29030000      55.63120000
C       46.18180000      44.51910000      51.31470000
C       46.32300000      55.58420000      48.53160000
C       53.69100000      55.61570000      51.46790000
C       44.44420000      51.29860000      46.21030000
C       44.68820000      48.57380000      53.68460000
C       55.46410000      48.76460000      46.25800000
C       51.56010000      46.27150000      44.62570000
C       51.54460000      53.64510000      55.38630000
C       48.49040000      53.63560000      44.61720000
C       44.22890000      46.13840000      47.18580000
C       46.21860000      46.92970000      44.67570000
C       47.24150000      44.37520000      46.03720000
C       55.68740000      46.17580000      52.69780000
C       55.51650000      54.03580000      47.27200000
C       44.53980000      53.92310000      52.71550000
C       53.80370000      46.94470000      55.30620000
C       53.73760000      52.84190000      44.28740000
C       46.30910000      52.74760000      55.68750000
C       52.69730000      44.42810000      53.91970000
C       52.91730000      55.36010000      46.24060000
C       47.09600000      55.30340000      53.75820000
C       44.69200000      53.76220000      46.95780000
C       46.06430000      52.67690000      44.42310000
C       47.26060000      55.68680000      46.14500000
C       55.33220000      53.79380000      53.03080000
C       55.29040000      46.29520000      47.05860000
C       44.42860000      46.12310000      52.75410000
C       53.97830000      52.69980000      55.56750000
C       53.97060000      47.27270000      44.45150000
C       46.18820000      47.28260000      55.73810000
C       52.75460000      55.70330000      53.85600000
C       52.81350000      44.28640000      46.24520000
C       46.94550000      44.72150000      53.78940000
C       49.26830000      54.62440000      45.37330000
C       54.57800000      45.40560000      49.29020000
C       45.45720000      49.31490000      54.66750000
C       50.75540000      54.62390000      54.63050000
C       50.81410000      45.28460000      45.38370000
C       49.16410000      45.36360000      54.71220000
C       45.25060000      45.33850000      50.59570000
C       45.39960000      54.67980000      49.15850000
C       54.62810000      54.72880000      50.83560000
C       54.65120000      49.45510000      45.30030000
C       54.74960000      50.56280000      54.68450000
C       45.27650000      50.54400000      45.29680000
C       49.40950000      45.23960000      45.32750000
C       54.66210000      54.76870000      49.42970000
C       45.48680000      50.72950000      54.65510000
C       50.56980000      45.29950000      54.72850000
C       50.68480000      54.62110000      45.35900000
C       49.33810000      54.60120000      54.64230000
C       45.37100000      54.70500000      50.56420000
C       45.27250000      45.35750000      49.19060000
C       54.59710000      45.41700000      50.70460000
C       54.58900000      50.85900000      45.32420000
C       54.71930000      49.15750000      54.62700000
C       45.29310000      49.13930000      45.34700000
C       55.25850000      53.07290000      46.23330000
C       52.76080000      45.98040000      55.56010000
C       46.10850000      55.55490000      52.73090000
C       44.80190000      52.94860000      53.74270000
C       44.23550000      47.15130000      46.15180000
C       55.72760000      47.16800000      53.75290000
C       47.26440000      45.96870000      44.43720000
C       47.33970000      53.77250000      55.68800000
C       52.68770000      53.84040000      44.29760000
C       53.90230000      55.61720000      47.26870000
C       53.72190000      44.68920000      52.93710000
C       46.19310000      44.62740000      46.99630000
C       55.54070000      47.32640000      46.08020000
C       52.99610000      53.73010000      55.32580000
C       45.97870000      44.47700000      52.75030000
C       44.69480000      47.11020000      53.77270000
C       44.43400000      52.72250000      45.99210000
C       55.59160000      52.74280000      53.98450000
C       47.03930000      53.71210000      44.67170000
C       47.17960000      46.22060000      55.75090000
C       53.01570000      46.22090000      44.70200000
C       53.81130000      44.32410000      47.29500000
C       53.79490000      55.73380000      52.84630000
C       46.21860000      55.70940000      47.15330000
C       49.28040000      47.34860000      56.26490000
C       47.40580000      56.20740000      49.21710000
C       56.03250000      49.44910000      47.35050000
C       50.84160000      47.31590000      43.93620000
C       50.88550000      52.56760000      56.08500000
C       49.16250000      52.55660000      43.92790000
C       52.60050000      56.23110000      50.78740000
C       52.57990000      43.86310000      49.36890000
C       47.27450000      43.92240000      50.65130000
C       44.03510000      49.29590000      52.61970000
C       43.81590000      50.68250000      47.31980000
C       56.17050000      50.70390000      52.63410000
C       49.42770000      52.58660000      56.16300000
C       47.30770000      43.91450000      49.17470000
C       56.00210000      50.92680000      47.37690000
C       50.61940000      52.59580000      43.84920000
C       50.72870000      47.30630000      56.20500000
C       49.36570000      47.27380000      43.92550000
C       52.54970000      43.94590000      50.82540000
C       52.61740000      56.20210000      49.33630000
C       47.38920000      56.17160000      50.66860000
C       44.07780000      50.78650000      52.60210000
C       43.74790000      49.23520000      47.34150000
C       56.20290000      49.25300000      52.58580000
C       53.58880000      45.17140000      45.43390000
C       44.66230000      44.78970000      53.12310000
C       44.73920000      53.06450000      44.66590000
C       46.38700000      45.43920000      54.85620000
C       46.47480000      54.79940000      45.34720000
C       53.55000000      54.82080000      54.64990000
C       54.61550000      45.20350000      46.50390000
C       54.61060000      54.84610000      53.61200000
C       45.41070000      54.81950000      46.38300000
C       55.30080000      53.08390000      55.31350000
C       55.29770000      46.93800000      44.75680000
C       45.36850000      46.52350000      54.84970000
C       53.47360000      54.66030000      45.16670000
C       44.79160000      55.24800000      53.09860000
C       45.13590000      46.36630000      45.36300000
C       46.54480000      54.58080000      54.82040000
C       46.89820000      44.64250000      44.70450000
C       53.09690000      44.65740000      55.24220000
C       55.22880000      55.35670000      46.90150000
C       54.81590000      45.36290000      53.48910000
C       45.12570000      45.32610000      46.42030000
C       54.85170000      46.38290000      54.56480000
C       54.54250000      53.63210000      45.16480000
C       45.49580000      53.52770000      54.81400000
C       50.69700000      57.62970000      50.73290000
C       57.53460000      50.79590000      50.68920000
C       50.86750000      50.67320000      57.57240000
C       49.29400000      57.62550000      49.27820000
C       49.18150000      42.49940000      50.76120000
C       50.65200000      42.43380000      49.36130000
C       42.47360000      50.77700000      49.29230000
C       42.49850000      49.35340000      50.75880000
C       57.49760000      49.38580000      49.21100000
C       49.21350000      50.62120000      42.48380000
C       49.40040000      49.26590000      57.66390000
C       50.69450000      49.21150000      42.46350000
C       50.62440000      42.48840000      50.79370000
C       57.55560000      49.35280000      50.64320000
C       50.84230000      49.23090000      57.60160000
C       49.20870000      42.45120000      49.32320000
C       49.26410000      57.61540000      50.72500000
C       50.72680000      57.62580000      49.28620000
C       42.41100000      49.33940000      49.31750000
C       42.55620000      50.78500000      50.73370000
C       57.48380000      50.82820000      49.25120000
C       49.25640000      49.17890000      42.50070000
C       49.43140000      50.70340000      57.63360000
C       50.64620000      50.65440000      42.43850000
C       46.24340000      51.23900000      44.49640000
C       51.43440000      44.40170000      46.33370000
C       44.45470000      46.30160000      51.32740000
C       53.80340000      51.26130000      55.50420000
C       53.73900000      48.69680000      44.47020000
C       46.34540000      48.65260000      55.60710000
C       48.39870000      44.64070000      53.71580000
C       48.63900000      55.54640000      46.27900000
C       51.37600000      55.55160000      53.72510000
C       55.34390000      46.38140000      48.50770000
C       55.39180000      53.74170000      51.57390000
C       44.64090000      53.69250000      48.41540000
C       46.29200000      48.38310000      44.61730000
C       51.46470000      55.41490000      46.31940000
C       44.58550000      53.74250000      51.27860000
C       53.74310000      48.40030000      55.38760000
C       53.65070000      51.46500000      44.42180000
C       46.40770000      51.37460000      55.57120000
C       48.54870000      55.38440000      53.68280000
C       48.66650000      44.41590000      46.25850000
C       51.25660000      44.50180000      53.75480000
C       55.47440000      53.83320000      48.70920000
C       55.51910000      46.32950000      51.32460000
C       44.36580000      46.28060000      48.56140000
C       50.56660000      43.94350000      52.66120000
C       44.00980000      52.64510000      50.61540000
C       52.57300000      50.75800000      43.81120000
C       49.28850000      43.81810000      47.37970000
C       49.21780000      56.11890000      52.63050000
C       50.78830000      56.13650000      47.37550000
C       56.06260000      52.73520000      49.37120000
C       56.13270000      47.42030000      50.62940000
C       43.76600000      47.38570000      49.24510000
C       47.49310000      50.71820000      56.23730000
C       47.36780000      49.08010000      43.96250000
C       52.70000000      49.10660000      56.08830000
C       50.67450000      56.18620000      52.65260000
C       43.85450000      47.41030000      50.69370000
C       52.62300000      49.30760000      43.84970000
C       49.33200000      56.18750000      47.35350000
C       49.08860000      43.97360000      52.64180000
C       50.73870000      43.79320000      47.42170000
C       56.04390000      47.45720000      49.17360000
C       56.06890000      52.69450000      50.84830000
C       43.97430000      52.63580000      49.13590000
C       47.45290000      49.28770000      56.26590000
C       47.34120000      50.55800000      43.93390000
C       52.72080000      50.58340000      56.09480000
C       51.37640000      51.44700000      43.30320000
C       51.34430000      43.41840000      51.51820000
C       43.52340000      51.49080000      51.41180000
C       48.68260000      51.44580000      56.73740000
C       48.57160000      48.41660000      43.42200000
C       51.52290000      48.45220000      56.68330000
C       48.50170000      43.33930000      48.53090000
C       48.52920000      56.68660000      51.44550000
C       51.47120000      56.70750000      48.56200000
C       56.55660000      51.59090000      48.57390000
C       56.69440000      48.56380000      51.38210000
C       43.23110000      48.54770000      48.53020000
C       51.48270000      48.51220000      43.36260000
C       51.42090000      56.74210000      51.50150000
C       43.41980000      48.59920000      51.46070000
C       48.60020000      48.53070000      56.80380000
C       48.47970000      51.34140000      43.40730000
C       51.58410000      51.37000000      56.62220000
C       48.57980000      56.73350000      48.50560000
C       48.42040000      43.42480000      51.44380000
C       51.43480000      43.29990000      48.62060000
C       56.56680000      48.66710000      48.48550000
C       56.64540000      51.49740000      51.48580000
C       43.36590000      51.46460000      48.48650000
