240
Lattice="100.0 0.0 0.0 0.0 100.0 0.0 0.0 0.0 100.0" Properties=species:S:1:pos:R:3 name=C-2509655-3548-1013 pressure=0.010182670776484 energy=-1788.47672945914 spacegroup=Th times_found=1 pbc="T T T"
C       51.57360000      56.09100000      46.94720000
C       46.94690000      51.57350000      56.09090000
C       56.09100000      46.94720000      51.57370000
C       51.57370000      43.90900000      53.05290000
C       48.42650000      43.90910000      46.94700000
C       48.42620000      56.09090000      53.05300000
C       46.94720000      48.42640000      43.90900000
C       53.05280000      48.42630000      56.09100000
C       53.05300000      51.57380000      43.90910000
C       56.09090000      53.05300000      48.42650000
C       43.90900000      53.05280000      51.57360000
C       43.90910000      46.94700000      48.42620000
C       48.42630000      56.09100000      46.94710000
C       53.05280000      51.57360000      56.09100000
C       43.90910000      46.94700000      51.57350000
C       48.42640000      43.90900000      53.05280000
C       51.57380000      43.90910000      46.94700000
C       51.57350000      56.09090000      53.05300000
C       53.05310000      48.42650000      43.90910000
C       46.94700000      48.42620000      56.09090000
C       46.94720000      51.57370000      43.90900000
C       43.90900000      53.05280000      48.42630000
C       56.09090000      53.05300000      51.57380000
C       56.09100000      46.94720000      48.42640000
C       55.32790000      50.72050000      44.77330000
C       44.77310000      55.32770000      50.72040000
C       50.72040000      44.77310000      55.32770000
C       55.32770000      49.27960000      55.22690000
C       44.67230000      49.27960000      44.77310000
C       44.67210000      50.72020000      55.22670000
C       44.77330000      44.67220000      49.27950000
C       55.22690000      44.67230000      50.72040000
C       55.22670000      55.32790000      49.27980000
C       50.72040000      55.22690000      44.67230000
C       49.27940000      55.22670000      55.32780000
C       49.27980000      44.77330000      44.67210000
C       44.67230000      50.72040000      44.77310000
C       55.22670000      55.32780000      50.72050000
C       49.27960000      44.77310000      55.32770000
C       44.67210000      49.27950000      55.22670000
C       55.32790000      49.27980000      44.77330000
C       55.32770000      50.72040000      55.22690000
C       55.22690000      44.67230000      49.27960000
C       44.77330000      44.67210000      50.72020000
C       44.77310000      55.32770000      49.27960000
C       49.27960000      55.22690000      44.67230000
C       50.72020000      55.22670000      55.32790000
C       50.72060000      44.77330000      44.67220000
C       48.34810000      56.61890000      49.28360000
C       49.28350000      48.34810000      56.61880000
C       56.61890000      49.28370000      48.34830000
C       48.34830000      43.38110000      50.71630000
C       51.65190000      43.38120000      49.28350000
C       51.65170000      56.61890000      50.71660000
C       49.28360000      51.65190000      43.38110000
C       50.71630000      51.65170000      56.61890000
C       50.71660000      48.34830000      43.38110000
C       56.61880000      50.71650000      51.65190000
C       43.38110000      50.71640000      48.34810000
C       43.38110000      49.28340000      51.65160000
C       51.65170000      56.61890000      49.28370000
C       50.71640000      48.34810000      56.61890000
C       43.38120000      49.28350000      48.34810000
C       51.65190000      43.38110000      50.71640000
C       48.34830000      43.38110000      49.28340000
C       48.34810000      56.61880000      50.71650000
C       50.71650000      51.65190000      43.38120000
C       49.28340000      51.65170000      56.61890000
C       49.28370000      48.34830000      43.38110000
C       43.38110000      50.71630000      51.65170000
C       56.61890000      50.71660000      48.34840000
C       56.61890000      49.28360000      51.65190000
C       54.52660000      47.00560000      45.11120000
C       45.11110000      54.52640000      47.00550000
C       47.00550000      45.11100000      54.52640000
C       54.52630000      52.99450000      54.88900000
C       45.47360000      52.99450000      45.11110000
C       45.47350000      47.00530000      54.88880000
C       45.11110000      45.47340000      52.99440000
C       54.88900000      45.47360000      47.00550000
C       54.88880000      54.52650000      52.99470000
C       47.00550000      54.88890000      45.47350000
C       52.99440000      54.88890000      54.52660000
C       52.99470000      45.11120000      45.47350000
C       45.47370000      47.00550000      45.11100000
C       54.88890000      54.52660000      47.00560000
C       52.99450000      45.11110000      54.52650000
C       45.47340000      52.99440000      54.88880000
C       54.52650000      52.99470000      45.11120000
C       54.52640000      47.00550000      54.88890000
C       54.88890000      45.47360000      52.99450000
C       45.11120000      45.47350000      47.00530000
C       45.11100000      54.52640000      52.99450000
C       52.99450000      54.88900000      45.47360000
C       47.00530000      54.88880000      54.52650000
C       47.00560000      45.11110000      45.47340000
C       50.71170000      45.76200000      43.57400000
C       43.57420000      50.71140000      45.76180000
C       45.76200000      43.57400000      50.71130000
C       50.71130000      54.23800000      56.42600000
C       49.28860000      54.23810000      43.57410000
C       49.28850000      45.76180000      56.42580000
C       43.57400000      49.28840000      54.23790000
C       56.42600000      49.28870000      45.76200000
C       56.42580000      50.71150000      54.23820000
C       45.76190000      56.42580000      49.28850000
C       54.23790000      56.42600000      50.71160000
C       54.23820000      43.57420000      49.28850000
C       49.28870000      45.76200000      43.57400000
C       56.42600000      50.71160000      45.76210000
C       54.23810000      43.57420000      50.71150000
C       49.28830000      54.23800000      56.42600000
C       50.71150000      54.23820000      43.57420000
C       50.71140000      45.76190000      56.42590000
C       56.42580000      49.28860000      54.23820000
C       43.57420000      49.28850000      45.76180000
C       43.57400000      50.71130000      54.23800000
C       54.23800000      56.42600000      49.28870000
C       45.76180000      56.42580000      50.71150000
C       45.76210000      43.57400000      49.28840000
C       51.65390000      44.52720000      54.36440000
C       54.36450000      51.65400000      44.52740000
C       44.52720000      54.36440000      51.65390000
C       51.65390000      55.47280000      45.63560000
C       48.34590000      55.47260000      54.36450000
C       48.34630000      44.52730000      45.63540000
C       54.36440000      48.34610000      55.47280000
C       45.63570000      48.34610000      44.52720000
C       45.63540000      51.65370000      55.47270000
C       44.52740000      45.63550000      48.34590000
C       55.47280000      45.63560000      51.65390000
C       55.47270000      54.36460000      48.34630000
C       48.34610000      44.52720000      54.36440000
C       45.63560000      51.65390000      44.52720000
C       55.47260000      54.36450000      51.65410000
C       48.34610000      55.47280000      45.63560000
C       51.65370000      55.47270000      54.36460000
C       51.65410000      44.52740000      45.63550000
C       45.63550000      48.34600000      55.47260000
C       54.36460000      48.34630000      44.52730000
C       54.36430000      51.65390000      55.47280000
C       55.47280000      45.63560000      48.34610000
C       44.52730000      45.63540000      51.65370000
C       44.52720000      54.36440000      48.34610000
C       52.90630000      43.89110000      47.37710000
C       47.37720000      52.90620000      43.89100000
C       43.89100000      47.37700000      52.90600000
C       52.90600000      56.10900000      52.62300000
C       47.09380000      56.10900000      47.37720000
C       47.09390000      43.89090000      52.62270000
C       47.37710000      47.09380000      56.10890000
C       52.62300000      47.09400000      43.89100000
C       52.62270000      52.90610000      56.10910000
C       43.89100000      52.62280000      47.09380000
C       56.10890000      52.62290000      52.90630000
C       56.10910000      47.37730000      47.09400000
C       47.09400000      43.89100000      47.37700000
C       52.62290000      52.90620000      43.89110000
C       56.10900000      47.37720000      52.90620000
C       47.09370000      56.10890000      52.62290000
C       52.90610000      56.10910000      47.37730000
C       52.90620000      43.89100000      52.62280000
C       52.62280000      47.09380000      56.10900000
C       47.37730000      47.09390000      43.89090000
C       47.37700000      52.90600000      56.10900000
C       56.10900000      52.62300000      47.09400000
C       43.89090000      52.62270000      52.90600000
C       43.89110000      47.37710000      47.09370000
C       56.39730000      48.10890000      50.70910000
C       50.70900000      56.39730000      48.10890000
C       48.10870000      50.70890000      56.39720000
C       56.39720000      51.89130000      49.29110000
C       43.60270000      51.89110000      50.70900000
C       43.60280000      48.10870000      49.29080000
C       50.70910000      43.60270000      51.89110000
C       49.29110000      43.60280000      48.10870000
C       49.29080000      56.39720000      51.89130000
C       48.10890000      49.29100000      43.60270000
C       51.89110000      49.29090000      56.39730000
C       51.89130000      50.70920000      43.60280000
C       43.60280000      48.10870000      50.70890000
C       49.29090000      56.39730000      48.10890000
C       51.89110000      50.70900000      56.39730000
C       43.60270000      51.89110000      49.29090000
C       56.39720000      51.89130000      50.70920000
C       56.39730000      48.10890000      49.29100000
C       49.29100000      43.60270000      51.89110000
C       50.70920000      43.60280000      48.10870000
C       50.70890000      56.39720000      51.89130000
C       51.89130000      49.29110000      43.60280000
C       48.10870000      49.29080000      56.39720000
C       48.10890000      50.70910000      43.60270000
C       46.21960000      44.70950000      46.59300000
C       46.59330000      46.21950000      44.70940000
C       44.70970000      46.59310000      46.21930000
C       46.21930000      55.29030000      53.40680000
C       53.78050000      55.29060000      46.59330000
C       53.78060000      44.70960000      53.40680000
C       46.59300000      53.78040000      55.29050000
C       53.40690000      53.78070000      44.70970000
C       53.40680000      46.21940000      55.29050000
C       44.70940000      53.40670000      53.78050000
C       55.29050000      53.40700000      46.21960000
C       55.29050000      46.59320000      53.78060000
C       53.78070000      44.70970000      46.59320000
C       53.40700000      46.21960000      44.70950000
C       55.29060000      46.59330000      46.21950000
C       53.78040000      55.29050000      53.40700000
C       46.21940000      55.29040000      46.59320000
C       46.21950000      44.70940000      53.40670000
C       53.40670000      53.78050000      55.29060000
C       46.59320000      53.78060000      44.70950000
C       46.59310000      46.21930000      55.29030000
C       55.29030000      53.40690000      53.78070000
C       44.70950000      53.40680000      46.21940000
C       44.70950000      46.59300000      53.78040000
C       43.47260000      51.31420000      47.00280000
C       47.00300000      43.47250000      51.31420000
C       51.31450000      47.00310000      43.47260000
C       43.47250000      48.68550000      52.99690000
C       56.52750000      48.68580000      47.00300000
C       56.52740000      51.31440000      52.99720000
C       47.00290000      56.52740000      48.68570000
C       52.99690000      56.52750000      51.31450000
C       52.99720000      43.47260000      48.68570000
C       51.31410000      52.99700000      56.52750000
C       48.68580000      52.99710000      43.47260000
C       48.68560000      47.00280000      56.52740000
C       56.52750000      51.31450000      47.00310000
C       52.99710000      43.47260000      51.31430000
C       48.68590000      47.00300000      43.47250000
C       56.52740000      48.68580000      52.99720000
C       43.47260000      48.68560000      47.00280000
C       43.47250000      51.31420000      52.99700000
C       52.99700000      56.52750000      48.68580000
C       47.00280000      56.52740000      51.31430000
C       47.00310000      43.47250000      48.68550000
C       48.68550000      52.99690000      56.52740000
C       51.31440000      52.99720000      43.47260000
C       51.31420000      47.00290000      56.52740000
