240
Lattice="100.0 0.0 0.0 0.0 100.0 0.0 0.0 0.0 100.0" Properties=species:S:1:pos:R:3 name=C-2509655-3548-635 pressure=-0.00903569160791027 spacegroup=Td times_found=1 energy=-1762.4746808872 pbc="T T T"
C       52.30780000      43.51910000      48.63850000
C       48.63700000      52.30800000      43.51950000
C       43.51980000      48.63920000      52.31040000
C       52.31000000      56.48040000      51.36050000
C       47.69170000      56.48050000      48.63750000
C       47.69060000      43.52010000      51.36350000
C       48.63900000      47.69230000      56.48110000
C       51.36040000      47.69000000      43.51960000
C       51.36360000      52.30970000      56.47980000
C       43.51930000      51.36250000      47.69220000
C       56.48110000      51.36150000      52.30740000
C       56.47980000      48.63680000      47.69010000
C       52.30740000      48.63670000      43.51930000
C       48.63760000      43.52010000      52.31010000
C       43.51960000      52.30950000      48.63890000
C       52.31030000      51.36270000      56.47980000
C       47.69220000      48.63930000      56.48110000
C       47.69000000      51.36130000      43.51980000
C       48.63840000      56.48030000      47.69040000
C       51.36070000      43.51900000      47.69190000
C       51.36330000      56.48060000      52.30760000
C       43.51950000      47.69220000      51.36360000
C       56.48100000      52.30820000      51.36040000
C       56.47990000      47.69010000      48.63710000
C       52.27110000      42.62780000      51.19490000
C       51.19300000      52.27050000      42.62740000
C       42.62860000      51.19550000      52.27310000
C       52.27250000      57.37160000      48.80420000
C       47.72940000      57.37250000      51.19350000
C       47.72700000      42.62810000      48.80740000
C       51.19530000      47.72920000      57.37220000
C       48.80410000      47.72720000      42.62850000
C       48.80760000      52.27310000      57.37190000
C       42.62730000      48.80640000      47.72990000
C       57.37230000      48.80520000      52.27050000
C       57.37180000      51.19290000      47.72660000
C       52.27050000      51.19270000      42.62730000
C       51.19370000      42.62810000      52.27270000
C       42.62850000      52.27290000      51.19530000
C       52.27310000      48.80670000      57.37180000
C       47.72980000      51.19560000      57.37230000
C       47.72660000      48.80500000      42.62860000
C       51.19470000      57.37150000      47.72680000
C       48.80440000      42.62780000      47.72960000
C       48.80720000      57.37260000      52.27090000
C       42.62740000      47.72900000      48.80760000
C       57.37210000      52.27070000      48.80400000
C       57.37200000      47.72750000      51.19310000
C       42.85000000      52.26320000      53.26190000
C       53.26040000      42.84900000      52.26230000
C       52.26080000      53.25940000      42.84810000
C       42.84810000      47.73860000      46.74100000
C       57.15130000      47.73780000      53.25970000
C       57.15060000      52.26040000      46.73740000
C       53.26130000      57.15020000      47.73640000
C       46.74050000      57.15170000      52.26140000
C       46.73780000      42.84910000      47.73990000
C       52.26280000      46.74000000      57.15100000
C       47.73630000      46.73840000      42.85000000
C       47.74000000      53.26220000      57.15090000
C       42.84990000      53.26210000      52.26270000
C       53.25970000      52.26030000      42.84800000
C       52.26160000      42.84920000      53.26150000
C       42.84820000      46.73970000      47.74010000
C       57.15090000      53.25960000      47.73620000
C       57.15100000      46.73860000      52.26090000
C       53.26190000      47.73890000      57.15070000
C       46.74090000      52.26330000      57.15130000
C       46.73750000      47.73750000      42.85000000
C       52.26210000      57.15020000      46.73760000
C       47.73660000      42.84880000      46.74070000
C       47.73970000      57.15180000      53.26020000
C       52.67240000      43.13950000      49.99970000
C       49.99810000      52.67220000      43.13940000
C       43.14040000      50.00040000      52.67460000
C       52.67410000      56.85980000      49.99930000
C       47.32760000      56.86050000      49.99860000
C       47.32590000      43.14020000      50.00250000
C       50.00020000      47.32780000      56.86060000
C       49.99920000      47.32570000      43.14030000
C       50.00260000      52.67430000      56.85970000
C       43.13930000      50.00130000      47.32810000
C       56.86070000      50.00040000      52.67190000
C       56.85960000      49.99790000      47.32540000
C       52.67190000      49.99770000      43.13930000
C       49.99880000      43.14030000      52.67430000
C       43.14020000      52.67410000      50.00010000
C       52.67460000      50.00160000      56.85960000
C       47.32810000      50.00050000      56.86070000
C       47.32540000      50.00020000      43.14040000
C       49.99950000      56.85970000      47.32570000
C       49.99950000      43.13940000      47.32780000
C       50.00230000      56.86060000      52.67220000
C       43.13950000      47.32760000      50.00260000
C       56.86050000      52.67240000      49.99910000
C       56.85980000      47.32590000      49.99820000
C       44.01950000      49.86800000      53.86210000
C       53.86010000      44.01820000      49.86680000
C       49.86600000      53.86000000      44.01820000
C       44.01800000      50.13350000      46.14030000
C       55.98200000      50.13310000      53.85970000
C       55.98050000      49.86530000      46.13790000
C       53.86170000      55.98080000      50.13160000
C       46.13980000      55.98170000      49.86650000
C       46.13840000      44.01930000      50.13500000
C       49.86740000      46.14010000      55.98190000
C       50.13160000      46.13820000      44.01930000
C       50.13500000      53.86180000      55.98060000
C       44.01920000      53.86160000      49.86730000
C       53.85970000      49.86530000      44.01800000
C       49.86670000      44.01940000      53.86180000
C       44.01830000      46.13990000      50.13510000
C       55.98180000      53.86010000      50.13150000
C       55.98070000      46.13830000      49.86610000
C       53.86210000      50.13370000      55.98050000
C       46.14030000      49.86810000      55.98200000
C       46.13790000      50.13290000      44.01950000
C       49.86670000      55.98070000      46.13820000
C       50.13180000      44.01810000      46.14000000
C       50.13480000      55.98180000      53.85990000
C       44.51610000      46.53110000      45.51520000
C       45.51220000      44.51750000      46.53290000
C       46.52950000      45.51320000      44.51880000
C       44.51880000      53.47030000      54.48690000
C       55.48210000      53.46750000      45.51200000
C       55.48300000      46.53110000      54.48580000
C       45.51500000      55.48370000      53.46890000
C       54.48640000      55.48150000      46.52940000
C       54.48640000      44.51740000      53.46880000
C       46.53280000      54.48770000      55.48260000
C       53.46840000      54.48510000      44.51600000
C       53.46940000      45.51400000      55.48260000
C       44.51620000      45.51380000      46.53290000
C       45.51210000      46.53090000      44.51880000
C       46.52950000      44.51720000      45.51510000
C       44.51870000      54.48760000      53.46930000
C       55.48270000      45.51350000      53.46850000
C       55.48250000      54.48520000      46.52930000
C       45.51510000      53.47030000      55.48290000
C       54.48700000      46.53140000      55.48220000
C       54.48570000      53.46750000      44.51600000
C       46.53270000      55.48370000      54.48620000
C       53.46910000      44.51770000      54.48650000
C       53.46870000      55.48140000      45.51210000
C       54.64970000      49.02940000      55.64980000
C       55.65090000      54.64780000      49.02730000
C       49.03080000      55.65140000      54.64800000
C       54.64770000      50.96940000      44.34840000
C       45.35250000      50.97230000      55.65130000
C       45.35000000      49.02890000      44.35050000
C       55.65010000      45.35070000      50.97040000
C       44.34870000      45.35190000      49.03100000
C       44.35020000      54.64960000      50.97120000
C       49.02750000      44.34890000      45.35230000
C       50.97100000      44.35000000      54.64940000
C       50.97060000      55.64970000      45.35020000
C       54.64920000      55.64980000      49.02740000
C       55.65130000      49.02920000      54.64770000
C       49.03090000      54.64970000      55.65000000
C       54.64820000      44.34900000      50.97080000
C       45.35220000      55.65130000      50.97090000
C       45.35040000      44.34990000      49.03100000
C       55.64970000      50.96940000      45.35000000
C       44.34840000      49.02920000      45.35260000
C       44.35050000      50.97230000      54.64970000
C       49.02740000      45.35050000      44.35040000
C       50.97030000      54.64770000      44.34850000
C       50.97140000      45.35200000      55.65110000
C       53.52230000      54.55730000      52.48150000
C       52.48430000      53.52160000      54.55640000
C       54.55840000      52.48290000      53.52000000
C       53.52020000      45.44180000      47.51710000
C       46.47870000      45.44340000      52.48430000
C       46.47880000      54.55750000      47.51700000
C       52.48160000      46.47770000      45.44260000
C       47.51750000      46.47980000      54.55840000
C       47.51660000      53.52090000      45.44250000
C       54.55640000      47.51590000      46.47820000
C       45.44300000      47.51820000      53.52250000
C       45.44220000      52.48300000      46.47930000
C       53.52250000      52.48320000      54.55630000
C       52.48420000      54.55760000      53.52000000
C       54.55830000      53.52100000      52.48150000
C       53.52000000      47.51590000      45.44230000
C       46.47820000      52.48270000      45.44290000
C       46.47930000      47.51820000      54.55850000
C       52.48170000      45.44170000      46.47900000
C       47.51690000      54.55720000      46.47860000
C       47.51720000      45.44350000      53.52240000
C       54.55650000      46.47780000      47.51670000
C       45.44260000      53.52140000      47.51740000
C       45.44260000      46.47970000      52.48440000
C       45.73480000      56.20110000      52.24090000
C       52.24170000      45.73420000      56.20040000
C       56.19960000      52.23960000      45.73200000
C       45.73230000      43.80000000      47.76080000
C       54.26610000      43.79960000      52.24110000
C       54.26680000      56.19930000      47.75720000
C       52.24030000      54.26520000      43.79870000
C       47.76070000      54.26770000      56.20000000
C       47.75720000      45.73290000      43.80090000
C       56.20070000      47.75880000      54.26550000
C       43.79870000      47.75910000      45.73510000
C       43.80090000      52.24250000      54.26730000
C       45.73510000      52.24250000      56.20070000
C       52.24100000      56.19920000      45.73220000
C       56.20010000      45.73310000      52.24040000
C       45.73210000      47.75860000      43.80100000
C       54.26550000      52.23950000      43.79860000
C       54.26740000      47.75940000      56.19970000
C       52.24110000      43.80020000      54.26690000
C       47.76060000      56.20110000      54.26590000
C       47.75730000      43.79940000      45.73500000
C       56.20030000      54.26530000      47.75710000
C       43.79880000      45.73400000      47.76090000
C       43.80080000      54.26760000      52.24160000
C       55.54250000      53.42750000      51.46120000
C       51.46420000      55.54220000      53.42690000
C       53.42930000      51.46320000      55.54090000
C       55.54110000      46.57110000      48.53660000
C       44.45800000      46.57290000      51.46440000
C       44.45830000      53.42850000      48.53780000
C       51.46140000      44.45750000      46.57250000
C       48.53720000      44.45890000      53.42920000
C       48.53720000      55.54150000      46.57140000
C       53.42670000      48.53590000      44.45770000
C       46.57290000      48.53850000      55.54270000
C       46.57110000      51.46240000      44.45860000
C       55.54270000      51.46260000      53.42670000
C       51.46430000      53.42870000      55.54100000
C       53.42900000      55.54160000      51.46130000
C       55.54090000      48.53600000      46.57110000
C       44.45770000      51.46300000      46.57290000
C       44.45870000      48.53840000      53.42930000
C       51.46130000      46.57090000      44.45840000
C       48.53650000      53.42740000      44.45800000
C       48.53790000      46.57300000      55.54260000
C       53.42700000      44.45750000      48.53740000
C       46.57240000      55.54200000      48.53700000
C       46.57160000      44.45880000      51.46430000
