240
Lattice="100.0 0.0 0.0 0.0 100.0 0.0 0.0 0.0 100.0" Properties=species:S:1:pos:R:3 name=C-2509655-3548-1134 pressure=-1.39437829852644 energy=-1792.49571145404 spacegroup=C1 times_found=1 pbc="T T T"
C       50.82670000      45.24260000      45.31480000
C       45.27550000      45.33450000      50.58020000
C       45.43930000      50.68490000      45.40150000
C       49.26110000      45.43910000      54.63290000
C       49.31260000      54.51910000      45.34880000
C       50.58560000      54.77640000      54.72740000
C       54.58840000      45.30180000      49.20410000
C       54.69390000      54.63350000      50.81480000
C       45.36360000      54.68880000      49.45290000
C       54.65470000      50.80400000      54.61740000
C       54.70900000      49.38190000      45.24040000
C       45.35620000      49.19860000      54.73850000
C       50.72790000      54.52860000      45.33640000
C       45.39090000      54.68590000      50.85740000
C       45.40480000      49.26970000      45.41070000
C       49.17900000      54.75300000      54.69230000
C       49.41930000      45.22840000      45.27180000
C       50.66930000      45.44120000      54.60620000
C       54.71320000      54.66720000      49.41010000
C       54.58770000      45.31330000      50.61400000
C       45.30090000      45.38130000      49.17530000
C       54.63440000      49.39420000      54.63360000
C       54.65770000      50.78800000      45.26700000
C       45.30280000      50.60400000      54.77700000
C       43.42930000      51.43250000      51.57890000
C       51.48320000      51.38740000      43.18950000
C       51.36830000      43.35640000      51.43940000
C       56.64750000      51.48390000      48.51220000
C       56.56340000      48.52020000      51.38080000
C       43.31360000      48.61260000      48.56310000
C       48.49570000      51.51360000      56.69440000
C       48.62420000      48.42260000      43.37280000
C       51.47300000      48.66300000      56.63980000
C       48.50240000      43.33010000      48.47220000
C       48.55370000      56.76930000      51.48130000
C       51.47910000      56.49040000      48.58180000
C       43.35380000      48.52190000      51.49820000
C       51.54050000      48.46270000      43.29330000
C       51.47070000      56.65670000      51.50620000
C       56.54090000      48.56450000      48.47000000
C       56.72650000      51.43560000      51.44100000
C       43.43960000      51.50960000      48.65330000
C       48.57050000      48.58270000      56.75570000
C       48.56890000      51.32610000      43.26980000
C       51.40900000      51.57960000      56.61150000
C       48.58700000      56.56320000      48.54960000
C       48.47340000      43.44980000      51.39420000
C       51.42250000      43.20350000      48.51510000
C       55.50000000      48.67900000      46.20800000
C       48.63360000      46.34210000      55.56700000
C       46.30610000      55.49370000      48.70520000
C       44.60370000      48.45040000      53.74830000
C       44.67950000      51.47630000      46.37450000
C       55.57400000      51.41410000      53.69410000
C       51.58450000      46.22760000      44.56350000
C       51.29400000      53.82180000      55.53050000
C       48.65860000      53.60140000      44.43460000
C       53.70760000      55.39130000      51.56320000
C       53.68280000      44.37090000      48.57040000
C       46.23280000      44.53060000      51.28110000
C       55.39850000      51.54080000      46.26290000
C       48.43160000      53.76300000      55.44800000
C       46.27720000      44.61820000      48.42080000
C       44.48990000      51.31140000      53.83170000
C       44.48240000      48.65730000      46.32740000
C       55.41140000      48.62960000      53.67120000
C       51.38290000      53.63780000      44.39520000
C       51.40060000      46.37650000      55.42350000
C       48.72160000      46.19290000      44.47210000
C       53.65030000      44.45840000      51.31250000
C       53.74130000      55.45020000      48.70490000
C       46.30170000      55.61260000      51.47190000
C       44.67990000      53.78580000      53.06390000
C       53.80920000      52.78410000      44.24270000
C       52.77160000      44.58050000      53.74990000
C       55.56980000      53.96560000      47.23880000
C       55.33200000      46.20860000      52.76240000
C       44.27790000      46.23490000      47.18510000
C       46.01250000      52.77620000      55.63480000
C       46.26350000      47.02620000      44.68700000
C       53.76640000      47.33610000      55.58990000
C       47.23530000      44.41270000      45.99380000
C       47.17900000      55.78430000      53.87850000
C       52.94030000      55.25240000      46.24310000
C       44.42640000      46.03490000      52.75650000
C       54.01010000      47.20350000      44.39060000
C       52.75690000      55.61070000      53.99290000
C       55.30600000      46.20920000      46.99840000
C       55.73960000      53.82320000      52.80920000
C       44.50110000      53.90960000      47.31460000
C       46.21040000      47.20000000      55.74670000
C       46.25830000      52.67740000      44.34030000
C       53.76310000      53.02640000      55.32220000
C       47.09910000      55.23420000      46.25720000
C       47.03980000      44.72150000      53.74440000
C       52.82000000      44.20990000      46.15350000
C       57.47540000      49.25140000      49.21090000
C       49.31520000      49.36710000      57.61800000
C       49.33620000      57.49620000      49.24280000
C       42.46380000      49.31190000      50.78870000
C       42.50460000      50.78600000      49.37020000
C       57.56910000      50.66560000      50.66030000
C       50.76210000      49.15430000      42.38340000
C       50.72230000      50.83120000      57.54360000
C       49.30060000      50.57560000      42.36680000
C       50.77080000      57.54080000      50.70110000
C       50.63190000      42.36940000      49.28840000
C       49.18410000      42.49210000      50.70670000
C       57.53740000      50.69160000      49.21930000
C       49.28260000      50.81020000      57.58930000
C       49.19200000      42.42890000      49.26480000
C       42.51000000      50.75000000      50.81280000
C       42.44930000      49.35330000      49.34560000
C       57.49800000      49.22790000      50.64870000
C       50.73820000      50.59660000      42.32870000
C       50.74940000      49.39010000      57.56520000
C       49.31970000      49.13920000      42.42130000
C       50.61760000      42.43840000      50.72850000
C       50.76860000      57.45260000      49.26060000
C       49.33260000      57.59070000      50.68380000
C       56.22040000      52.62270000      50.73860000
C       52.60130000      50.89820000      56.05670000
C       50.70030000      56.21060000      52.68260000
C       43.96990000      52.64700000      49.43440000
C       43.83770000      47.37350000      50.71170000
C       55.98730000      47.37120000      49.15700000
C       47.42990000      50.58580000      43.85250000
C       47.38000000      49.27860000      56.24880000
C       52.69360000      49.24720000      43.77140000
C       49.28210000      55.95040000      47.38870000
C       49.17970000      44.00210000      52.58290000
C       50.73180000      43.72040000      47.32800000
C       56.00230000      47.36290000      50.63820000
C       52.61550000      49.43210000      56.09630000
C       50.65390000      43.95460000      52.59210000
C       43.80700000      47.41470000      49.26090000
C       43.98450000      52.62790000      50.91290000
C       56.17440000      52.64440000      49.28880000
C       47.43860000      49.12810000      43.92590000
C       47.34320000      50.72880000      56.21470000
C       52.66210000      50.69600000      43.72130000
C       49.28290000      43.78480000      47.30590000
C       49.25250000      56.26940000      52.67170000
C       50.77310000      55.92920000      47.39580000
C       55.36440000      46.29020000      51.33230000
C       46.22930000      51.35020000      55.60400000
C       51.47910000      55.27490000      46.32560000
C       44.40900000      46.32620000      48.56230000
C       44.64040000      53.70160000      51.61090000
C       55.55000000      53.75070000      48.66390000
C       53.72950000      51.40250000      44.35540000
C       53.68760000      48.74010000      55.48900000
C       46.36390000      48.47580000      44.63530000
C       48.55740000      55.66060000      53.76470000
C       48.66350000      44.41100000      46.19850000
C       51.35690000      44.61860000      53.66110000
C       55.60700000      53.71080000      51.43300000
C       46.29830000      48.57970000      55.63140000
C       51.43930000      44.33390000      46.24720000
C       44.55500000      53.73370000      48.75340000
C       44.44950000      46.25730000      51.33100000
C       55.33650000      46.29290000      48.45440000
C       53.79650000      48.62980000      44.40460000
C       53.67710000      51.57580000      55.37580000
C       46.36520000      51.29700000      44.48750000
C       48.49450000      44.68070000      53.65610000
C       48.56340000      55.27570000      46.33400000
C       51.32940000      55.59640000      53.79240000
C       55.24790000      55.28580000      46.88690000
C       54.69740000      46.61390000      54.85460000
C       46.40440000      54.88880000      54.68260000
C       45.36270000      54.87080000      53.62660000
C       45.14890000      45.41570000      46.40300000
C       54.68540000      45.14160000      53.39890000
C       45.17390000      46.48250000      45.37290000
C       44.68230000      53.12060000      55.35550000
C       54.60050000      53.56370000      45.13980000
C       53.52380000      54.58950000      45.15800000
C       53.65400000      45.39360000      54.61800000
C       46.88150000      44.71520000      44.67100000
C       54.63360000      45.12260000      46.42510000
C       54.84490000      53.58110000      54.62930000
C       46.47520000      45.39430000      54.83350000
C       44.73240000      44.71030000      53.10270000
C       44.78810000      55.22400000      46.91940000
C       54.85480000      54.63490000      53.58510000
C       45.46040000      53.47650000      45.21330000
C       45.40560000      46.42360000      54.85730000
C       55.33340000      46.85770000      44.69900000
C       53.60300000      45.10210000      45.35660000
C       53.11510000      55.32610000      55.31900000
C       46.51470000      54.52590000      45.19860000
C       53.73460000      44.39980000      52.70890000
C       44.42590000      52.74770000      54.02920000
C       52.75450000      53.78310000      44.26560000
C       46.20260000      44.68100000      46.96500000
C       46.16390000      55.76440000      52.84630000
C       53.91750000      55.51000000      47.26930000
C       55.32520000      52.99720000      46.19740000
C       55.33800000      47.21340000      53.76550000
C       44.30960000      47.28240000      46.18410000
C       46.97510000      53.82370000      55.39020000
C       47.27980000      46.03480000      44.42470000
C       52.80730000      46.28950000      55.42080000
C       53.78860000      55.34740000      53.01930000
C       44.67740000      46.99470000      53.80420000
C       53.04090000      46.16190000      44.63480000
C       46.11640000      55.49870000      47.27960000
C       46.05780000      44.46990000      52.71860000
C       53.82560000      44.23120000      47.19870000
C       55.56480000      47.24130000      46.02680000
C       55.72610000      52.79010000      53.82490000
C       44.75540000      52.92570000      46.28920000
C       47.26010000      46.19920000      55.71730000
C       47.28490000      53.70650000      44.32330000
C       52.73310000      54.00300000      55.57860000
C       47.40940000      56.11790000      49.32650000
C       56.05940000      49.35250000      47.31020000
C       49.31720000      47.43410000      56.19860000
C       52.64110000      56.05210000      50.85100000
C       52.58070000      43.74470000      49.24150000
C       47.32290000      43.95140000      50.60670000
C       43.92320000      49.16590000      52.69540000
C       43.96780000      50.81680000      47.44780000
C       56.17820000      50.71070000      52.60060000
C       50.88090000      47.28400000      43.88120000
C       50.62140000      52.72910000      56.11390000
C       49.30630000      52.51080000      43.76780000
C       47.33130000      43.93430000      49.12850000
C       56.06820000      50.83050000      47.32600000
C       49.14510000      52.70530000      56.11940000
C       52.55680000      43.81470000      50.67940000
C       52.64150000      56.01490000      49.37290000
C       47.39400000      56.21820000      50.77530000
C       43.91850000      50.64180000      52.73030000
C       43.87470000      49.36050000      47.41580000
C       56.08510000      49.26220000      52.57770000
C       50.73710000      52.53890000      43.73350000
C       50.76100000      47.46490000      56.12630000
C       49.40440000      47.27470000      43.88520000
