240
Lattice="100.0 0.0 0.0 0.0 100.0 0.0 0.0 0.0 100.0" Properties=species:S:1:pos:R:3 name=C-2509655-3548-789 pressure=-4.61884386978523 energy=-1791.74907784605 spacegroup=C1 times_found=1 pbc="T T T"
C       47.35470000      45.87020000      54.58910000
C       45.88260000      54.58860000      47.32280000
C       54.57270000      47.32660000      45.86140000
C       47.36150000      54.13570000      45.42910000
C       52.65000000      45.86220000      45.41820000
C       52.63860000      54.13860000      54.57300000
C       45.90690000      45.40960000      52.68520000
C       54.11620000      54.59200000      52.67830000
C       54.13720000      45.40750000      47.30440000
C       54.56110000      52.67690000      54.12590000
C       45.44340000      47.33040000      54.12950000
C       45.43960000      52.67280000      45.87600000
C       52.69290000      45.87540000      54.56950000
C       54.13600000      54.57160000      47.33890000
C       45.41370000      47.33610000      45.88530000
C       52.69910000      54.11810000      45.41120000
C       47.31270000      45.88540000      45.42230000
C       47.30110000      54.11340000      54.58710000
C       54.16020000      45.43030000      52.65170000
C       45.86270000      54.56760000      52.66060000
C       45.88490000      45.43390000      47.35770000
C       45.40080000      52.66140000      54.12820000
C       54.60240000      47.33130000      54.12280000
C       54.59930000      52.66620000      45.87040000
C       56.05170000      51.46910000      48.03370000
C       51.51480000      48.05850000      56.06710000
C       48.04940000      56.06470000      51.50070000
C       56.05580000      48.53830000      51.95760000
C       43.94730000      51.46440000      51.96550000
C       43.95690000      48.53140000      48.04540000
C       51.51400000      51.94070000      43.92350000
C       48.49320000      48.06030000      43.92810000
C       48.48850000      51.93660000      56.07530000
C       48.06700000      43.93250000      48.50810000
C       51.94780000      56.06600000      48.49970000
C       51.98450000      43.96150000      51.46680000
C       43.93510000      51.50340000      48.05990000
C       48.54370000      48.03350000      56.04870000
C       51.95590000      56.05130000      51.47160000
C       43.94010000      48.49030000      51.94820000
C       56.06410000      51.50780000      51.94090000
C       56.07290000      48.49810000      48.04800000
C       48.54210000      51.96560000      43.95980000
C       51.46500000      48.03430000      43.95480000
C       51.46090000      51.96710000      56.04160000
C       51.97320000      43.95090000      48.52000000
C       48.04140000      56.05050000      48.52920000
C       48.07850000      43.92040000      51.50510000
C       54.93350000      46.55800000      46.98330000
C       46.58860000      47.00000000      54.91650000
C       47.01890000      54.92330000      46.56690000
C       54.91680000      53.44490000      53.00160000
C       45.10130000      46.55830000      53.00460000
C       45.08290000      53.44080000      46.99990000
C       46.59070000      53.01030000      45.09230000
C       53.41990000      46.98820000      45.08020000
C       53.41080000      53.01430000      54.91050000
C       47.03750000      45.06770000      53.44780000
C       52.97990000      54.92590000      53.43450000
C       52.99640000      45.07350000      46.55420000
C       45.09310000      46.57460000      47.02150000
C       53.45670000      47.00360000      54.92370000
C       53.01410000      54.91830000      46.56470000
C       45.07510000      53.42390000      52.99460000
C       54.94210000      46.57310000      52.98980000
C       54.92440000      53.42850000      47.00430000
C       53.45880000      52.98570000      45.06720000
C       46.55210000      47.01730000      45.07940000
C       46.54240000      52.98030000      54.93060000
C       53.03300000      45.09140000      53.41940000
C       46.98470000      54.91440000      53.43470000
C       47.00170000      45.08660000      46.57760000
C       51.32260000      56.46610000      46.03210000
C       56.40050000      46.18020000      51.17990000
C       46.02480000      51.28780000      56.47590000
C       51.23360000      43.62150000      53.83230000
C       48.67450000      56.46380000      53.96830000
C       48.68830000      43.53620000      46.03930000
C       56.38340000      53.83170000      48.80920000
C       43.63470000      46.16680000      48.82350000
C       43.61500000      53.82750000      51.19080000
C       46.03160000      48.71170000      43.53420000
C       53.97440000      51.28920000      43.52300000
C       53.97140000      48.71030000      56.46460000
C       48.82490000      56.38320000      46.17030000
C       43.55190000      46.02100000      51.31820000
C       53.82510000      51.21040000      56.37500000
C       48.73620000      43.52680000      53.96430000
C       51.17240000      56.38380000      53.83060000
C       51.18690000      43.61530000      46.16300000
C       43.53400000      53.96680000      48.69330000
C       56.48320000      46.03660000      48.68010000
C       56.46450000      53.97110000      51.30710000
C       53.82900000      48.79240000      43.61640000
C       46.17690000      51.20800000      43.62730000
C       46.17570000      48.79450000      56.38360000
C       44.55720000      45.16160000      50.73700000
C       45.21840000      50.67780000      44.56000000
C       50.65270000      44.55260000      45.21080000
C       44.53680000      54.82880000      49.27530000
C       55.48220000      45.17300000      49.26190000
C       55.46110000      54.83200000      50.72500000
C       45.21370000      49.32030000      55.45110000
C       54.78200000      50.68080000      55.44110000
C       54.78880000      49.32300000      44.54760000
C       50.64190000      55.44690000      54.78580000
C       49.31190000      44.53300000      54.82800000
C       49.35630000      55.44680000      45.21510000
C       55.46790000      45.21990000      50.65110000
C       54.83610000      50.71070000      44.52880000
C       49.26480000      44.53770000      45.17240000
C       55.44750000      54.78880000      49.33700000
C       44.57270000      45.21120000      49.35070000
C       44.55030000      54.78540000      50.66330000
C       54.82930000      49.29270000      55.45920000
C       45.16280000      50.70770000      55.47050000
C       45.17130000      49.28980000      44.54130000
C       49.25420000      55.46150000      54.83180000
C       50.70000000      44.55370000      54.78840000
C       50.74400000      55.46350000      45.16820000
C       49.27660000      49.24170000      56.25770000
C       49.24570000      56.25710000      49.26880000
C       56.26230000      49.26730000      49.24370000
C       49.27420000      50.75640000      43.74510000
C       50.73280000      49.24400000      43.74280000
C       50.73170000      50.75630000      56.25460000
C       49.26680000      43.73320000      50.73620000
C       50.75150000      56.25730000      50.73190000
C       50.76730000      43.74940000      49.26640000
C       56.25830000      50.73930000      50.74600000
C       43.74450000      49.26100000      50.75540000
C       43.74200000      50.73390000      49.25430000
C       50.74250000      49.25090000      56.25780000
C       50.75140000      56.25870000      49.26610000
C       43.74710000      49.26820000      49.25020000
C       50.74050000      50.74930000      43.73860000
C       49.26650000      49.25120000      43.74070000
C       49.26530000      50.74710000      56.26140000
C       50.77200000      43.75100000      50.73050000
C       49.24580000      56.25830000      50.73450000
C       49.26180000      43.73560000      49.26790000
C       43.74260000      50.72730000      50.75970000
C       56.25990000      49.27370000      50.74990000
C       56.25770000      50.73310000      49.24020000
C       55.73360000      49.30570000      53.13010000
C       49.25300000      53.12750000      55.74250000
C       53.13090000      55.73440000      49.27600000
C       55.73810000      50.69920000      46.86010000
C       44.26990000      49.30160000      46.87220000
C       44.26130000      50.69450000      53.13850000
C       49.25980000      46.87090000      44.25950000
C       50.74790000      53.13000000      44.25680000
C       50.74810000      46.87070000      55.73340000
C       53.16050000      44.27480000      50.70100000
C       46.86650000      55.73260000      50.72450000
C       46.89380000      44.26680000      49.29600000
C       44.26720000      49.26370000      53.13380000
C       50.68380000      53.13390000      55.72580000
C       46.86650000      55.73290000      49.29380000
C       44.27070000      50.73250000      46.87550000
C       55.73710000      49.26850000      46.86330000
C       55.72890000      50.73650000      53.12580000
C       50.69060000      46.86620000      44.27210000
C       49.31720000      53.13380000      44.27500000
C       49.31740000      46.86320000      55.73310000
C       46.89700000      44.25600000      50.72950000
C       53.13090000      55.73440000      50.70680000
C       53.15770000      44.26520000      49.27300000
C       55.14230000      51.38800000      54.27730000
C       51.34550000      54.28210000      55.14650000
C       54.27420000      55.18030000      51.39560000
C       55.15160000      48.61650000      45.71100000
C       44.85750000      51.38430000      45.72400000
C       44.85430000      48.61450000      54.28530000
C       51.35500000      45.71820000      44.84860000
C       48.65410000      54.28090000      44.85510000
C       48.63640000      45.71680000      55.17840000
C       54.29930000      44.81860000      48.58590000
C       45.72370000      55.17780000      48.60490000
C       45.74580000      44.81410000      51.40650000
C       44.81150000      51.37970000      54.28460000
C       48.57870000      54.27700000      55.18350000
C       45.71270000      55.14880000      51.37220000
C       44.82240000      48.61680000      45.72750000
C       55.18710000      51.38380000      45.71430000
C       55.18200000      48.61870000      54.27550000
C       48.58800000      45.72160000      44.82190000
C       51.42110000      54.28030000      44.81540000
C       51.40390000      45.71990000      55.15010000
C       45.73890000      44.85300000      48.64710000
C       54.28510000      55.15170000      48.62800000
C       54.30700000      44.85510000      51.36030000
C       44.09220000      47.03480000      52.12390000
C       47.10710000      52.11190000      44.12520000
C       52.10350000      44.10800000      47.08390000
C       44.07630000      52.95840000      47.88160000
C       55.93780000      47.04280000      47.86700000
C       55.92280000      52.96250000      52.11930000
C       47.10730000      47.89240000      55.88600000
C       52.89540000      52.11530000      55.87770000
C       52.90040000      47.88750000      44.11570000
C       52.08800000      55.89250000      52.90800000
C       47.91380000      44.06200000      52.96130000
C       47.90960000      55.89110000      47.09290000
C       55.90490000      47.10180000      52.09490000
C       52.97040000      52.10820000      44.06180000
C       47.88400000      44.07940000      47.05300000
C       55.89030000      52.90570000      47.89830000
C       44.12460000      47.09520000      47.91340000
C       44.10860000      52.90120000      52.10100000
C       52.96980000      47.88700000      55.92680000
C       47.03120000      52.10330000      55.93590000
C       47.03710000      47.89350000      44.07130000
C       47.86860000      55.92000000      52.95600000
C       52.13400000      44.12380000      52.90150000
C       52.12900000      55.92250000      47.04420000
C       53.65940000      49.61240000      42.50790000
C       49.22700000      42.18910000      53.93670000
C       42.19450000      53.94150000      49.17590000
C       53.65780000      50.38900000      57.48320000
C       46.34050000      49.61530000      57.49260000
C       46.34410000      50.38830000      42.51810000
C       49.64920000      57.48880000      46.33850000
C       50.36250000      42.51060000      46.33520000
C       50.34680000      57.48860000      53.66240000
C       42.21210000      46.04040000      50.83650000
C       57.80380000      53.94660000      50.82410000
C       57.82110000      46.06710000      49.16560000
C       46.05810000      49.20100000      42.19660000
C       50.41610000      42.51170000      53.66020000
C       57.48910000      53.66390000      49.63420000
C       46.05280000      50.80200000      57.81440000
C       53.94290000      49.20050000      57.80140000
C       53.94520000      50.79960000      42.18580000
C       50.83890000      57.80500000      46.05650000
C       49.17040000      42.19610000      46.06130000
C       49.15680000      57.80330000      53.94470000
C       57.50510000      46.35230000      50.35480000
C       42.50940000      53.65930000      50.36580000
C       42.52780000      46.32780000      49.64800000
