240
Lattice="100.0 0.0 0.0 0.0 100.0 0.0 0.0 0.0 100.0" Properties=species:S:1:pos:R:3 name=C-2509655-3548-985 pressure=-0.00310856053922313 energy=-1731.34321611453 spacegroup=C1 times_found=1 pbc="T T T"
C       47.05240000      43.30810000      48.92210000
C       49.35640000      47.04190000      43.64150000
C       42.74800000      49.76680000      46.91700000
C       47.09560000      57.52860000      50.32400000
C       52.58990000      56.47460000      49.10140000
C       52.47870000      43.00800000      50.77780000
C       49.64260000      52.43390000      56.25870000
C       50.98360000      52.82340000      43.04110000
C       50.84310000      47.00430000      56.27480000
C       43.18910000      51.08090000      52.71380000
C       57.03840000      50.80060000      46.98790000
C       56.88000000      49.56990000      52.59630000
C       52.61700000      43.19270000      49.35090000
C       50.79780000      47.00780000      43.86480000
C       56.86770000      49.35480000      47.04160000
C       52.55120000      56.67980000      50.54220000
C       46.96470000      57.25170000      48.87610000
C       47.06970000      43.25650000      50.36400000
C       51.09260000      52.40150000      56.34430000
C       49.59440000      52.68000000      42.59460000
C       49.38850000      47.00980000      56.16610000
C       56.99860000      51.01810000      52.54740000
C       43.03010000      51.20490000      46.94180000
C       42.84020000      49.66360000      52.71690000
C       47.06560000      52.26960000      55.65230000
C       54.76910000      46.67040000      53.38870000
C       52.17070000      55.29100000      46.67700000
C       46.48720000      46.71250000      44.73360000
C       53.58630000      47.42030000      55.38100000
C       53.01320000      53.26350000      45.49830000
C       56.18060000      53.38950000      47.35010000
C       45.16770000      53.42240000      53.09680000
C       44.37860000      47.33420000      46.84360000
C       53.07780000      43.29310000      53.73520000
C       46.94320000      43.68700000      46.34930000
C       47.25830000      55.55560000      52.56130000
C       53.99080000      53.05990000      55.95340000
C       44.52010000      47.23000000      52.68310000
C       46.28140000      55.85130000      46.12210000
C       53.53830000      47.70600000      45.82760000
C       46.73520000      46.60270000      54.68160000
C       47.13930000      52.68830000      44.18210000
C       43.57850000      54.01590000      47.48720000
C       55.15560000      54.40430000      52.64630000
C       55.48750000      47.04960000      47.67120000
C       47.39340000      43.74930000      52.92270000
C       52.88900000      44.14680000      46.88090000
C       53.10890000      55.99090000      53.35880000
C       43.41500000      46.77290000      49.02070000
C       49.11900000      45.61030000      47.40650000
C       47.52610000      48.80520000      43.67760000
C       43.55730000      52.98140000      51.13760000
C       56.72680000      53.42230000      49.56530000
C       56.33900000      47.54790000      51.23810000
C       49.57540000      56.37580000      52.83150000
C       49.89190000      56.10600000      46.55150000
C       50.89550000      42.44830000      52.67390000
C       46.97210000      49.94190000      55.99360000
C       51.90500000      50.96730000      45.61820000
C       53.61040000      49.54590000      56.45600000
C       56.12250000      47.02930000      49.88920000
C       50.36850000      45.74260000      47.51040000
C       52.43030000      49.76380000      45.49920000
C       56.91450000      53.00400000      50.96330000
C       43.59130000      53.60640000      49.84980000
C       43.45520000      46.74580000      50.52930000
C       50.90650000      56.90180000      52.46580000
C       48.54730000      56.49160000      46.93190000
C       49.55550000      42.85380000      53.10010000
C       53.10480000      50.86650000      56.83840000
C       47.08690000      50.19020000      43.84100000
C       47.45180000      48.60050000      56.08810000
C       49.17540000      53.82050000      43.31890000
C       43.81410000      49.41610000      53.69240000
C       53.58790000      44.28870000      49.51390000
C       49.42190000      45.81050000      55.32710000
C       50.68890000      45.84600000      44.68870000
C       51.16850000      53.51090000      55.38660000
C       44.04790000      50.99430000      45.87100000
C       56.33290000      51.11180000      53.83070000
C       55.72040000      49.41600000      46.15260000
C       53.71840000      55.84660000      50.70680000
C       45.78380000      56.46770000      49.20100000
C       46.12220000      44.35270000      50.45390000
C       50.56510000      54.01550000      43.71180000
C       56.20110000      49.61870000      53.86030000
C       46.06660000      44.38100000      48.92810000
C       50.94770000      45.83280000      55.46030000
C       49.19890000      45.85280000      44.51180000
C       49.62470000      53.51060000      55.25330000
C       55.89280000      50.94000000      46.13720000
C       44.20330000      50.83620000      53.74080000
C       43.72140000      49.57110000      45.92180000
C       46.04670000      56.65820000      50.63440000
C       53.73970000      55.58310000      49.17300000
C       53.45910000      44.06920000      51.00730000
C       51.35450000      42.33980000      51.32960000
C       51.79940000      51.78470000      43.49910000
C       42.94900000      51.77350000      51.51190000
C       51.55390000      56.91290000      48.27710000
C       48.21720000      57.49340000      51.12050000
C       48.09410000      42.74930000      48.12770000
C       51.64280000      48.01910000      56.77930000
C       48.76800000      48.26160000      43.25410000
C       48.84990000      51.43830000      56.84660000
C       42.65640000      48.86670000      47.97850000
C       57.08030000      48.73740000      51.49070000
C       57.58640000      51.55570000      48.03480000
C       48.04630000      42.52150000      51.06050000
C       48.87400000      51.51230000      42.71740000
C       57.37440000      51.71140000      51.37760000
C       48.17960000      57.24260000      48.10520000
C       51.44900000      57.27980000      51.19220000
C       51.64440000      42.80420000      48.39260000
C       48.67550000      48.14610000      56.61950000
C       51.62570000      48.10910000      44.05220000
C       51.75740000      51.30890000      56.98510000
C       57.21510000      48.63290000      48.18220000
C       42.72930000      48.79250000      51.63460000
C       42.74610000      51.85990000      48.14630000
C       51.66260000      43.56750000      47.20080000
C       47.65320000      51.45040000      43.50020000
C       43.50250000      47.56280000      51.64850000
C       51.79080000      56.33320000      53.36820000
C       47.65220000      55.79080000      46.03440000
C       48.31490000      42.87450000      52.41880000
C       46.63310000      47.81460000      55.20530000
C       52.32750000      48.33370000      45.29050000
C       54.07600000      51.79270000      56.46810000
C       43.21310000      53.18670000      48.50880000
C       56.23590000      53.96710000      51.76200000
C       56.39330000      47.51480000      48.58130000
C       48.19130000      43.33270000      46.85190000
C       52.70750000      51.96560000      44.74910000
C       55.50050000      46.77730000      52.13050000
C       48.32630000      56.51930000      52.22220000
C       51.21790000      56.18630000      47.10210000
C       51.77090000      42.91330000      53.67500000
C       52.97170000      48.28420000      56.27760000
C       46.57670000      47.99040000      44.40350000
C       47.55250000      51.19670000      56.32010000
C       57.00040000      52.85220000      48.29930000
C       44.52130000      53.67780000      51.96640000
C       43.41270000      47.63090000      47.92440000
C       48.44740000      45.01900000      45.29390000
C       44.54640000      48.44820000      45.86130000
C       45.27400000      45.29580000      48.12630000
C       48.83950000      54.38310000      54.32250000
C       50.88470000      54.57370000      44.91650000
C       51.79810000      44.89550000      54.90300000
C       45.35060000      51.17220000      54.48740000
C       54.87700000      51.82730000      45.71820000
C       55.33070000      48.90810000      54.71440000
C       46.09120000      55.65810000      51.62700000
C       54.70540000      54.72730000      48.55970000
C       54.08670000      44.90460000      51.93290000
C       51.39900000      45.19810000      45.62260000
C       54.55240000      48.82460000      45.65820000
C       54.36510000      45.35820000      48.91530000
C       51.97160000      54.45650000      54.74120000
C       48.08590000      53.89600000      44.19830000
C       48.77370000      44.84120000      54.50710000
C       55.66360000      51.87960000      54.77090000
C       45.23420000      51.35500000      45.14440000
C       44.65060000      48.29910000      53.70080000
C       54.68560000      55.41120000      51.59460000
C       44.82110000      55.52000000      48.83860000
C       45.37180000      45.25930000      51.29720000
C       42.28580000      50.97430000      50.55250000
C       50.45260000      41.89300000      50.35160000
C       51.23870000      50.57900000      42.99120000
C       42.18630000      49.53970000      49.10500000
C       57.85440000      49.40270000      50.53170000
C       58.12840000      50.78670000      49.05220000
C       50.64110000      57.77140000      48.88240000
C       49.20120000      58.04450000      50.30470000
C       49.10320000      42.10100000      48.82730000
C       50.88990000      48.93940000      57.51080000
C       49.78580000      49.11110000      42.74220000
C       49.50140000      50.43540000      57.54310000
C       57.99730000      50.83720000      50.47750000
C       49.01490000      41.91900000      50.25880000
C       49.81400000      50.50450000      42.52630000
C       57.97750000      49.33170000      49.10850000
C       42.23220000      49.51360000      50.54620000
C       42.24260000      51.00360000      49.13340000
C       49.20920000      57.86750000      48.84970000
C       50.62650000      57.97640000      50.31180000
C       50.56010000      42.10350000      48.93120000
C       49.44660000      48.99350000      57.44240000
C       51.16660000      49.15680000      43.20860000
C       50.93020000      50.37970000      57.61790000
C       55.18740000      45.95120000      49.93600000
C       48.39000000      54.94560000      45.14440000
C       45.61500000      48.64490000      54.65270000
C       55.78180000      54.95210000      50.80710000
C       44.43380000      54.74920000      49.95170000
C       44.32610000      45.62420000      50.46110000
C       49.67030000      43.76680000      54.19370000
C       50.63660000      44.39930000      46.56200000
C       51.09980000      55.41310000      54.19430000
C       45.90130000      50.17270000      44.63570000
C       55.14530000      51.09720000      55.82310000
C       53.77170000      49.83260000      44.97430000
C       44.28520000      45.64710000      49.02730000
C       49.78200000      55.22530000      45.45580000
C       54.84480000      49.72510000      55.76430000
C       45.04200000      54.79410000      51.25260000
C       55.77830000      54.48190000      49.49780000
C       54.97680000      45.75330000      51.30740000
C       51.03300000      43.78370000      54.52660000
C       49.15890000      44.31990000      46.37460000
C       49.73550000      55.39560000      53.87310000
C       53.98790000      51.20900000      44.83100000
C       45.86680000      49.97870000      55.09480000
C       45.57360000      48.82840000      44.98020000
C       47.01800000      44.81400000      45.60130000
C       46.06270000      45.86920000      45.70410000
C       45.22400000      46.13750000      46.85950000
C       47.45130000      54.49870000      53.59480000
C       52.10400000      54.35560000      45.68750000
C       53.12980000      44.70030000      54.17170000
C       46.20890000      52.38450000      54.64700000
C       54.21760000      53.09730000      46.23180000
C       54.61990000      47.60950000      54.49300000
C       46.32540000      53.55510000      53.77550000
C       54.90910000      53.86230000      47.28260000
C       53.96460000      45.44930000      53.32330000
C       52.77050000      45.30450000      46.12750000
C       53.62070000      46.40780000      46.41450000
C       54.47730000      46.17750000      47.60370000
C       53.31880000      54.83720000      54.10010000
C       45.14090000      55.55580000      46.45280000
C       47.49510000      44.81650000      53.70960000
C       54.85470000      53.13090000      54.82240000
C       45.95740000      52.52620000      44.86890000
C       46.45510000      45.84900000      53.60750000
C       54.52600000      54.10100000      53.86720000
C       44.37530000      55.11160000      47.52330000
C       45.43850000      46.07230000      52.57270000
