240
Lattice="100.0 0.0 0.0 0.0 100.0 0.0 0.0 0.0 100.0" Properties=species:S:1:pos:R:3 name=C-2509655-3548-1116 pressure=2.16860026926238 energy=-1740.76933845508 spacegroup=C1 times_found=1 pbc="T T T"
C       48.73800000      47.08560000      56.77310000
C       56.65150000      48.73100000      46.89920000
C       47.03880000      57.16100000      48.97160000
C       51.07740000      53.14990000      57.13140000
C       51.11840000      46.86170000      43.42640000
C       48.88880000      53.08870000      43.47390000
C       43.38080000      51.18510000      46.95720000
C       43.27310000      48.74420000      52.95380000
C       56.55530000      51.13800000      53.02510000
C       53.05430000      42.65500000      48.76830000
C       52.91160000      56.95120000      51.19650000
C       47.08820000      42.89660000      51.08530000
C       48.75530000      47.03530000      43.22280000
C       56.74830000      48.78560000      52.93480000
C       46.93880000      56.62330000      51.25970000
C       51.25370000      52.91700000      43.23450000
C       51.07900000      47.04330000      56.49630000
C       48.72170000      53.11610000      57.37430000
C       43.42580000      51.12150000      53.09400000
C       42.87120000      48.87700000      47.04180000
C       57.17790000      51.03280000      46.98050000
C       53.15180000      42.98290000      51.08450000
C       53.04180000      56.48930000      48.84680000
C       46.98830000      43.35520000      48.75690000
C       55.60940000      52.09960000      53.43430000
C       53.48280000      55.85210000      51.84270000
C       51.77640000      53.77590000      56.07770000
C       44.42720000      48.12920000      53.44050000
C       44.33720000      52.03220000      46.42430000
C       55.69250000      47.88830000      46.36140000
C       46.63960000      44.06320000      51.74040000
C       46.45240000      56.07890000      48.25920000
C       53.59590000      43.81030000      48.14250000
C       48.03580000      46.67760000      55.59420000
C       47.86420000      53.54940000      44.32760000
C       52.14330000      46.38860000      44.27330000
C       56.08160000      51.73450000      46.40830000
C       53.45390000      55.59070000      47.84000000
C       51.91060000      53.43650000      44.35360000
C       43.96520000      48.17880000      46.46150000
C       44.28020000      52.13980000      53.56640000
C       55.60240000      48.18260000      53.47540000
C       46.60870000      44.31910000      47.81010000
C       46.37400000      55.66030000      52.07670000
C       53.60590000      44.00270000      51.89030000
C       48.11920000      46.50580000      44.34850000
C       48.06550000      53.65740000      56.23460000
C       52.06080000      46.66970000      55.57700000
C       54.30140000      45.96930000      52.91950000
C       52.80020000      55.22830000      45.47370000
C       46.21420000      53.25680000      54.80510000
C       44.51790000      54.54150000      53.04090000
C       45.38890000      46.30690000      46.79200000
C       54.68170000      53.62540000      46.75530000
C       47.22570000      44.70010000      45.44070000
C       47.01670000      54.35480000      54.25130000
C       53.14160000      45.44900000      53.67190000
C       54.43790000      47.31110000      55.26860000
C       54.11920000      52.81410000      45.66220000
C       45.92620000      47.11770000      45.68760000
C       54.34440000      45.75600000      47.05060000
C       53.69750000      54.32560000      53.60310000
C       45.45610000      53.04270000      44.57730000
C       45.67780000      54.16230000      47.12680000
C       45.92550000      46.05120000      52.76460000
C       54.76530000      54.24290000      52.68720000
C       47.06830000      45.53990000      53.55190000
C       46.78830000      54.71200000      46.33530000
C       53.23220000      45.20660000      46.25520000
C       54.55450000      46.89310000      44.51740000
C       53.67160000      53.23350000      54.51100000
C       45.63620000      47.24170000      55.18750000
C       51.56430000      56.66560000      50.76870000
C       50.62590000      51.78740000      56.98910000
C       56.57980000      50.69570000      51.63450000
C       48.45710000      43.05560000      50.63380000
C       48.39240000      56.84730000      49.40470000
C       51.69000000      42.86990000      49.22770000
C       49.21630000      48.45580000      56.75160000
C       49.30360000      51.68860000      43.48740000
C       50.70610000      48.26300000      43.45920000
C       43.38840000      49.26460000      51.61290000
C       43.40880000      50.73270000      48.33520000
C       56.62840000      49.18360000      48.27590000
C       51.65730000      56.50820000      49.32040000
C       50.73910000      51.57810000      43.39890000
C       56.88540000      50.60850000      48.34090000
C       48.37460000      43.23510000      49.19930000
C       48.32260000      56.59370000      50.82640000
C       51.75530000      43.01100000      50.66270000
C       49.27060000      48.37390000      43.38930000
C       49.18500000      51.74280000      57.14990000
C       50.64040000      48.42480000      56.61960000
C       43.16780000      49.30720000      48.39890000
C       43.44670000      50.70210000      51.69070000
C       56.64060000      49.25660000      51.56890000
C       49.10150000      55.18410000      45.97920000
C       45.82930000      49.54970000      55.33880000
C       55.13420000      45.76750000      49.29470000
C       50.92710000      44.69560000      45.89490000
C       50.66720000      55.28890000      54.31400000
C       49.39090000      45.01810000      53.91740000
C       53.93150000      50.98410000      55.16700000
C       54.23810000      49.20720000      44.58710000
C       45.78050000      50.72770000      44.63020000
C       44.84100000      54.17180000      49.35440000
C       45.08870000      45.93450000      50.52730000
C       55.22020000      54.16050000      50.44770000
C       49.23740000      55.18430000      54.25330000
C       45.83830000      49.34990000      44.86170000
C       55.15490000      45.82170000      50.70680000
C       50.81100000      44.97880000      53.92400000
C       50.49470000      55.23890000      45.87580000
C       49.53380000      44.63810000      45.80260000
C       54.18570000      50.58340000      44.82710000
C       54.05380000      49.60370000      55.28780000
C       45.87950000      50.94720000      55.30630000
C       44.60080000      54.21760000      50.72950000
C       44.96890000      45.94330000      49.11490000
C       55.20150000      54.03980000      49.04620000
C       48.41880000      45.24210000      44.96520000
C       45.10160000      48.33040000      45.59020000
C       45.67920000      45.38680000      47.90070000
C       51.60560000      54.68320000      45.00050000
C       51.99590000      45.73520000      54.51490000
C       48.24210000      54.48350000      55.05760000
C       54.93420000      51.59600000      45.55250000
C       54.93260000      48.49390000      54.72200000
C       45.32560000      52.11950000      54.52990000
C       54.42730000      54.55750000      47.86660000
C       54.47580000      45.11480000      51.76600000
C       45.08810000      55.05110000      51.87940000
C       48.19390000      45.80170000      54.48510000
C       45.05370000      48.41540000      54.70210000
C       45.81230000      45.21890000      51.56140000
C       51.32400000      54.85130000      55.40160000
C       52.10660000      45.45860000      45.34430000
C       47.90970000      54.45720000      45.41570000
C       54.55740000      52.07560000      54.39320000
C       55.06970000      48.05730000      45.07950000
C       44.95190000      51.87270000      45.13770000
C       54.59450000      54.98060000      51.50050000
C       54.44560000      44.96700000      48.28460000
C       45.57720000      54.94440000      48.36480000
C       54.00840000      42.25850000      50.27620000
C       50.88430000      53.81760000      42.17760000
C       42.71960000      50.24040000      53.91500000
C       46.14350000      57.50410000      50.52880000
C       46.10600000      42.61160000      49.53220000
C       53.87430000      57.31010000      49.61200000
C       49.10460000      46.14380000      42.14980000
C       49.14630000      53.96830000      58.45570000
C       50.24360000      46.14330000      57.14780000
C       57.79290000      49.15810000      53.84890000
C       58.24050000      50.49560000      46.18950000
C       41.80480000      49.41100000      46.25510000
C       53.89490000      41.57400000      49.21610000
C       50.29970000      53.93140000      57.95080000
C       42.51640000      50.44880000      46.14640000
C       46.25930000      58.23630000      49.50570000
C       46.19680000      41.90750000      50.57980000
C       53.70670000      57.99940000      50.65790000
C       49.14850000      46.13720000      57.78240000
C       49.75690000      53.90250000      42.74140000
C       50.24230000      46.05710000      42.69200000
C       57.51770000      49.46460000      46.08900000
C       57.26220000      50.30280000      53.89860000
C       42.22800000      49.07920000      53.88830000
C       44.80000000      53.02510000      47.28810000
C       47.46660000      44.41380000      52.79930000
C       53.26830000      47.18270000      44.09770000
C       55.22520000      46.89220000      47.21880000
C       55.58630000      53.14250000      52.52500000
C       44.96680000      47.13300000      52.60340000
C       52.78290000      55.32990000      52.96570000
C       52.80530000      44.10860000      47.04980000
C       47.23240000      55.78960000      47.15110000
C       46.73910000      52.75790000      44.14520000
C       46.88820000      47.47660000      55.68480000
C       52.73040000      52.93440000      55.51480000
C       44.10940000      53.25200000      52.75480000
C       47.44110000      44.19620000      46.69940000
C       53.16010000      47.51430000      55.72810000
C       55.17010000      47.11080000      52.69870000
C       55.78850000      52.84640000      47.18300000
C       44.28220000      47.07400000      47.23750000
C       52.59340000      55.69670000      46.75000000
C       52.74640000      44.33060000      52.91550000
C       47.20580000      55.20300000      53.09280000
C       46.98240000      52.85140000      55.93160000
C       47.06770000      47.30680000      44.81190000
C       52.96650000      52.63140000      44.79870000
C       48.14840000      50.84780000      56.65750000
C       56.20730000      48.19430000      50.66930000
C       50.69840000      56.26760000      48.26900000
C       51.68690000      49.43480000      56.35890000
C       51.78530000      50.65260000      43.79370000
C       48.22890000      49.29460000      43.80450000
C       43.73590000      51.78580000      50.73680000
C       43.64970000      48.22830000      49.27030000
C       56.46090000      51.70730000      49.21790000
C       49.34600000      43.49880000      48.15040000
C       49.23560000      56.15600000      51.87710000
C       50.82280000      43.48880000      51.70070000
C       48.21210000      50.75300000      43.76090000
C       56.19000000      48.14780000      49.20290000
C       50.70300000      56.18550000      51.86570000
C       51.80020000      49.19470000      43.73600000
C       51.64770000      50.88730000      56.44670000
C       48.16580000      49.41610000      56.50880000
C       43.81340000      51.77960000      49.26860000
C       43.81180000      48.23650000      50.69130000
C       56.33590000      51.75880000      50.65090000
C       49.39750000      43.51030000      51.68500000
C       49.26810000      56.40560000      48.31460000
C       50.78490000      43.35980000      48.17560000
C       53.07270000      48.60610000      43.99780000
C       44.38480000      52.96410000      48.66730000
C       48.83470000      44.15320000      52.86440000
C       46.93940000      51.33580000      44.03550000
C       46.95660000      48.87970000      55.98750000
C       52.76890000      51.55370000      55.83350000
C       55.62070000      46.95710000      48.60410000
C       55.87110000      53.02010000      51.15290000
C       44.52200000      47.10250000      51.23900000
C       51.38470000      55.64830000      53.07650000
C       51.42420000      43.87930000      46.99220000
C       48.62090000      55.96970000      47.10400000
C       52.94180000      48.91970000      55.92010000
C       44.01000000      53.05170000      51.32920000
C       48.84140000      43.98010000      46.90110000
C       46.94920000      51.46460000      56.14510000
C       47.05740000      48.68280000      44.38660000
C       52.96550000      51.25730000      44.36730000
C       55.62610000      47.05580000      51.32330000
C       56.00230000      52.91970000      48.56970000
C       44.12230000      47.02130000      48.63440000
C       51.19450000      55.86150000      46.98860000
C       51.37370000      44.10050000      52.89560000
C       48.59150000      55.60580000      53.05120000
