240
Lattice="100.0 0.0 0.0 0.0 100.0 0.0 0.0 0.0 100.0" Properties=species:S:1:pos:R:3 name=C-2509655-3548-576 pressure=0.04503628683719 energy=-1796.22672325063 spacegroup=Td times_found=1 pbc="T T T"
C       47.60960000      45.59810000      46.60150000
C       46.60040000      47.61030000      45.59850000
C       45.59750000      46.60130000      47.61080000
C       47.61100000      54.40240000      53.39890000
C       52.38990000      54.40150000      46.60060000
C       52.38960000      45.59800000      53.39910000
C       46.60160000      52.39030000      54.40210000
C       53.39890000      52.38910000      45.59760000
C       53.39910000      47.61020000      54.40180000
C       45.59860000      53.39950000      52.38990000
C       54.40210000      53.39840000      47.60970000
C       54.40180000      46.60070000      52.38960000
C       47.60960000      46.60100000      45.59850000
C       46.60040000      45.59820000      47.61080000
C       45.59760000      47.61050000      46.60150000
C       47.61100000      53.39950000      54.40190000
C       52.38980000      46.60110000      54.40200000
C       52.38970000      53.39850000      45.59770000
C       46.60160000      54.40240000      52.38970000
C       53.39870000      45.59790000      52.38970000
C       53.39920000      54.40150000      47.60970000
C       45.59860000      52.39040000      53.39920000
C       54.40200000      47.61010000      53.39880000
C       54.40190000      52.38910000      46.60050000
C       46.76650000      51.22620000      55.21220000
C       55.21180000      46.76550000      51.22530000
C       51.22580000      55.21170000      46.76560000
C       46.76540000      48.77450000      44.78830000
C       53.23430000      48.77450000      55.21180000
C       53.23370000      51.22490000      44.78760000
C       55.21220000      53.23340000      48.77390000
C       44.78840000      53.23460000      51.22570000
C       44.78760000      46.76640000      48.77510000
C       51.22530000      44.78800000      53.23420000
C       48.77370000      44.78790000      46.76640000
C       48.77520000      55.21240000      53.23380000
C       46.76660000      55.21240000      51.22550000
C       55.21190000      51.22480000      46.76550000
C       51.22560000      46.76620000      55.21210000
C       46.76540000      44.78820000      48.77510000
C       53.23440000      55.21160000      48.77390000
C       53.23360000      44.78770000      51.22560000
C       55.21220000      48.77420000      53.23370000
C       44.78830000      51.22620000      53.23440000
C       44.78760000      48.77480000      46.76650000
C       51.22540000      53.23360000      44.78770000
C       48.77370000      46.76580000      44.78830000
C       48.77520000      53.23450000      55.21190000
C       43.79600000      48.77480000      47.76180000
C       47.76060000      43.79650000      48.77490000
C       48.77360000      47.76100000      43.79660000
C       43.79660000      51.22640000      52.23920000
C       56.20360000      51.22490000      47.76070000
C       56.20370000      48.77390000      52.23830000
C       47.76200000      56.20390000      51.22550000
C       52.23920000      56.20340000      48.77380000
C       52.23820000      43.79620000      51.22580000
C       48.77510000      52.23920000      56.20360000
C       51.22540000      52.23820000      43.79610000
C       51.22590000      47.76150000      56.20370000
C       43.79600000      47.76180000      48.77500000
C       47.76060000      48.77420000      43.79660000
C       48.77360000      43.79630000      47.76170000
C       43.79670000      52.23940000      51.22600000
C       56.20350000      47.76070000      51.22530000
C       56.20380000      52.23810000      48.77370000
C       47.76190000      51.22620000      56.20380000
C       52.23910000      48.77450000      56.20350000
C       52.23840000      51.22510000      43.79610000
C       48.77510000      56.20390000      52.23850000
C       51.22520000      43.79640000      52.23900000
C       51.22610000      56.20340000      47.76080000
C       52.21070000      51.21820000      56.11460000
C       56.11510000      52.20960000      51.21740000
C       51.21880000      56.11480000      52.20960000
C       52.20950000      48.78140000      43.88510000
C       47.79030000      48.78260000      56.11510000
C       47.78950000      51.21780000      43.88530000
C       56.11450000      47.78920000      48.78160000
C       43.88510000      47.79060000      51.21860000
C       43.88530000      52.21060000      48.78240000
C       51.21720000      43.88490000      47.79020000
C       48.78160000      43.88540000      52.21060000
C       48.78240000      56.11480000      47.78960000
C       52.21080000      56.11470000      51.21740000
C       56.11510000      51.21750000      52.20950000
C       51.21870000      52.21040000      56.11460000
C       52.20940000      43.88490000      48.78220000
C       47.79040000      56.11500000      48.78180000
C       47.78940000      43.88550000      51.21860000
C       56.11450000      48.78130000      47.78950000
C       43.88510000      51.21850000      47.79030000
C       43.88520000      48.78270000      52.21070000
C       51.21730000      47.78940000      43.88520000
C       48.78170000      52.20990000      43.88510000
C       48.78230000      47.79040000      56.11510000
C       48.00910000      56.87290000      49.98520000
C       49.98580000      48.00880000      56.87280000
C       56.87250000      49.98460000      48.00790000
C       48.00780000      43.12750000      50.01510000
C       51.99090000      43.12710000      49.98570000
C       51.99220000      56.87250000      50.01400000
C       49.98510000      51.99120000      43.12720000
C       50.01530000      51.99200000      56.87260000
C       50.01380000      48.00800000      43.12740000
C       56.87290000      50.01400000      51.99100000
C       43.12710000      50.01510000      48.00900000
C       43.12750000      49.98620000      51.99210000
C       48.00900000      49.98600000      56.87290000
C       49.98590000      56.87260000      48.00800000
C       56.87250000      48.00780000      49.98500000
C       48.00790000      50.01430000      43.12750000
C       51.99100000      49.98480000      43.12710000
C       51.99210000      50.01480000      56.87250000
C       49.98490000      43.12740000      51.99200000
C       50.01540000      56.87280000      51.99120000
C       50.01370000      43.12720000      48.00880000
C       56.87290000      51.99090000      50.01390000
C       43.12710000      48.00910000      50.01520000
C       43.12750000      51.99220000      49.98590000
C       46.87880000      48.71180000      54.97220000
C       54.97150000      46.87790000      48.71090000
C       48.71140000      54.97180000      46.87830000
C       46.87820000      51.28880000      45.02830000
C       53.12210000      51.28890000      54.97160000
C       53.12100000      48.71050000      45.02790000
C       54.97230000      53.12110000      51.28830000
C       45.02830000      53.12190000      48.71140000
C       45.02790000      46.87900000      51.28940000
C       48.71090000      45.02840000      53.12190000
C       51.28810000      45.02780000      46.87870000
C       51.28960000      54.97200000      53.12110000
C       46.87880000      54.97210000      48.71110000
C       54.97150000      48.71050000      46.87810000
C       48.71130000      46.87890000      54.97220000
C       46.87810000      45.02850000      51.28940000
C       53.12210000      54.97170000      51.28830000
C       53.12090000      45.02770000      48.71120000
C       54.97230000      51.28860000      53.12100000
C       45.02820000      48.71180000      53.12200000
C       45.02800000      51.28910000      46.87880000
C       48.71100000      53.12130000      45.02800000
C       51.28810000      46.87800000      45.02820000
C       51.28960000      53.12170000      54.97160000
C       46.53800000      48.54690000      52.44150000
C       52.44060000      46.53760000      48.54650000
C       48.54640000      52.44100000      46.53790000
C       46.53790000      51.45370000      47.55910000
C       53.46240000      51.45340000      52.44070000
C       53.46180000      48.54600000      47.55870000
C       52.44150000      53.46190000      51.45310000
C       47.55910000      53.46220000      48.54640000
C       47.55870000      46.53820000      51.45390000
C       48.54650000      47.55930000      53.46240000
C       51.45300000      47.55860000      46.53790000
C       51.45410000      52.44120000      53.46180000
C       46.53800000      52.44130000      48.54660000
C       52.44070000      48.54600000      46.53780000
C       48.54630000      46.53820000      52.44140000
C       46.53780000      47.55930000      51.45400000
C       53.46240000      52.44080000      51.45310000
C       53.46170000      47.55850000      48.54630000
C       52.44150000      51.45350000      53.46180000
C       47.55900000      48.54690000      53.46240000
C       47.55880000      51.45360000      46.53800000
C       48.54660000      53.46210000      47.55880000
C       51.45300000      46.53760000      47.55900000
C       51.45410000      53.46210000      52.44080000
C       47.30560000      53.71890000      45.27810000
C       45.27810000      47.30630000      53.71950000
C       53.71830000      45.27750000      47.30560000
C       47.30560000      46.28160000      54.72240000
C       52.69360000      46.28050000      45.27810000
C       52.69510000      53.71900000      54.72150000
C       45.27800000      52.69460000      46.28120000
C       54.72250000      52.69420000      53.71840000
C       54.72140000      47.30490000      46.28080000
C       53.71960000      54.72170000      52.69380000
C       46.28130000      54.72210000      47.30560000
C       46.28080000      45.27860000      52.69500000
C       47.30550000      45.27860000      53.71950000
C       45.27820000      53.71930000      47.30580000
C       53.71830000      47.30500000      45.27790000
C       47.30580000      54.72200000      46.28100000
C       52.69360000      45.27760000      46.28110000
C       52.69510000      54.72190000      53.71850000
C       45.27790000      46.28160000      52.69500000
C       54.72250000      53.71870000      52.69380000
C       54.72140000      46.28040000      47.30550000
C       53.71960000      52.69430000      54.72150000
C       46.28110000      47.30630000      54.72240000
C       46.28090000      52.69450000      45.27820000
C       50.00900000      46.14020000      45.16840000
C       45.16780000      50.01000000      46.14090000
C       46.14000000      45.16850000      50.01030000
C       50.01050000      53.85980000      54.83160000
C       49.99020000      53.85920000      45.16790000
C       49.99030000      46.14080000      54.83210000
C       45.16850000      49.99100000      53.85990000
C       54.83150000      49.98960000      46.14010000
C       54.83220000      50.00950000      53.85910000
C       46.14090000      54.83220000      49.99030000
C       53.86000000      54.83150000      50.00910000
C       53.85910000      45.16780000      49.99020000
C       50.00900000      45.16790000      46.14080000
C       45.16780000      46.14090000      50.01040000
C       46.14010000      50.00980000      45.16850000
C       50.01050000      54.83210000      53.85920000
C       49.99010000      45.16840000      53.85980000
C       49.99040000      54.83160000      46.14020000
C       45.16850000      53.86000000      49.99040000
C       54.83150000      46.14000000      49.99010000
C       54.83220000      53.85910000      50.00910000
C       46.14090000      49.99090000      54.83220000
C       53.85990000      50.00970000      54.83150000
C       53.85910000      49.98960000      45.16780000
C       57.88170000      50.00560000      51.02900000
C       51.03040000      57.88150000      50.00570000
C       50.00700000      51.03010000      57.88160000
C       57.88150000      49.99290000      48.96970000
C       42.11850000      49.99460000      51.03030000
C       42.11830000      50.00700000      48.97100000
C       51.02890000      42.11830000      49.99410000
C       48.96960000      42.11850000      50.00680000
C       48.97110000      57.88170000      49.99330000
C       50.00550000      48.96990000      42.11840000
C       49.99430000      48.97080000      57.88170000
C       49.99320000      51.02920000      42.11830000
C       57.88170000      51.02890000      50.00560000
C       51.03030000      50.00660000      57.88150000
C       50.00710000      57.88170000      51.02920000
C       57.88150000      48.96960000      49.99320000
C       42.11850000      51.03040000      49.99430000
C       42.11830000      48.97110000      50.00700000
C       51.02900000      49.99320000      42.11830000
C       48.96970000      50.00590000      42.11850000
C       48.97100000      49.99430000      57.88170000
C       50.00540000      42.11830000      48.97080000
C       49.99440000      57.88160000      48.96990000
C       49.99310000      42.11840000      51.03010000
