240
Lattice="100.0 0.0 0.0 0.0 100.0 0.0 0.0 0.0 100.0" Properties=species:S:1:pos:R:3 name=C-2509655-3548-155 pressure=-4.94263799588412 energy=-1792.47454097198 spacegroup=C1 times_found=1 pbc="T T T"
C       57.54890000      49.34650000      49.18110000
C       49.33970000      57.53410000      49.17730000
C       49.32470000      49.32690000      57.58640000
C       42.36790000      50.70740000      49.42330000
C       42.38140000      49.24700000      50.84360000
C       57.61020000      50.76490000      50.64700000
C       50.65060000      42.44590000      49.35370000
C       50.76100000      57.60590000      50.64190000
C       49.18400000      42.50000000      50.75220000
C       50.75530000      50.75390000      57.44360000
C       50.70670000      49.23050000      42.47190000
C       49.24460000      50.66280000      42.50570000
C       57.60020000      49.32330000      50.61550000
C       49.31960000      57.59270000      50.61160000
C       49.26580000      49.23080000      42.55580000
C       42.42470000      50.68920000      50.85980000
C       42.32510000      49.27000000      49.40140000
C       57.56500000      50.78920000      49.20750000
C       50.62650000      42.49480000      50.78660000
C       50.78250000      57.55390000      49.20250000
C       49.20740000      42.45960000      49.31390000
C       50.68590000      50.66840000      42.41490000
C       50.76440000      49.31680000      57.51040000
C       49.31870000      50.76700000      57.51460000
C       52.54890000      43.95730000      50.82250000
C       50.77040000      52.61580000      43.77600000
C       43.89560000      50.59890000      52.71920000
C       47.41850000      56.13690000      50.61850000
C       47.29770000      43.91510000      49.17490000
C       52.71550000      56.16690000      49.30510000
C       49.37730000      47.36430000      44.00120000
C       49.21140000      52.63320000      56.00300000
C       50.68190000      47.36390000      56.15370000
C       56.22090000      49.27770000      52.55090000
C       56.08700000      50.90100000      47.32830000
C       43.73030000      49.26640000      47.45930000
C       52.57970000      43.87290000      49.36600000
C       50.69190000      52.62640000      55.97100000
C       43.76670000      50.69710000      47.48710000
C       47.43960000      56.04670000      49.16130000
C       47.26480000      43.90600000      50.65110000
C       52.68260000      56.18420000      50.76730000
C       49.23310000      47.36560000      56.23710000
C       49.32130000      52.59740000      43.87410000
C       50.85560000      47.36780000      43.97080000
C       56.09110000      49.42330000      47.31350000
C       56.22280000      50.71720000      52.58610000
C       43.88270000      49.12240000      52.71000000
C       46.21850000      55.68280000      52.70830000
C       52.72820000      46.05580000      55.53050000
C       55.37240000      53.05620000      46.18230000
C       53.71130000      44.72350000      52.93450000
C       54.02250000      55.61900000      47.22190000
C       46.18820000      44.67450000      47.00550000
C       47.03540000      53.77470000      55.28730000
C       47.27350000      46.08600000      44.49910000
C       52.83900000      53.85240000      44.22310000
C       44.26290000      47.24830000      46.21520000
C       44.45820000      52.71750000      53.96060000
C       55.69760000      47.22660000      53.73560000
C       46.27840000      55.25170000      47.05820000
C       53.02280000      46.22930000      44.69980000
C       55.66410000      52.74260000      53.81320000
C       53.80960000      44.32230000      47.29010000
C       53.81680000      55.51820000      52.87800000
C       45.97100000      44.40840000      52.76150000
C       47.26990000      53.88680000      44.48710000
C       47.15890000      46.14910000      55.77510000
C       52.80040000      53.79940000      55.33640000
C       44.61420000      46.95810000      53.83510000
C       44.31910000      52.71620000      46.28860000
C       55.56540000      47.30120000      46.05920000
C       51.43210000      43.31450000      48.61670000
C       48.54800000      51.41500000      43.43400000
C       43.28840000      48.46470000      51.53370000
C       48.63540000      56.58640000      48.46050000
C       48.41840000      43.41670000      51.43920000
C       51.48910000      56.73040000      51.43140000
C       51.51010000      48.53620000      43.36230000
C       51.44650000      51.44530000      56.47830000
C       48.53290000      48.54060000      56.76700000
C       56.73050000      51.48990000      51.43390000
C       56.60730000      48.64150000      48.45800000
C       43.27120000      51.43650000      48.67150000
C       51.34380000      43.42620000      51.51380000
C       48.53690000      51.46610000      56.61140000
C       43.18350000      48.52190000      48.61020000
C       48.56190000      56.71200000      51.36020000
C       48.49640000      43.35190000      48.52800000
C       51.55850000      56.64200000      48.51760000
C       51.45940000      48.53630000      56.60270000
C       51.47950000      51.45330000      43.23410000
C       48.58550000      48.52320000      43.51870000
C       56.65400000      51.56330000      48.51860000
C       56.71620000      48.56310000      51.35840000
C       43.38050000      51.38150000      51.57460000
C       48.49430000      53.69700000      55.33500000
C       55.58520000      48.60230000      53.64070000
C       53.82230000      55.57770000      48.65350000
C       51.30260000      46.25840000      55.52620000
C       51.46410000      53.71470000      44.37370000
C       48.70840000      46.26520000      44.56600000
C       44.49640000      51.27680000      53.79720000
C       44.39290000      48.61960000      46.36130000
C       55.42450000      51.60140000      46.25850000
C       46.24150000      44.59280000      48.46150000
C       46.34240000      55.51880000      51.32990000
C       53.62410000      44.66230000      51.48500000
C       48.69660000      53.70270000      44.49160000
C       55.51250000      48.74160000      46.22520000
C       53.75490000      55.51970000      51.46500000
C       51.56700000      46.30780000      44.64340000
C       51.37290000      53.71410000      55.35520000
C       48.53370000      46.27680000      55.62870000
C       44.43270000      51.34320000      46.39550000
C       44.56170000      48.41450000      53.76490000
C       55.58390000      51.34700000      53.68730000
C       46.16290000      44.47230000      51.32390000
C       46.36800000      55.32950000      48.50800000
C       53.66710000      44.48640000      48.66590000
C       45.34690000      50.68920000      45.47840000
C       45.21000000      45.27870000      50.61830000
C       50.81560000      45.32570000      45.40210000
C       54.71510000      49.43960000      45.25840000
C       54.69870000      50.64590000      54.59400000
C       45.32820000      49.16640000      54.74270000
C       54.71180000      54.71150000      50.77410000
C       54.58430000      45.40550000      49.28300000
C       45.40160000      54.56730000      49.30500000
C       49.44180000      54.65390000      45.28930000
C       49.14620000      45.36380000      54.70250000
C       50.65110000      54.69940000      54.59490000
C       45.30240000      50.57310000      54.75170000
C       45.24450000      45.33460000      49.21200000
C       50.55090000      45.32890000      54.70870000
C       54.68160000      49.23560000      54.57260000
C       54.67780000      50.84570000      45.26970000
C       45.33550000      49.27410000      45.47120000
C       54.76110000      54.76010000      49.37490000
C       54.59730000      45.42790000      50.69830000
C       45.42080000      54.59880000      50.72090000
C       49.24110000      54.68570000      54.57780000
C       49.41150000      45.29930000      45.35720000
C       50.84700000      54.63300000      45.29180000
C       44.65100000      53.63820000      51.51850000
C       51.24680000      44.52630000      53.74510000
C       53.75690000      51.45960000      44.35130000
C       55.51590000      46.34610000      51.31560000
C       55.58100000      53.82260000      48.65360000
C       44.34170000      46.27010000      48.59500000
C       48.60770000      55.58920000      53.64620000
C       48.66260000      44.46220000      46.27080000
C       51.59900000      55.39740000      46.26860000
C       46.32630000      48.52300000      44.72760000
C       46.24860000      51.32040000      55.55520000
C       53.68900000      48.48950000      55.32540000
C       44.48680000      53.64040000      48.69640000
C       51.43020000      44.42560000      46.33810000
C       53.71460000      51.36830000      55.35540000
C       55.35780000      46.37140000      48.49480000
C       55.51790000      53.75400000      51.46630000
C       44.38200000      46.20050000      51.36790000
C       48.73870000      55.46390000      46.24040000
C       48.39020000      44.62010000      53.71430000
C       51.35050000      55.58480000      53.68670000
C       46.25570000      48.54800000      55.65190000
C       46.33090000      51.43840000      44.72010000
C       53.78990000      48.68770000      44.43560000
C       46.24480000      47.06190000      44.75170000
C       44.23480000      46.19260000      47.21270000
C       47.23840000      44.43480000      46.04510000
C       53.87080000      52.83670000      44.21720000
C       53.76010000      47.03020000      55.27010000
C       46.05740000      52.74860000      55.55840000
C       55.62350000      54.02360000      47.22170000
C       55.67030000      46.21640000      52.69360000
C       44.71680000      53.73420000      52.96850000
C       53.05350000      55.35850000      46.18630000
C       52.68580000      44.46670000      53.91770000
C       47.23350000      55.70720000      53.74590000
C       46.13270000      47.17050000      55.78970000
C       44.36290000      45.98930000      52.79470000
C       46.93730000      44.66300000      53.79870000
C       53.80250000      52.79570000      55.33970000
C       53.99520000      47.26090000      44.43360000
C       46.25050000      52.90240000      44.75730000
C       55.51220000      53.81390000      52.88000000
C       55.30490000      46.27930000      47.04510000
C       44.33480000      53.74490000      47.31580000
C       52.74550000      55.66530000      53.81190000
C       52.80730000      44.29570000      46.24370000
C       47.29920000      55.50700000      46.06960000
C       43.93470000      52.56630000      50.86810000
C       50.56370000      43.95090000      52.65470000
C       52.66870000      50.75850000      43.74210000
C       56.14340000      47.42210000      50.61180000
C       56.17190000      52.71730000      49.30600000
C       43.71040000      47.34020000      49.30060000
C       49.28010000      56.22100000      52.55250000
C       49.28230000      43.84340000      47.38270000
C       50.89590000      56.06400000      47.33350000
C       47.39700000      49.22900000      44.07430000
C       47.35690000      50.69360000      56.17040000
C       52.62830000      49.20830000      55.99600000
C       43.85590000      52.57560000      49.41050000
C       50.73310000      43.81480000      47.42280000
C       52.62550000      50.68860000      55.96870000
C       56.06480000      47.44480000      49.15450000
C       56.18470000      52.68310000      50.76900000
C       43.75920000      47.30820000      50.74920000
C       49.41760000      56.06170000      47.32060000
C       49.08550000      43.96700000      52.63660000
C       50.71920000      56.22350000      52.58540000
C       47.35370000      49.24410000      56.24970000
C       47.38760000      50.72000000      44.04810000
C       52.68260000      49.31080000      43.80980000
C       44.73220000      53.11300000      55.27640000
C       54.79420000      45.41440000      53.48770000
C       53.61680000      54.66200000      45.11110000
C       54.81620000      46.45320000      54.54940000
C       54.67210000      53.61930000      45.10820000
C       45.15740000      46.47870000      45.41090000
C       45.41600000      54.81580000      53.51150000
C       45.13420000      45.40110000      46.43510000
C       55.34980000      55.35030000      46.85760000
C       46.89350000      44.75540000      44.72310000
C       46.46020000      54.83290000      54.56750000
C       53.08070000      44.72970000      55.23680000
C       45.19100000      53.48610000      45.46540000
C       54.61890000      45.19260000      46.49490000
C       53.43210000      54.89720000      54.74420000
C       55.31830000      46.90700000      44.73760000
C       54.90230000      53.42550000      54.75130000
C       45.32390000      46.39320000      54.90060000
C       45.20320000      54.54300000      46.51220000
C       44.64540000      44.66070000      53.14010000
C       54.67790000      54.67880000      53.73750000
C       46.37600000      45.34780000      54.88400000
C       46.90360000      55.21450000      44.75680000
C       53.58690000      45.17230000      45.42880000
