240
Lattice="100.0 0.0 0.0 0.0 100.0 0.0 0.0 0.0 100.0" Properties=species:S:1:pos:R:3 name=C-2509655-3548-183 pressure=-0.0184883964424647 spacegroup=Td times_found=1 energy=-1720.07035314963 pbc="T T T"
C       54.13140000      50.40360000      44.89620000
C       44.89560000      54.13070000      50.40270000
C       50.40100000      44.89390000      54.12880000
C       45.86880000      50.40440000      55.10390000
C       54.12730000      49.59410000      55.10690000
C       45.87250000      49.59790000      44.89300000
C       55.10670000      54.12800000      49.59850000
C       44.89360000      45.87220000      49.59350000
C       55.10410000      45.86920000      50.40540000
C       49.59610000      44.89530000      45.86980000
C       50.40700000      55.10590000      45.87150000
C       49.59590000      55.10490000      54.12990000
C       44.89320000      50.40490000      54.12750000
C       50.40710000      54.13000000      44.89540000
C       54.12780000      44.89340000      50.40480000
C       55.10710000      50.40320000      45.87260000
C       55.10370000      49.59400000      54.13120000
C       44.89610000      49.59800000      45.86870000
C       49.59520000      54.12870000      55.10580000
C       49.59680000      45.87150000      44.89390000
C       50.40090000      45.86980000      55.10500000
C       45.86940000      44.89580000      49.59370000
C       45.87190000      55.10650000      50.40320000
C       54.13090000      55.10430000      49.59830000
C       56.18940000      48.32690000      49.37140000
C       49.37170000      56.19000000      48.32920000
C       48.32610000      49.36890000      56.18890000
C       43.80970000      48.33020000      50.62810000
C       56.18980000      51.66960000      50.63330000
C       43.81110000      51.67330000      49.36720000
C       50.63180000      56.18920000      51.67250000
C       49.36690000      43.81030000      51.67030000
C       50.62960000      43.81050000      48.32790000
C       51.67360000      49.36970000      43.81090000
C       48.33110000      50.63200000      43.80990000
C       51.66930000      50.62930000      56.19030000
C       49.36650000      48.32790000      56.18910000
C       48.33060000      56.19020000      49.36960000
C       56.19010000      49.36780000      48.33080000
C       50.63260000      48.32930000      43.81040000
C       50.62880000      51.67040000      56.19010000
C       49.37210000      51.67250000      43.81040000
C       51.67290000      56.18900000      50.63220000
C       51.66990000      43.81000000      49.36910000
C       48.32660000      43.81080000      50.62920000
C       43.80960000      49.37080000      51.66900000
C       43.81120000      50.63270000      48.32630000
C       56.18910000      50.62870000      51.67390000
C       51.19780000      45.15880000      52.95830000
C       52.96070000      51.20010000      45.16090000
C       45.16000000      52.95970000      51.19890000
C       48.79950000      45.16030000      47.04030000
C       51.20280000      54.84050000      47.04260000
C       48.80000000      54.84030000      52.95880000
C       47.03990000      51.20040000      54.83950000
C       52.95640000      48.79820000      54.84140000
C       47.04290000      48.80130000      45.15830000
C       54.84170000      52.95740000      48.80200000
C       45.15920000      47.04300000      48.79750000
C       54.83910000      47.03990000      51.20170000
C       52.95670000      45.15860000      51.20070000
C       45.15880000      51.20120000      52.95690000
C       51.20290000      52.95890000      45.16050000
C       47.04050000      45.16060000      48.79790000
C       47.04240000      54.84110000      51.19980000
C       52.96040000      54.83980000      48.80150000
C       54.84190000      51.19930000      47.04350000
C       54.83900000      48.79790000      52.96020000
C       45.16040000      48.80150000      47.03940000
C       48.79870000      52.95820000      54.84040000
C       48.80070000      47.04250000      45.15870000
C       51.19760000      47.04040000      54.84050000
C       47.63740000      51.33930000      53.35080000
C       53.35030000      47.63720000      51.34000000
C       51.34100000      53.35140000      47.63930000
C       52.36340000      51.33890000      46.64960000
C       47.63920000      48.66200000      46.64750000
C       52.36010000      48.65970000      53.35220000
C       46.64840000      47.63940000      48.65930000
C       53.35260000      52.36100000      48.66250000
C       46.64870000      52.36250000      51.33820000
C       48.66090000      53.35150000      52.36170000
C       51.33730000      46.64780000      52.36170000
C       48.66080000      46.64930000      47.63730000
C       53.35270000      51.33850000      47.63970000
C       51.33720000      47.63740000      53.35160000
C       47.63870000      53.35190000      51.33870000
C       46.64800000      51.33970000      52.36060000
C       46.64910000      48.66220000      47.63680000
C       53.35020000      48.65960000      52.36280000
C       48.66150000      47.63910000      46.64770000
C       48.66030000      52.36160000      53.35130000
C       51.34110000      52.36180000      46.64940000
C       52.36320000      53.35100000      48.66230000
C       52.36030000      46.64770000      51.33950000
C       47.63790000      46.64940000      48.65950000
C       44.32540000      49.24640000      48.26180000
C       48.26270000      44.32550000      49.24310000
C       49.24620000      48.26510000      44.32440000
C       55.67420000      49.24270000      51.73800000
C       44.32450000      50.75680000      51.73390000
C       55.67590000      50.75410000      48.26630000
C       51.73410000      44.32430000      50.75530000
C       48.26530000      55.67540000      50.75560000
C       51.73780000      55.67470000      49.24600000
C       50.75280000      48.26300000      55.67510000
C       49.24290000      51.73540000      55.67500000
C       50.75810000      51.73660000      44.32550000
C       48.26600000      49.24590000      44.32420000
C       49.24360000      44.32540000      48.26290000
C       44.32470000      48.26570000      49.24210000
C       51.73360000      49.24320000      55.67560000
C       51.73830000      50.75580000      44.32570000
C       48.26210000      50.75510000      55.67450000
C       50.75320000      44.32450000      51.73540000
C       50.75770000      55.67510000      48.26510000
C       49.24550000      55.67500000      51.73650000
C       55.67430000      48.26230000      50.75740000
C       55.67580000      51.73450000      49.24700000
C       44.32510000      51.73750000      50.75350000
C       56.24910000      52.54570000      53.49900000
C       53.49710000      56.24840000      52.55010000
C       52.54650000      53.49470000      56.25120000
C       43.75230000      52.55020000      46.50170000
C       56.25030000      47.45080000      46.50570000
C       43.74820000      47.45330000      53.49360000
C       46.50640000      56.25110000      47.45170000
C       53.49550000      43.74970000      47.45250000
C       46.50100000      43.75090000      52.54570000
C       47.45540000      53.49790000      43.74980000
C       52.54930000      46.50390000      43.75080000
C       47.44870000      46.50350000      56.24820000
C       53.49460000      52.54600000      56.25140000
C       52.54830000      56.24850000      53.49810000
C       56.24970000      53.49420000      52.55080000
C       46.50680000      52.54980000      43.74930000
C       46.50060000      47.45220000      56.24800000
C       53.49790000      47.45200000      43.75120000
C       47.45520000      56.25090000      46.50360000
C       47.44900000      43.75050000      53.49440000
C       52.54750000      43.75010000      46.50380000
C       43.75220000      53.49840000      47.45020000
C       43.74830000      46.50510000      52.54500000
C       56.24970000      46.50230000      47.45400000
C       53.58530000      47.38750000      54.61870000
C       54.61970000      53.58690000      47.39150000
C       47.38910000      54.61790000      53.58750000
C       46.41320000      47.39090000      45.38060000
C       53.59030000      52.61050000      45.38400000
C       46.41120000      52.61120000      54.61670000
C       45.38230000      53.58870000      52.60960000
C       54.61570000      46.41050000      52.61200000
C       45.38230000      46.41390000      47.38690000
C       52.61350000      54.61750000      46.41380000
C       47.38920000      45.38350000      46.41050000
C       52.60820000      45.38110000      53.58810000
C       54.61560000      47.38740000      53.58920000
C       47.38840000      53.58790000      54.61720000
C       53.59010000      54.61710000      47.39120000
C       45.38290000      47.39100000      46.41010000
C       45.38170000      52.61160000      53.58640000
C       54.61980000      52.61000000      46.41430000
C       52.61360000      53.58770000      45.38380000
C       52.60810000      46.41080000      54.61820000
C       47.38990000      46.41360000      45.38080000
C       46.41250000      54.61830000      52.61010000
C       46.41190000      45.38370000      47.38720000
C       53.58550000      45.38090000      52.61150000
C       56.44240000      48.82810000      47.06490000
C       47.06490000      56.44260000      48.82930000
C       48.82620000      47.06200000      56.44080000
C       43.55690000      48.83090000      52.93480000
C       56.44090000      51.16830000      52.94000000
C       43.55980000      51.17280000      47.06030000
C       52.93880000      56.44070000      51.17260000
C       47.06030000      43.55900000      51.16850000
C       52.93600000      43.55770000      48.82970000
C       51.17220000      47.06320000      43.55840000
C       48.83270000      52.93870000      43.55830000
C       51.16890000      52.93620000      56.44250000
C       47.05980000      48.82940000      56.44040000
C       48.83240000      56.44240000      47.06310000
C       56.44130000      47.06100000      48.83150000
C       52.93950000      48.82960000      43.55930000
C       52.93530000      51.16880000      56.44290000
C       47.06540000      51.17230000      43.55740000
C       51.17120000      56.44090000      52.93880000
C       51.16980000      43.55840000      47.06210000
C       48.82650000      43.55830000      52.93600000
C       43.55710000      47.06420000      51.16770000
C       43.55960000      52.93940000      48.82740000
C       56.44200000      52.93540000      51.17340000
C       45.24580000      48.02870000      55.71260000
C       55.71410000      45.24720000      48.02970000
C       48.03160000      55.71590000      45.24860000
C       54.75310000      48.02770000      44.28680000
C       45.25120000      51.97400000      44.28380000
C       54.74990000      51.96960000      55.71680000
C       44.28320000      45.24980000      51.96890000
C       55.71530000      54.74960000      51.97460000
C       44.28740000      54.75340000      48.02670000
C       51.97160000      55.71350000      54.75300000
C       48.02480000      44.28520000      54.74990000
C       51.97200000      44.28540000      45.24840000
C       55.71590000      48.02730000      45.25040000
C       48.02470000      45.24830000      55.71330000
C       45.25090000      55.71630000      48.02720000
C       44.28300000      48.02910000      54.74900000
C       44.28770000      51.97410000      45.24660000
C       55.71340000      51.96950000      54.75390000
C       51.97260000      45.24880000      44.28540000
C       51.97100000      54.75010000      55.71610000
C       48.03170000      54.75290000      44.28520000
C       54.75230000      55.71310000      51.97440000
C       54.75060000      44.28430000      48.02920000
C       45.24620000      44.28640000      51.96920000
C       45.84140000      49.36700000      56.00300000
C       56.00370000      45.84220000      49.36830000
C       49.36990000      56.00540000      45.84450000
C       54.15830000      49.36630000      43.99680000
C       45.84630000      50.63540000      43.99390000
C       54.15410000      50.63130000      56.00630000
C       43.99390000      45.84540000      50.63050000
C       56.00560000      54.15440000      50.63620000
C       43.99680000      54.15800000      49.36500000
C       50.63350000      56.00390000      54.15730000
C       49.36340000      43.99490000      54.15510000
C       50.63320000      43.99580000      45.84320000
C       56.00600000      49.36560000      45.84600000
C       49.36320000      45.84310000      56.00380000
C       45.84580000      56.00590000      49.36590000
C       43.99360000      49.36780000      54.15380000
C       43.99710000      50.63560000      45.84160000
C       56.00320000      50.63110000      54.15850000
C       50.63450000      45.84450000      43.99500000
C       50.63220000      54.15510000      56.00550000
C       49.37010000      54.15720000      43.99570000
C       54.15760000      56.00340000      50.63580000
C       54.15470000      43.99430000      49.36740000
C       45.84190000      43.99640000      50.63090000
