240
Lattice="100.0 0.0 0.0 0.0 100.0 0.0 0.0 0.0 100.0" Properties=species:S:1:pos:R:3 name=C-2509655-3548-340 pressure=69.3473324524093 energy=-1729.78208032188 spacegroup=C1 times_found=1 pbc="T T T"
C       54.83550000      45.63080000      48.73590000
C       45.49060000      48.69720000      54.64070000
C       48.74540000      54.65940000      45.77210000
C       45.34150000      54.27050000      48.56490000
C       54.81040000      54.28480000      51.20820000
C       45.16650000      45.69040000      51.24810000
C       54.46070000      51.36330000      54.64460000
C       45.37410000      51.10210000      45.19550000
C       54.52240000      48.49380000      45.29950000
C       51.25980000      45.31130000      45.40790000
C       48.73100000      45.40360000      54.58820000
C       51.24080000      54.66300000      54.56470000
C       54.80260000      45.66590000      51.26420000
C       45.50550000      48.50930000      45.27130000
C       48.74720000      54.65200000      54.55150000
C       45.19210000      54.31560000      51.16740000
C       54.66960000      54.24680000      48.60580000
C       45.17810000      45.62480000      48.71780000
C       54.64530000      51.08940000      45.25470000
C       45.50140000      51.38370000      54.61330000
C       54.46820000      48.67510000      54.69780000
C       51.22750000      45.38460000      54.58260000
C       48.77520000      45.30130000      45.41680000
C       51.28670000      54.63740000      45.78280000
C       58.30610000      50.74730000      51.31270000
C       50.52280000      51.37460000      57.78860000
C       51.25900000      57.44160000      50.49840000
C       41.72670000      49.34920000      51.24500000
C       57.95830000      49.50740000      48.66870000
C       41.78290000      50.67890000      48.56700000
C       49.28850000      48.71160000      57.93670000
C       50.71510000      48.81890000      41.98700000
C       49.50920000      51.44700000      42.48880000
C       48.65640000      42.47630000      50.58060000
C       51.33670000      42.46830000      49.47700000
C       48.63750000      58.12530000      49.44090000
C       58.28920000      50.70060000      48.59340000
C       50.72170000      51.47590000      42.25920000
C       51.39140000      58.11730000      49.44620000
C       41.98360000      49.45860000      48.57360000
C       57.88800000      49.57680000      51.26630000
C       42.01800000      50.55410000      51.21760000
C       49.50780000      48.83860000      42.23760000
C       50.50840000      48.71300000      57.80110000
C       49.30200000      51.38690000      57.90670000
C       48.68540000      42.29260000      49.35830000
C       51.30370000      42.29830000      50.70140000
C       48.76020000      57.44660000      50.49250000
C       55.15680000      52.34720000      45.00940000
C       52.45940000      45.09290000      55.11700000
C       44.92110000      54.69480000      52.50020000
C       45.13240000      47.13310000      45.20840000
C       54.85640000      47.28950000      54.76120000
C       45.12400000      52.76560000      54.65140000
C       47.50380000      54.94980000      55.05860000
C       52.60280000      54.91390000      45.38050000
C       47.55330000      44.98830000      44.87780000
C       55.05110000      45.27000000      52.58510000
C       44.94400000      45.19800000      47.40040000
C       54.71950000      54.65890000      47.25410000
C       54.84740000      52.74330000      54.67980000
C       52.48340000      44.99290000      44.87670000
C       45.30490000      54.67980000      47.21100000
C       45.10600000      47.31610000      54.71130000
C       54.89740000      47.12200000      45.23630000
C       44.87710000      52.36920000      44.95310000
C       47.43220000      54.94150000      45.35970000
C       52.48450000      54.95360000      55.07870000
C       47.49320000      45.12140000      55.11390000
C       55.08300000      45.21760000      47.41390000
C       44.91010000      45.29100000      52.56730000
C       55.07770000      54.68170000      52.53560000
C       49.30840000      55.42230000      46.83800000
C       55.59680000      46.69950000      49.29530000
C       46.51140000      49.31980000      55.44120000
C       50.72810000      44.67510000      46.57100000
C       49.26590000      44.73940000      53.44250000
C       50.70820000      55.26670000      53.38940000
C       44.50730000      53.23920000      49.12320000
C       55.55170000      53.23600000      50.60340000
C       44.38550000      46.74130000      50.67160000
C       53.43550000      50.75050000      55.45640000
C       46.53690000      50.58600000      44.56320000
C       53.47780000      49.13610000      44.53290000
C       49.28720000      55.26230000      53.38230000
C       55.56660000      46.73610000      50.70570000
C       46.56990000      49.15210000      44.53030000
C       50.69040000      44.72600000      53.43650000
C       49.30740000      44.66610000      46.57810000
C       50.72230000      55.41120000      46.84480000
C       44.46800000      53.26310000      50.55420000
C       55.50700000      53.22060000      49.16990000
C       44.38860000      46.68890000      49.25740000
C       53.50650000      50.57390000      44.58210000
C       46.51100000      50.76790000      55.43410000
C       53.43470000      49.30360000      55.47550000
C       57.30740000      51.59990000      49.22320000
C       51.55010000      49.32200000      57.07040000
C       49.28160000      56.62480000      51.45150000
C       42.76470000      48.47680000      49.21550000
C       57.09780000      48.59310000      50.69270000
C       42.82940000      51.50530000      50.58930000
C       48.28340000      50.75540000      57.14070000
C       51.68940000      50.76470000      43.03630000
C       48.49200000      49.34880000      43.04810000
C       50.69020000      43.20620000      51.61690000
C       49.30240000      43.18180000      48.42720000
C       50.71630000      57.10350000      48.58000000
C       57.30190000      51.59100000      50.63370000
C       51.68730000      49.34600000      42.90880000
C       49.31070000      57.10950000      48.57580000
C       42.71200000      48.46850000      50.62920000
C       57.13980000      48.54970000      49.26830000
C       42.76540000      51.55680000      49.17440000
C       48.49430000      50.77930000      43.17670000
C       51.55870000      50.74670000      57.06460000
C       48.28120000      49.33740000      57.14790000
C       50.74290000      43.22750000      48.46020000
C       49.24950000      43.25590000      51.58260000
C       50.72960000      56.62280000      51.45550000
C       53.88590000      55.25980000      53.04770000
C       55.74980000      52.98920000      53.60300000
C       52.92100000      53.80970000      55.84460000
C       46.10820000      44.74370000      53.08670000
C       53.87790000      44.66600000      46.91450000
C       46.37140000      55.60160000      46.99510000
C       44.18270000      47.05890000      53.65680000
C       55.81630000      46.84970000      46.29810000
C       44.11560000      52.77750000      46.10900000
C       47.05680000      46.27520000      55.86280000
C       52.92780000      46.12030000      44.09120000
C       46.93140000      53.77120000      44.73850000
C       53.65880000      55.58430000      47.03000000
C       55.90970000      52.75240000      46.17080000
C       53.10480000      53.74490000      44.75740000
C       46.15490000      44.65280000      46.90890000
C       53.85030000      44.72100000      53.09520000
C       46.11440000      55.26220000      53.02030000
C       44.19610000      46.86860000      46.25510000
C       55.77570000      47.03810000      53.70230000
C       44.23880000      53.02260000      53.56160000
C       47.11090000      46.11990000      44.09450000
C       52.89740000      46.23930000      55.87760000
C       47.05900000      53.81330000      55.82910000
C       45.79070000      53.85920000      55.18840000
C       53.33790000      56.01020000      45.76180000
C       56.09150000      45.74610000      53.34060000
C       54.17680000      46.18230000      55.26240000
C       45.83160000      46.04360000      44.70810000
C       54.48170000      53.58100000      44.93200000
C       46.31450000      44.85410000      45.53150000
C       53.70070000      44.96360000      54.46580000
C       46.26630000      55.06600000      54.39310000
C       43.83390000      54.30700000      53.23890000
C       55.26980000      54.02030000      46.15390000
C       43.87530000      45.58260000      46.62980000
C       45.55360000      53.60470000      44.89100000
C       53.72640000      55.06330000      54.42100000
C       56.17570000      45.56960000      46.65760000
C       54.20180000      46.04260000      44.71720000
C       45.78180000      46.21890000      55.23600000
C       54.19260000      53.84830000      55.21340000
C       46.25400000      44.99040000      54.45730000
C       53.71920000      44.85790000      45.53780000
C       46.69870000      56.04050000      45.73200000
C       44.76040000      54.04380000      46.10520000
C       56.15050000      54.27410000      53.28080000
C       43.86330000      45.76150000      53.31510000
C       50.69580000      46.54310000      55.31830000
C       46.38120000      54.99530000      50.69120000
C       55.35640000      50.53130000      46.39230000
C       49.27960000      53.51380000      55.32060000
C       50.74950000      53.47610000      45.05310000
C       49.30800000      46.44320000      44.65510000
C       53.61330000      44.98240000      50.73230000
C       46.37770000      44.97610000      49.26480000
C       53.58160000      55.00150000      49.29030000
C       44.69630000      49.13300000      46.35320000
C       55.21110000      49.29830000      53.58230000
C       44.76820000      50.74530000      53.50210000
C       50.72710000      46.44740000      44.64500000
C       46.42990000      55.02480000      49.25830000
C       55.20570000      50.71990000      53.54420000
C       49.27540000      53.48940000      45.05950000
C       50.70590000      53.52030000      55.32140000
C       49.27080000      46.55650000      55.32310000
C       53.63090000      44.97090000      49.26480000
C       46.36580000      45.00810000      50.73060000
C       53.62560000      54.97050000      50.72150000
C       44.74730000      49.32140000      53.52670000
C       55.31400000      49.11540000      46.39190000
C       44.65100000      50.55080000      46.33340000
C       43.71500000      47.71990000      48.48210000
C       47.69280000      48.50320000      43.85260000
C       48.51420000      44.08980000      47.67220000
C       56.27080000      52.17260000      48.47590000
C       43.82080000      52.19790000      51.31740000
C       56.17700000      47.83350000      51.44810000
C       52.41550000      51.42530000      44.04380000
C       47.58760000      51.47510000      56.17020000
C       52.33400000      48.59510000      56.16440000
C       51.46060000      56.10540000      47.88750000
C       48.48780000      55.77730000      52.27170000
C       51.48330000      44.12670000      52.35340000
C       43.69710000      47.81960000      51.39910000
C       47.59160000      48.61450000      56.17610000
C       48.47090000      44.17250000      52.35380000
C       56.25450000      52.18770000      51.36070000
C       43.75720000      52.18270000      48.42040000
C       56.25540000      47.73760000      48.52550000
C       52.34330000      51.46450000      56.15250000
C       47.65310000      51.43930000      44.09730000
C       52.38360000      48.49490000      43.78630000
C       51.51630000      55.77610000      52.28310000
C       48.56470000      56.11950000      47.87460000
C       51.52110000      44.12420000      47.66760000
C       51.94180000      52.84130000      55.89850000
C       52.90550000      55.44540000      51.99520000
C       55.83720000      51.85610000      52.74790000
C       48.03450000      47.24430000      55.90780000
C       51.95760000      47.11030000      44.01700000
C       47.97600000      52.79790000      44.54170000
C       47.08760000      44.54180000      52.03160000
C       52.90470000      44.48930000      47.97790000
C       47.19590000      55.69700000      48.15520000
C       44.09920000      48.17040000      52.77780000
C       55.92120000      47.98230000      47.14650000
C       44.04070000      51.76220000      47.04470000
C       52.05400000      52.77880000      44.52220000
C       52.82490000      55.67920000      48.18200000
C       55.97470000      51.73750000      47.10800000
C       48.07700000      47.11500000      44.05570000
C       51.92960000      47.22010000      55.90320000
C       48.03500000      52.84300000      55.90490000
C       47.12120000      44.47400000      47.98320000
C       52.87750000      44.50580000      52.03000000
C       47.09930000      55.45450000      51.97320000
C       44.08180000      47.99540000      47.10740000
C       55.83010000      48.15060000      52.82270000
C       44.18280000      51.89280000      52.69990000
