240
Lattice="100.0 0.0 0.0 0.0 100.0 0.0 0.0 0.0 100.0" Properties=species:S:1:pos:R:3 name=C-2509655-3548-264 pressure=-11.6281631526707 energy=-1774.82723458325 spacegroup=Td times_found=1 pbc="T T T"
C       48.82120000      47.80830000      43.73590000
C       43.73580000      48.82150000      47.80820000
C       47.80810000      43.73590000      48.82130000
C       48.82160000      52.19170000      56.26420000
C       51.17850000      52.19200000      43.73590000
C       51.17870000      47.80790000      56.26400000
C       43.73600000      51.17860000      52.19200000
C       56.26410000      51.17860000      47.80800000
C       56.26410000      48.82130000      52.19170000
C       47.80820000      56.26410000      51.17880000
C       52.19190000      56.26410000      48.82150000
C       52.19180000      43.73580000      51.17840000
C       48.82130000      43.73600000      47.80800000
C       43.73590000      47.80820000      48.82150000
C       47.80800000      48.82160000      43.73590000
C       48.82150000      56.26400000      52.19210000
C       51.17860000      43.73580000      52.19170000
C       51.17860000      56.26420000      47.80830000
C       43.73590000      52.19190000      51.17880000
C       56.26410000      47.80810000      51.17840000
C       56.26410000      52.19190000      48.82130000
C       47.80830000      51.17840000      56.26420000
C       52.19200000      48.82120000      56.26400000
C       52.19170000      51.17880000      43.73590000
C       54.82060000      53.84140000      50.09730000
C       50.09740000      54.82050000      53.84160000
C       53.84150000      50.09710000      54.82050000
C       54.82060000      46.15850000      49.90250000
C       45.17940000      46.15860000      50.09730000
C       45.17940000      53.84150000      49.90290000
C       50.09720000      45.17950000      46.15840000
C       49.90270000      45.17930000      53.84130000
C       49.90260000      54.82070000      46.15870000
C       53.84130000      49.90280000      45.17930000
C       46.15870000      49.90260000      54.82070000
C       46.15850000      50.09750000      45.17950000
C       54.82070000      50.09720000      53.84130000
C       50.09740000      53.84130000      54.82070000
C       53.84150000      54.82060000      50.09740000
C       54.82050000      49.90280000      46.15850000
C       45.17930000      50.09750000      46.15870000
C       45.17950000      49.90260000      53.84150000
C       50.09720000      46.15870000      45.17930000
C       49.90260000      53.84160000      45.17950000
C       49.90280000      46.15840000      54.82050000
C       53.84140000      45.17940000      49.90250000
C       46.15860000      54.82060000      49.90290000
C       46.15850000      45.17940000      50.09730000
C       45.46710000      47.49020000      53.52100000
C       53.52080000      45.46710000      47.49010000
C       47.49020000      53.52110000      45.46720000
C       45.46700000      52.50980000      46.47920000
C       54.53300000      52.50960000      53.52090000
C       54.53280000      47.49040000      46.47890000
C       53.52100000      54.53280000      52.50980000
C       46.47900000      54.53300000      47.49050000
C       46.47910000      45.46700000      52.50970000
C       47.49040000      46.47890000      54.53290000
C       52.50960000      46.47920000      45.46690000
C       52.50980000      53.52080000      54.53300000
C       45.46700000      53.52100000      47.49050000
C       53.52080000      47.49040000      45.46690000
C       47.49030000      45.46700000      53.52090000
C       45.46710000      46.47900000      52.50970000
C       54.53300000      53.52080000      52.50970000
C       54.53280000      46.47910000      47.49010000
C       53.52110000      52.50950000      54.53290000
C       46.47910000      47.49020000      54.53290000
C       46.47900000      52.50990000      45.46720000
C       47.49030000      54.53300000      46.47920000
C       52.50960000      45.46720000      46.47890000
C       52.50980000      54.53280000      53.52100000
C       43.00840000      47.99150000      50.01850000
C       50.01830000      43.00850000      47.99120000
C       47.99130000      50.01870000      43.00850000
C       43.00840000      52.00860000      49.98180000
C       56.99160000      52.00850000      50.01840000
C       56.99160000      47.99140000      49.98130000
C       50.01850000      56.99150000      52.00880000
C       49.98160000      56.99160000      47.99160000
C       49.98150000      43.00840000      52.00840000
C       47.99160000      49.98140000      56.99160000
C       52.00840000      49.98170000      43.00840000
C       52.00870000      50.01820000      56.99150000
C       43.00840000      50.01860000      47.99160000
C       50.01830000      47.99160000      43.00840000
C       47.99140000      43.00840000      50.01830000
C       43.00850000      49.98150000      52.00870000
C       56.99160000      50.01830000      52.00840000
C       56.99150000      49.98160000      47.99130000
C       50.01860000      52.00840000      56.99160000
C       49.98170000      47.99120000      56.99150000
C       49.98140000      52.00880000      43.00850000
C       47.99150000      56.99160000      49.98180000
C       52.00850000      43.00840000      49.98130000
C       52.00860000      56.99160000      50.01860000
C       48.97020000      42.00380000      50.00000000
C       50.00000000      48.97050000      42.00380000
C       42.00380000      50.00030000      48.97040000
C       48.97030000      57.99620000      50.00010000
C       51.02980000      57.99620000      50.00040000
C       51.02970000      42.00380000      49.99950000
C       50.00040000      51.02950000      57.99620000
C       49.99960000      51.03000000      42.00380000
C       50.00000000      48.97000000      57.99620000
C       42.00380000      49.99980000      51.02990000
C       57.99620000      49.99980000      48.97010000
C       57.99620000      50.00010000      51.02960000
C       48.97010000      50.00040000      42.00380000
C       50.00010000      42.00380000      48.97000000
C       42.00380000      48.97030000      50.00040000
C       48.97040000      49.99960000      57.99620000
C       51.02990000      50.00000000      57.99620000
C       51.02960000      50.00000000      42.00380000
C       50.00030000      57.99620000      51.03000000
C       49.99980000      42.00380000      51.02950000
C       49.99980000      57.99620000      48.97050000
C       42.00380000      51.02980000      50.00000000
C       57.99620000      48.97020000      49.99960000
C       57.99620000      51.02970000      50.00010000
C       43.66620000      51.28830000      47.69010000
C       47.68990000      43.66620000      51.28810000
C       51.28810000      47.69010000      43.66610000
C       43.66630000      48.71180000      52.31020000
C       56.33370000      48.71180000      47.68980000
C       56.33380000      51.28810000      52.31000000
C       47.69000000      56.33380000      48.71200000
C       52.31010000      56.33370000      51.28840000
C       52.31000000      43.66620000      48.71150000
C       51.28840000      52.30990000      56.33380000
C       48.71170000      52.31030000      43.66630000
C       48.71190000      47.68980000      56.33370000
C       43.66620000      47.69000000      51.28830000
C       47.68980000      51.28840000      43.66630000
C       51.28810000      43.66630000      47.68970000
C       43.66620000      52.31010000      48.71200000
C       56.33370000      47.68990000      48.71160000
C       56.33380000      52.31000000      51.28810000
C       47.69010000      48.71160000      56.33380000
C       52.31020000      51.28800000      56.33380000
C       52.30990000      48.71190000      43.66610000
C       51.28830000      56.33370000      52.31020000
C       48.71180000      43.66620000      52.30990000
C       48.71180000      56.33390000      47.69020000
C       48.89390000      54.99410000      52.96410000
C       52.96400000      48.89370000      54.99400000
C       54.99410000      52.96390000      48.89380000
C       48.89370000      45.00600000      47.03590000
C       51.10620000      45.00580000      52.96380000
C       51.10610000      54.99420000      47.03620000
C       52.96380000      51.10630000      45.00580000
C       47.03620000      51.10600000      54.99420000
C       47.03590000      48.89400000      45.00590000
C       54.99410000      47.03600000      51.10600000
C       45.00580000      47.03610000      48.89390000
C       45.00590000      52.96390000      51.10640000
C       48.89400000      52.96380000      54.99430000
C       52.96400000      54.99420000      48.89390000
C       54.99420000      48.89370000      52.96380000
C       48.89370000      47.03620000      45.00580000
C       51.10610000      52.96410000      45.00590000
C       51.10630000      47.03590000      54.99400000
C       52.96390000      45.00580000      51.10600000
C       47.03610000      54.99410000      51.10640000
C       47.03600000      45.00590000      48.89380000
C       54.99410000      51.10620000      47.03600000
C       45.00580000      48.89400000      47.03610000
C       45.00590000      51.10610000      52.96410000
C       48.67240000      46.69190000      55.32150000
C       55.32150000      48.67230000      46.69190000
C       46.69200000      55.32170000      48.67250000
C       48.67220000      53.30810000      44.67850000
C       51.32790000      53.30780000      55.32170000
C       51.32760000      46.69220000      44.67830000
C       55.32170000      51.32760000      53.30790000
C       44.67830000      51.32790000      46.69220000
C       44.67850000      48.67220000      53.30800000
C       46.69200000      44.67840000      51.32760000
C       53.30790000      44.67840000      48.67200000
C       53.30800000      55.32150000      51.32780000
C       48.67220000      55.32170000      46.69220000
C       55.32150000      46.69200000      48.67210000
C       46.69210000      48.67210000      55.32160000
C       48.67230000      44.67830000      53.30780000
C       51.32780000      55.32150000      53.30810000
C       51.32760000      44.67850000      46.69180000
C       55.32170000      53.30790000      51.32770000
C       44.67840000      46.69200000      51.32770000
C       44.67840000      53.30800000      48.67250000
C       46.69190000      51.32790000      44.67850000
C       53.30780000      48.67240000      44.67830000
C       53.30810000      51.32750000      55.32160000
C       51.71210000      50.83090000      45.94800000
C       45.94810000      51.71220000      50.83100000
C       50.83080000      45.94800000      51.71210000
C       51.71230000      49.16900000      54.05190000
C       48.28770000      49.16930000      45.94800000
C       48.28790000      50.83070000      54.05200000
C       45.94800000      48.28790000      49.16920000
C       54.05200000      48.28770000      50.83070000
C       54.05200000      51.71220000      49.16910000
C       50.83080000      54.05200000      48.28790000
C       49.16920000      54.05190000      51.71230000
C       49.16910000      45.94810000      48.28770000
C       51.71220000      45.94800000      50.83070000
C       45.94810000      50.83080000      51.71230000
C       50.83080000      51.71230000      45.94800000
C       51.71220000      54.05200000      49.16920000
C       48.28780000      45.94810000      49.16910000
C       48.28790000      54.05200000      50.83100000
C       45.94800000      49.16920000      48.28790000
C       54.05190000      50.83090000      48.28770000
C       54.05200000      49.16910000      51.71210000
C       50.83090000      48.28770000      54.05190000
C       49.16930000      51.71210000      54.05210000
C       49.16910000      48.28790000      45.94800000
C       53.40160000      47.59900000      54.38370000
C       54.38380000      53.40160000      47.59910000
C       47.59920000      54.38380000      53.40170000
C       53.40140000      52.40100000      45.61610000
C       46.59860000      52.40080000      54.38400000
C       46.59840000      47.59930000      45.61610000
C       54.38390000      46.59840000      52.40070000
C       45.61600000      46.59860000      47.59910000
C       45.61620000      53.40150000      52.40110000
C       47.59900000      45.61620000      46.59840000
C       52.40090000      45.61600000      53.40130000
C       52.40080000      54.38400000      46.59860000
C       53.40150000      54.38390000      47.59920000
C       54.38390000      47.59900000      53.40140000
C       47.59920000      53.40140000      54.38400000
C       53.40150000      45.61600000      52.40070000
C       46.59860000      54.38380000      52.40110000
C       46.59840000      45.61620000      47.59910000
C       54.38380000      52.40090000      46.59840000
C       45.61600000      47.59930000      46.59850000
C       45.61620000      52.40080000      53.40170000
C       47.59900000      46.59860000      45.61610000
C       52.40080000      53.40160000      45.61620000
C       52.40090000      46.59830000      54.38370000
