240
Lattice="100.0 0.0 0.0 0.0 100.0 0.0 0.0 0.0 100.0" Properties=species:S:1:pos:R:3 name=C-2509655-3548-909 pressure=-3.27377252493907 spacegroup=Th times_found=1 energy=-1701.91807052434 pbc="T T T"
C       44.17880000      49.23690000      47.88280000
C       49.23690000      47.88290000      44.17880000
C       47.88280000      44.17880000      49.23680000
C       44.17880000      50.76300000      52.11730000
C       55.82120000      49.23690000      52.11710000
C       55.82120000      50.76310000      47.88280000
C       49.23700000      52.11710000      55.82120000
C       50.76310000      47.88270000      55.82110000
C       50.76300000      52.11730000      44.17880000
C       47.88280000      55.82120000      50.76320000
C       52.11720000      44.17880000      50.76300000
C       52.11720000      55.82120000      49.23700000
C       55.82120000      49.23700000      47.88270000
C       50.76300000      47.88290000      44.17880000
C       52.11720000      44.17880000      49.23680000
C       55.82120000      50.76310000      52.11720000
C       44.17880000      49.23690000      52.11720000
C       44.17880000      50.76310000      47.88290000
C       50.76310000      52.11710000      55.82120000
C       49.23700000      47.88270000      55.82120000
C       49.23690000      52.11730000      44.17890000
C       52.11720000      55.82120000      50.76320000
C       47.88280000      44.17880000      50.76300000
C       47.88280000      55.82120000      49.23700000
C       56.89780000      48.65590000      51.36470000
C       48.65590000      51.36460000      56.89780000
C       51.36470000      56.89780000      48.65600000
C       56.89770000      51.34420000      48.63520000
C       43.10230000      48.65590000      48.63530000
C       43.10230000      51.34410000      51.36480000
C       48.65580000      48.63540000      43.10220000
C       51.34400000      51.36490000      43.10230000
C       51.34420000      48.63510000      56.89770000
C       51.36480000      43.10220000      51.34400000
C       48.63520000      56.89770000      51.34420000
C       48.63530000      43.10230000      48.65580000
C       43.10230000      48.65580000      51.36480000
C       51.34420000      51.36460000      56.89780000
C       48.63520000      56.89780000      48.65600000
C       43.10220000      51.34410000      48.63530000
C       56.89770000      48.65590000      48.63520000
C       56.89770000      51.34410000      51.36470000
C       51.34410000      48.63540000      43.10220000
C       48.65580000      51.36490000      43.10230000
C       48.65600000      48.63510000      56.89770000
C       48.63530000      43.10220000      51.34400000
C       51.36470000      56.89770000      51.34420000
C       51.36480000      43.10230000      48.65580000
C       53.21310000      47.95000000      45.12850000
C       47.95000000      45.12850000      53.21310000
C       45.12860000      53.21310000      47.95000000
C       53.21320000      52.05000000      54.87140000
C       46.78690000      47.94980000      54.87140000
C       46.78680000      52.05010000      45.12870000
C       47.94990000      54.87140000      46.78700000
C       52.05000000      45.12870000      46.78680000
C       52.05010000      54.87140000      53.21320000
C       45.12860000      46.78680000      52.05000000
C       54.87140000      53.21310000      52.05010000
C       54.87140000      46.78690000      47.94980000
C       46.78680000      47.95000000      45.12860000
C       52.05010000      45.12860000      53.21300000
C       54.87140000      53.21320000      47.95000000
C       46.78690000      52.05000000      54.87150000
C       53.21320000      47.94990000      54.87130000
C       53.21310000      52.05020000      45.12860000
C       52.05000000      54.87150000      46.78690000
C       47.94990000      45.12860000      46.78680000
C       47.95000000      54.87130000      53.21320000
C       54.87140000      46.78690000      52.05000000
C       45.12860000      53.21310000      52.05020000
C       45.12860000      46.78690000      47.94990000
C       49.26180000      57.98420000      49.29950000
C       57.98420000      49.29940000      49.26170000
C       49.29940000      49.26170000      57.98420000
C       49.26190000      42.01580000      50.70050000
C       50.73820000      57.98410000      50.70080000
C       50.73820000      42.01590000      49.29920000
C       57.98420000      50.70070000      50.73810000
C       42.01590000      49.29930000      50.73820000
C       42.01580000      50.70060000      49.26190000
C       49.29930000      50.73830000      42.01590000
C       50.70060000      49.26200000      42.01580000
C       50.70070000      50.73810000      57.98420000
C       50.73810000      57.98420000      49.29950000
C       42.01580000      49.29930000      49.26190000
C       50.70070000      49.26170000      57.98410000
C       50.73820000      42.01580000      50.70050000
C       49.26180000      57.98410000      50.70080000
C       49.26180000      42.01590000      49.29920000
C       42.01580000      50.70060000      50.73830000
C       57.98420000      49.29940000      50.73810000
C       57.98410000      50.70070000      49.26180000
C       50.70060000      50.73830000      42.01580000
C       49.29930000      49.26190000      42.01580000
C       49.29940000      50.73800000      57.98420000
C       48.09300000      52.66210000      54.83510000
C       52.66220000      54.83500000      48.09300000
C       54.83500000      48.09290000      52.66220000
C       48.09290000      47.33780000      45.16500000
C       51.90700000      52.66230000      45.16500000
C       51.90710000      47.33770000      54.83490000
C       52.66230000      45.16500000      51.90690000
C       47.33780000      54.83490000      51.90720000
C       47.33780000      45.16500000      48.09290000
C       54.83500000      51.90710000      47.33780000
C       45.16500000      48.09300000      47.33780000
C       45.16500000      51.90700000      52.66230000
C       51.90710000      52.66220000      54.83500000
C       47.33770000      54.83500000      48.09310000
C       45.16500000      48.09290000      52.66220000
C       51.90700000      47.33790000      45.16490000
C       48.09290000      52.66230000      45.16510000
C       48.09300000      47.33770000      54.83500000
C       47.33780000      45.16500000      51.90700000
C       52.66220000      54.83500000      51.90710000
C       52.66220000      45.16510000      48.09280000
C       45.16500000      51.90710000      47.33780000
C       54.83500000      48.09300000      47.33770000
C       54.83500000      51.90700000      52.66220000
C       54.82890000      49.30240000      43.97540000
C       49.30240000      43.97540000      54.82890000
C       43.97540000      54.82900000      49.30240000
C       54.82900000      50.69760000      56.02450000
C       45.17110000      49.30220000      56.02460000
C       45.17090000      50.69780000      43.97550000
C       49.30220000      56.02460000      45.17110000
C       50.69770000      43.97560000      45.17090000
C       50.69770000      56.02450000      54.82910000
C       43.97550000      45.17100000      50.69770000
C       56.02450000      54.82900000      50.69770000
C       56.02460000      45.17100000      49.30220000
C       45.17100000      49.30240000      43.97550000
C       50.69780000      43.97540000      54.82890000
C       56.02450000      54.82900000      49.30230000
C       45.17110000      50.69760000      56.02460000
C       54.82910000      49.30220000      56.02450000
C       54.82890000      50.69780000      43.97540000
C       50.69760000      56.02460000      45.17110000
C       49.30230000      43.97550000      45.17090000
C       49.30230000      56.02440000      54.82910000
C       56.02460000      45.17100000      50.69760000
C       43.97540000      54.82900000      50.69780000
C       43.97550000      45.17100000      49.30230000
C       54.61930000      44.83910000      50.72420000
C       44.83910000      50.72430000      54.61940000
C       50.72430000      54.61940000      44.83910000
C       54.61930000      55.16100000      49.27570000
C       45.38070000      44.83900000      49.27560000
C       45.38070000      55.16090000      50.72450000
C       44.83900000      49.27570000      45.38070000
C       55.16090000      50.72450000      45.38070000
C       55.16100000      49.27560000      54.61920000
C       50.72440000      45.38060000      55.16090000
C       49.27570000      54.61920000      55.16100000
C       49.27560000      45.38080000      44.83900000
C       45.38070000      44.83900000      50.72430000
C       55.16100000      50.72430000      54.61930000
C       49.27560000      54.61940000      44.83910000
C       45.38070000      55.16090000      49.27580000
C       54.61930000      44.83910000      49.27550000
C       54.61930000      55.16100000      50.72440000
C       55.16090000      49.27570000      45.38060000
C       44.83900000      50.72440000      45.38080000
C       44.83910000      49.27550000      54.61930000
C       49.27570000      45.38060000      55.16090000
C       50.72440000      54.61920000      55.16100000
C       50.72430000      45.38080000      44.83900000
C       51.38810000      56.10830000      46.41390000
C       56.10820000      46.41380000      51.38800000
C       46.41390000      51.38800000      56.10820000
C       51.38820000      43.89180000      53.58610000
C       48.61180000      56.10810000      53.58630000
C       48.61180000      43.89190000      46.41370000
C       56.10820000      53.58620000      48.61180000
C       43.89180000      46.41380000      48.61180000
C       43.89180000      53.58610000      51.38830000
C       46.41380000      48.61190000      43.89180000
C       53.58610000      51.38830000      43.89180000
C       53.58620000      48.61170000      56.10810000
C       48.61180000      56.10820000      46.41390000
C       43.89180000      46.41380000      51.38820000
C       53.58620000      51.38810000      56.10820000
C       48.61190000      43.89170000      53.58610000
C       51.38820000      56.10810000      53.58630000
C       51.38820000      43.89190000      46.41370000
C       43.89180000      53.58620000      48.61200000
C       56.10820000      46.41390000      48.61170000
C       56.10820000      53.58620000      51.38820000
C       53.58610000      48.61200000      43.89180000
C       46.41380000      51.38830000      43.89190000
C       46.41390000      48.61170000      56.10820000
C       56.81520000      52.59660000      50.73210000
C       52.59660000      50.73200000      56.81520000
C       50.73210000      56.81510000      52.59660000
C       56.81520000      47.40350000      49.26780000
C       43.18480000      52.59650000      49.26800000
C       43.18480000      47.40340000      50.73210000
C       52.59650000      49.26800000      43.18480000
C       47.40340000      50.73220000      43.18490000
C       47.40350000      49.26780000      56.81520000
C       50.73210000      43.18490000      47.40330000
C       49.26780000      56.81520000      47.40360000
C       49.26790000      43.18480000      52.59640000
C       43.18480000      52.59650000      50.73220000
C       47.40350000      50.73200000      56.81520000
C       49.26790000      56.81510000      52.59670000
C       43.18480000      47.40340000      49.26790000
C       56.81520000      52.59660000      49.26790000
C       56.81520000      47.40350000      50.73200000
C       47.40340000      49.26800000      43.18480000
C       52.59650000      50.73220000      43.18480000
C       52.59660000      49.26780000      56.81510000
C       49.26790000      43.18490000      47.40340000
C       50.73210000      56.81520000      47.40360000
C       50.73220000      43.18480000      52.59640000
C       46.07660000      54.28900000      48.34380000
C       54.28900000      48.34380000      46.07660000
C       48.34370000      46.07660000      54.28900000
C       46.07670000      45.71090000      51.65630000
C       53.92330000      54.28900000      51.65640000
C       53.92330000      45.71100000      48.34360000
C       54.28910000      51.65630000      53.92330000
C       45.71100000      48.34360000      53.92330000
C       45.71090000      51.65640000      46.07670000
C       48.34360000      53.92340000      45.71100000
C       51.65630000      46.07680000      45.71090000
C       51.65630000      53.92330000      54.28910000
C       53.92330000      54.28910000      48.34370000
C       45.71090000      48.34370000      46.07670000
C       51.65640000      46.07660000      54.28900000
C       53.92340000      45.71100000      51.65620000
C       46.07670000      54.28900000      51.65640000
C       46.07670000      45.71100000      48.34360000
C       45.71100000      51.65620000      53.92340000
C       54.28910000      48.34360000      53.92330000
C       54.28900000      51.65640000      46.07670000
C       51.65630000      53.92340000      45.71100000
C       48.34370000      46.07670000      45.71090000
C       48.34370000      53.92320000      54.28910000
