240
Lattice="100.0 0.0 0.0 0.0 100.0 0.0 0.0 0.0 100.0" Properties=species:S:1:pos:R:3 name=C-2509655-3548-1084 pressure=-123.449796141079 energy=-1702.68849776037 spacegroup=Th times_found=1 pbc="T T T"
C       48.18360000      49.26000000      57.56950000
C       57.56970000      48.18430000      49.26080000
C       49.26030000      57.56970000      48.18430000
C       51.81640000      49.25960000      42.43050000
C       48.18550000      50.74010000      42.43010000
C       51.81450000      50.74030000      57.56990000
C       42.43010000      48.18480000      50.73930000
C       57.56970000      51.81520000      50.74110000
C       42.43040000      51.81570000      49.25880000
C       50.74020000      57.56970000      51.81540000
C       49.25930000      42.43030000      51.81550000
C       50.74020000      42.43020000      48.18480000
C       48.18360000      50.74040000      57.56950000
C       57.56990000      51.81520000      49.26070000
C       49.25980000      42.43030000      48.18460000
C       51.81640000      50.74000000      42.43050000
C       48.18550000      49.25970000      42.43010000
C       51.81450000      49.25990000      57.56990000
C       42.43030000      51.81570000      50.73920000
C       57.56950000      48.18430000      50.74120000
C       42.43030000      48.18480000      49.25890000
C       50.73980000      42.43030000      51.81570000
C       49.25980000      57.56970000      51.81520000
C       50.74070000      57.56960000      48.18450000
C       56.31500000      50.72920000      52.65260000
C       52.65190000      56.31520000      50.72960000
C       50.72870000      52.65190000      56.31530000
C       43.68510000      50.72950000      47.34730000
C       56.31560000      49.27040000      47.34900000
C       43.68440000      49.27090000      52.65110000
C       47.34840000      56.31530000      49.27020000
C       52.65180000      43.68460000      49.27110000
C       47.34790000      43.68480000      50.72920000
C       49.27150000      52.65170000      43.68460000
C       50.73010000      47.34800000      43.68490000
C       49.26970000      47.34830000      56.31530000
C       56.31490000      49.27050000      52.65260000
C       52.65160000      43.68460000      50.72980000
C       50.72850000      47.34830000      56.31540000
C       43.68500000      49.27080000      47.34740000
C       56.31570000      50.72910000      47.34890000
C       43.68440000      50.72960000      52.65100000
C       47.34810000      43.68480000      49.27040000
C       52.65210000      56.31520000      49.27080000
C       47.34830000      56.31540000      50.72890000
C       49.27130000      47.34810000      43.68470000
C       50.73030000      52.65170000      43.68480000
C       49.26990000      52.65200000      56.31520000
C       45.34440000      51.99710000      46.04910000
C       46.04940000      45.34400000      51.99660000
C       51.99750000      46.04960000      45.34420000
C       54.65570000      51.99700000      53.95080000
C       45.34330000      48.00320000      53.94970000
C       54.65660000      48.00280000      46.05040000
C       53.95040000      45.34370000      48.00360000
C       46.05010000      54.65620000      48.00240000
C       53.95010000      54.65610000      51.99740000
C       48.00230000      46.04990000      54.65600000
C       51.99650000      53.95030000      54.65630000
C       48.00370000      53.95020000      45.34350000
C       45.34430000      48.00300000      46.04920000
C       46.04960000      54.65630000      51.99640000
C       51.99770000      53.95010000      45.34400000
C       54.65560000      48.00290000      53.95090000
C       45.34340000      51.99720000      53.94960000
C       54.65670000      51.99680000      46.05030000
C       53.95060000      54.65600000      48.00340000
C       46.04990000      45.34390000      48.00260000
C       53.94980000      45.34380000      51.99760000
C       48.00250000      53.95040000      54.65580000
C       51.99630000      46.04980000      54.65650000
C       48.00350000      46.04970000      45.34370000
C       49.27290000      44.03820000      45.03540000
C       45.03610000      49.27250000      44.03760000
C       44.03820000      45.03560000      49.27180000
C       50.72670000      44.03830000      54.96480000
C       49.27200000      55.96180000      54.96440000
C       50.72830000      55.96160000      45.03540000
C       54.96380000      49.27240000      55.96240000
C       45.03470000      50.72780000      55.96110000
C       54.96540000      50.72730000      44.03890000
C       55.96150000      45.03520000      50.72840000
C       44.03830000      54.96480000      50.72670000
C       55.96200000      54.96440000      49.27310000
C       49.27330000      55.96170000      45.03520000
C       45.03620000      50.72760000      44.03760000
C       44.03850000      54.96480000      49.27160000
C       50.72710000      55.96180000      54.96460000
C       49.27170000      44.03840000      54.96460000
C       50.72800000      44.03820000      45.03560000
C       54.96390000      50.72750000      55.96230000
C       45.03460000      49.27270000      55.96110000
C       54.96530000      49.27220000      44.03890000
C       55.96180000      54.96440000      50.72820000
C       44.03800000      45.03560000      50.72690000
C       55.96170000      45.03520000      49.27330000
C       44.40470000      48.07940000      47.04080000
C       47.04160000      44.40440000      48.07900000
C       48.07990000      47.04150000      44.40420000
C       55.59520000      48.07920000      52.95920000
C       44.40410000      51.92090000      52.95780000
C       55.59610000      51.92050000      47.04210000
C       52.95810000      44.40430000      51.92120000
C       47.04140000      55.59570000      51.92020000
C       52.95890000      55.59550000      48.07960000
C       51.91990000      47.04150000      55.59590000
C       48.07870000      52.95870000      55.59530000
C       51.92150000      52.95830000      44.40460000
C       44.40480000      51.92080000      47.04070000
C       47.04190000      55.59570000      48.07880000
C       48.08010000      52.95850000      44.40410000
C       55.59530000      51.92060000      52.95920000
C       44.40390000      48.07950000      52.95780000
C       55.59590000      48.07910000      47.04220000
C       52.95840000      55.59560000      51.92100000
C       47.04110000      44.40450000      51.92040000
C       52.95860000      44.40420000      48.07980000
C       51.92010000      52.95860000      55.59580000
C       48.07850000      47.04160000      55.59540000
C       51.92130000      47.04130000      44.40470000
C       52.12310000      55.95470000      53.04120000
C       53.04030000      52.12330000      55.95500000
C       55.95450000      53.04090000      52.12400000
C       47.87720000      55.95470000      46.95860000
C       52.12350000      44.04520000      46.95940000
C       47.87610000      44.04540000      53.04090000
C       46.95980000      52.12330000      44.04490000
C       53.04170000      47.87650000      44.04570000
C       46.95820000      47.87690000      55.95430000
C       44.04570000      53.04120000      47.87590000
C       55.95490000      46.95880000      47.87750000
C       44.04500000      46.95920000      52.12260000
C       52.12270000      44.04530000      53.04140000
C       53.04020000      47.87670000      55.95510000
C       55.95430000      46.95890000      52.12410000
C       47.87690000      44.04530000      46.95880000
C       52.12390000      55.95460000      46.95910000
C       47.87650000      55.95480000      53.04060000
C       46.95970000      47.87670000      44.04500000
C       53.04180000      52.12310000      44.04560000
C       46.95830000      52.12350000      55.95430000
C       44.04550000      46.95910000      47.87600000
C       55.95510000      53.04080000      47.87740000
C       44.04510000      53.04120000      52.12250000
C       51.37150000      42.85440000      53.02680000
C       53.02740000      51.37180000      42.85480000
C       42.85440000      53.02670000      51.37110000
C       48.62810000      42.85440000      46.97350000
C       51.37270000      57.14550000      46.97360000
C       48.62780000      57.14560000      53.02620000
C       46.97270000      51.37230000      57.14520000
C       53.02550000      48.62800000      57.14600000
C       46.97440000      48.62790000      42.85410000
C       57.14580000      53.02620000      48.62880000
C       42.85450000      46.97370000      48.62710000
C       57.14530000      46.97330000      51.37300000
C       51.37190000      57.14560000      53.02650000
C       53.02730000      48.62770000      42.85490000
C       42.85420000      46.97380000      51.37120000
C       48.62850000      57.14550000      46.97320000
C       51.37230000      42.85430000      46.97380000
C       48.62730000      42.85450000      53.02640000
C       46.97260000      48.62820000      57.14520000
C       53.02560000      51.37210000      57.14590000
C       46.97450000      51.37200000      42.85400000
C       57.14560000      46.97330000      48.62890000
C       42.85470000      53.02670000      48.62700000
C       57.14550000      53.02630000      51.37290000
C       57.25600000      45.71900000      49.30250000
C       49.30230000      57.25600000      45.71900000
C       45.71830000      49.30180000      57.25550000
C       42.74380000      45.71950000      50.69760000
C       57.25610000      54.28050000      50.69930000
C       42.74420000      54.28100000      49.30060000
C       50.69810000      57.25610000      54.28070000
C       49.30080000      42.74410000      54.28080000
C       50.69880000      42.74390000      45.71950000
C       54.28160000      49.30130000      42.74450000
C       45.72020000      50.69850000      42.74340000
C       54.27990000      50.69850000      57.25650000
C       57.25620000      54.28050000      49.30240000
C       49.30190000      42.74390000      45.71930000
C       45.71830000      50.69870000      57.25550000
C       42.74400000      54.28100000      50.69750000
C       57.25580000      45.71900000      50.69940000
C       42.74390000      45.71940000      49.30070000
C       50.69770000      42.74400000      54.28100000
C       49.30120000      57.25610000      54.28050000
C       50.69920000      57.25590000      45.71920000
C       54.28170000      50.69820000      42.74450000
C       45.72010000      49.30160000      42.74340000
C       54.27980000      49.30150000      57.25660000
C       45.78710000      48.29110000      55.17360000
C       55.17420000      45.78760000      48.29160000
C       48.29150000      55.17410000      45.78750000
C       54.21280000      48.29060000      44.82640000
C       45.78850000      51.70920000      44.82530000
C       54.21160000      51.70910000      55.17460000
C       44.82550000      45.78800000      51.70850000
C       55.17410000      54.21210000      51.70970000
C       44.82620000      54.21230000      48.29020000
C       51.70880000      55.17420000      54.21230000
C       48.29020000      44.82600000      54.21210000
C       51.70950000      44.82570000      45.78810000
C       45.78720000      51.70930000      55.17360000
C       55.17450000      54.21200000      48.29140000
C       48.29130000      44.82590000      45.78770000
C       54.21290000      51.70890000      44.82630000
C       45.78840000      48.29090000      44.82530000
C       54.21150000      48.29080000      55.17470000
C       44.82580000      54.21240000      51.70840000
C       55.17380000      45.78770000      51.70980000
C       44.82590000      45.78790000      48.29030000
C       51.70840000      44.82590000      54.21250000
C       48.29050000      55.17430000      54.21190000
C       51.70980000      55.17400000      45.78790000
C       49.27550000      48.46850000      57.25760000
C       57.25780000      49.27620000      48.46920000
C       48.46860000      57.25770000      49.27610000
C       50.72440000      48.46810000      42.74250000
C       49.27740000      51.53160000      42.74220000
C       50.72270000      51.53180000      57.25770000
C       42.74220000      49.27670000      51.53080000
C       57.25750000      50.72330000      51.53260000
C       42.74260000      50.72370000      48.46740000
C       51.53180000      57.25760000      50.72360000
C       48.46800000      42.74240000      50.72350000
C       51.53160000      42.74230000      49.27680000
C       49.27560000      51.53190000      57.25750000
C       57.25790000      50.72330000      48.46920000
C       48.46820000      42.74240000      49.27640000
C       50.72450000      51.53150000      42.74240000
C       49.27730000      48.46820000      42.74230000
C       50.72260000      48.46840000      57.25780000
C       42.74220000      50.72380000      51.53080000
C       57.25740000      49.27630000      51.53260000
C       42.74250000      49.27670000      48.46740000
C       51.53140000      42.74230000      50.72390000
C       48.46840000      57.25770000      50.72320000
C       51.53200000      57.25760000      49.27650000
