240
Lattice="100.0 0.0 0.0 0.0 100.0 0.0 0.0 0.0 100.0" Properties=species:S:1:pos:R:3 name=C-2509655-3548-1099 pressure=-14.7270850462123 spacegroup=C1 times_found=1 energy=-1751.5248854565 pbc="T T T"
C       53.09520000      55.28290000      52.62460000
C       56.02230000      52.72780000      52.91220000
C       52.47310000      53.06050000      55.90470000
C       47.23040000      55.90370000      47.18400000
C       47.16500000      43.94700000      52.74140000
C       52.89590000      44.79480000      47.47750000
C       44.06880000      52.55800000      46.80480000
C       44.11150000      47.40600000      53.15210000
C       55.68970000      47.51490000      47.31680000
C       47.19440000      53.17920000      44.38950000
C       47.30810000      46.77940000      55.43260000
C       52.32630000      47.03160000      44.19240000
C       52.96080000      44.09890000      52.66750000
C       56.09850000      47.53300000      53.22250000
C       52.68770000      46.93100000      55.30280000
C       46.83480000      44.00890000      47.52660000
C       46.94510000      55.90910000      52.40480000
C       53.17950000      55.38240000      47.28450000
C       44.55240000      47.29140000      46.98690000
C       44.61840000      52.67700000      52.97090000
C       55.93300000      52.62510000      47.18060000
C       47.17770000      47.20660000      44.14490000
C       47.27070000      52.75500000      55.79540000
C       52.48850000      53.14360000      44.10650000
C       48.42820000      52.82750000      56.59670000
C       53.16500000      56.20560000      48.51330000
C       56.87880000      48.74890000      53.21980000
C       51.28830000      53.13090000      43.30740000
C       51.47830000      46.92170000      56.14770000
C       48.33640000      47.14460000      43.34460000
C       47.00930000      56.68240000      51.19160000
C       46.88830000      43.21490000      48.72690000
C       53.01970000      43.38520000      51.44650000
C       43.64230000      48.46190000      46.99030000
C       43.70400000      51.50830000      52.98020000
C       56.67010000      51.42420000      47.09610000
C       48.55640000      46.82170000      56.23140000
C       52.95990000      43.86250000      48.62440000
C       56.84080000      51.58200000      53.04190000
C       51.14880000      47.03830000      43.36820000
C       51.24660000      53.00420000      56.65760000
C       48.39820000      53.17160000      43.51100000
C       47.06280000      43.17190000      51.56040000
C       47.17500000      56.67490000      48.36640000
C       53.09820000      56.14130000      51.42430000
C       43.31720000      51.32870000      46.89340000
C       43.36660000      48.64130000      53.07810000
C       56.53560000      48.63060000      47.18870000
C       50.38650000      45.86820000      43.43320000
C       45.85250000      43.30930000      50.95410000
C       43.23260000      50.57470000      45.73610000
C       49.34090000      45.70830000      56.40750000
C       49.14890000      54.31250000      43.32570000
C       50.45610000      54.15380000      56.57830000
C       54.13140000      43.75410000      49.36220000
C       54.25530000      56.37820000      50.71270000
C       45.95730000      56.60720000      48.97360000
C       56.66230000      50.96820000      54.24440000
C       56.28220000      49.29780000      46.01940000
C       43.30610000      49.39290000      54.23800000
C       50.58810000      54.32550000      43.23470000
C       45.85840000      56.63990000      50.40020000
C       43.36190000      49.14070000      45.82030000
C       49.03220000      54.04610000      56.51530000
C       48.95900000      45.93800000      43.45780000
C       50.77860000      45.75920000      56.38140000
C       54.29130000      56.39050000      49.27500000
C       54.18080000      43.59380000      50.77900000
C       45.74450000      43.28890000      49.52780000
C       56.71500000      49.54290000      54.35570000
C       56.33830000      50.71670000      45.97430000
C       43.44040000      50.82610000      54.15260000
C       57.48910000      51.58650000      49.31820000
C       51.47360000      49.23440000      56.67380000
C       49.33210000      56.81060000      51.43260000
C       43.29130000      51.52220000      50.64380000
C       43.27090000      48.45320000      49.33220000
C       57.28370000      48.51680000      50.93050000
C       48.27020000      49.44620000      42.83690000
C       48.40280000      50.51300000      57.03610000
C       51.36420000      50.81510000      43.14340000
C       50.93080000      56.89350000      48.40970000
C       50.79170000      42.66300000      51.52240000
C       49.21260000      43.03310000      48.48890000
C       57.26540000      48.51390000      49.46840000
C       51.48080000      50.68270000      56.81610000
C       49.33920000      42.59500000      51.55880000
C       43.22720000      48.46640000      50.78000000
C       43.22090000      51.50870000      49.19620000
C       57.51290000      51.61020000      50.78050000
C       48.29050000      50.89600000      42.92400000
C       48.44920000      49.07040000      56.88290000
C       51.35410000      49.36420000      43.13170000
C       50.66550000      43.18070000      48.50760000
C       50.78090000      56.66920000      51.43220000
C       49.49300000      57.07450000      48.35420000
C       44.39520000      53.35490000      47.93970000
C       53.06860000      48.19140000      44.53210000
C       48.32610000      43.76200000      53.49870000
C       56.22860000      53.49290000      51.76210000
C       55.84240000      46.77390000      48.47970000
C       44.41230000      46.60790000      52.01230000
C       46.49260000      47.97030000      55.72480000
C       46.37420000      51.98760000      44.14000000
C       53.30630000      51.94340000      55.62130000
C       51.68640000      44.57730000      46.71240000
C       51.83050000      55.44210000      53.33510000
C       48.38970000      56.03540000      46.41430000
C       44.44290000      46.55780000      48.23570000
C       53.16450000      51.95840000      44.49890000
C       48.05960000      55.59630000      53.23360000
C       55.86220000      46.72280000      52.07820000
C       56.20400000      53.44540000      48.28160000
C       44.49430000      53.41010000      51.72050000
C       46.49360000      51.60260000      55.94250000
C       46.39030000      48.35130000      43.98790000
C       53.39750000      48.18680000      55.47620000
C       52.00870000      55.71460000      46.45980000
C       51.82820000      43.84680000      53.44920000
C       47.95600000      44.33670000      46.71640000
C       47.07360000      49.02850000      56.41560000
C       49.51980000      56.62620000      46.95650000
C       56.63770000      47.20040000      49.51760000
C       52.61710000      49.34400000      43.88340000
C       52.80990000      50.74710000      56.18290000
C       46.93230000      50.92260000      43.44170000
C       50.73740000      56.05750000      52.74120000
C       50.61750000      43.87350000      47.24160000
C       49.36320000      43.01290000      52.96700000
C       43.84110000      47.12600000      50.82840000
C       43.84300000      52.84450000      49.13590000
C       57.03500000      52.99670000      50.74990000
C       47.01050000      50.48250000      56.57350000
C       49.14940000      43.75380000      47.20240000
C       57.02030000      52.97220000      49.29790000
C       52.63740000      50.81130000      43.88530000
C       52.79220000      49.27560000      56.08210000
C       46.89030000      49.46420000      43.33040000
C       50.81140000      43.05980000      52.93500000
C       50.96760000      56.43490000      47.03110000
C       49.26280000      56.15710000      52.75210000
C       43.89840000      52.83540000      50.60980000
C       43.86980000      47.13600000      49.35540000
C       56.60130000      47.20510000      50.97310000
C       44.98540000      55.49370000      50.33660000
C       55.01800000      50.78970000      45.40880000
C       50.83430000      44.68010000      55.46820000
C       55.37130000      55.47580000      49.25200000
C       54.96010000      44.77720000      51.00210000
C       44.91410000      44.46510000      49.60480000
C       44.39850000      50.79620000      55.20060000
C       44.30130000      49.16330000      44.75420000
C       55.49400000      49.58710000      55.12300000
C       48.85310000      45.16880000      44.66970000
C       48.93440000      54.82250000      55.31120000
C       50.69810000      55.35670000      44.23010000
C       45.10120000      44.52470000      51.08580000
C       54.96400000      49.29120000      45.44720000
C       50.41350000      55.00320000      55.41180000
C       54.99290000      44.87270000      49.51420000
C       55.33950000      55.47210000      50.75900000
C       45.15600000      55.42320000      48.85220000
C       44.28440000      49.30380000      55.28880000
C       44.18900000      50.65700000      44.66610000
C       55.40740000      51.06350000      54.93770000
C       49.19920000      55.33520000      44.30850000
C       49.32800000      44.62990000      55.49220000
C       50.33370000      45.02610000      44.60480000
C       49.09480000      52.00040000      43.00510000
C       51.82740000      43.19680000      49.25750000
C       43.11730000      49.32380000      51.85750000
C       50.63110000      51.75950000      56.99960000
C       50.52520000      48.26220000      42.96370000
C       49.27190000      47.99160000      56.69930000
C       48.19260000      42.70250000      50.79030000
C       48.33600000      57.08420000      49.11600000
C       51.94470000      56.62300000      50.69360000
C       57.18180000      49.29390000      48.31090000
C       57.39690000      50.83910000      51.93160000
C       43.08630000      50.65120000      48.12060000
C       49.05840000      48.30660000      42.87840000
C       52.00740000      56.69410000      49.23120000
C       43.23450000      50.79290000      51.80960000
C       50.73620000      48.06880000      56.62510000
C       50.56850000      51.94570000      42.99650000
C       49.16570000      51.67230000      57.04100000
C       48.25730000      57.01700000      50.58230000
C       48.12590000      42.82220000      49.32680000
C       51.87340000      42.92780000      50.69870000
C       57.27430000      50.74770000      48.23650000
C       57.34950000      49.37240000      52.01650000
C       43.19690000      49.18190000      48.16760000
C       45.79860000      55.19140000      52.54300000
C       54.73660000      53.03420000      46.44820000
C       52.89970000      45.76200000      54.39030000
C       54.29550000      54.38120000      47.18050000
C       53.72580000      45.26750000      53.10380000
C       45.70290000      44.75080000      47.39160000
C       45.54900000      52.82560000      54.13040000
C       45.46740000      47.13940000      45.81760000
C       55.28380000      47.38340000      54.29840000
C       46.77970000      46.38370000      45.28470000
C       46.86850000      53.58250000      54.66680000
C       52.75440000      54.32250000      44.73210000
C       46.38060000      45.09800000      53.16190000
C       54.50170000      47.12500000      46.56550000
C       52.62550000      54.19490000      55.17120000
C       53.97680000      45.82650000      47.35770000
C       54.27900000      54.37920000      52.82380000
C       46.37310000      54.81220000      46.75030000
C       44.75620000      47.20400000      54.33580000
C       44.69700000      52.75290000      45.60980000
C       54.82010000      53.10740000      53.64770000
C       47.10890000      54.29560000      45.39290000
C       47.18190000      45.62920000      54.46860000
C       52.49880000      45.91300000      44.94430000
C       54.25750000      51.99650000      45.46690000
C       51.84150000      44.74470000      54.52730000
C       45.02370000      54.70900000      51.52860000
C       45.38910000      51.73950000      55.09910000
C       45.29400000      48.21970000      44.84330000
C       54.72550000      48.38980000      55.02990000
C       47.78450000      45.29750000      45.60210000
C       47.87860000      54.66780000      54.36370000
C       51.82470000      55.24560000      45.11830000
C       55.30650000      54.52450000      48.24990000
C       54.84680000      45.63730000      52.13670000
C       44.95270000      45.25040000      48.41550000
C       54.12450000      48.13770000      45.53280000
C       51.61790000      54.95080000      54.64630000
C       45.29750000      45.44460000      52.15900000
C       45.15820000      48.15770000      55.22720000
C       45.06530000      51.80110000      44.70160000
C       54.46720000      52.11350000      54.72860000
C       48.23550000      55.22900000      45.28260000
C       48.29490000      44.66310000      54.57420000
C       51.50320000      45.10880000      45.41430000
C       54.90390000      45.75760000      48.47280000
C       55.28940000      54.53480000      51.76690000
C       45.30090000      54.49890000      47.77370000
