240
Lattice="100.0 0.0 0.0 0.0 100.0 0.0 0.0 0.0 100.0" Properties=species:S:1:pos:R:3 name=C-2509655-3548-966 pressure=11.5527390765629 energy=-1755.68234069887 spacegroup=C1 times_found=1 pbc="T T T"
C       51.70450000      49.47720000      57.48410000
C       49.14330000      57.19400000      51.72540000
C       57.03420000      51.53010000      49.36370000
C       51.75650000      50.64890000      42.87650000
C       48.27660000      49.39280000      42.57610000
C       48.30590000      50.68900000      57.00910000
C       49.15460000      42.77630000      48.33880000
C       50.91960000      57.32240000      48.24110000
C       50.83770000      42.82720000      51.61490000
C       57.36530000      48.28480000      50.53770000
C       42.62330000      51.64300000      50.81520000
C       42.73020000      48.26580000      49.30190000
C       48.28230000      49.23280000      57.11200000
C       50.61210000      57.01140000      51.59130000
C       42.58330000      51.72240000      49.34230000
C       48.34850000      50.85480000      42.70310000
C       51.72330000      49.18020000      42.76150000
C       51.68230000      50.94180000      57.44180000
C       50.61200000      42.81850000      48.31440000
C       49.48310000      57.35110000      48.31870000
C       49.37940000      42.83720000      51.64300000
C       42.74830000      48.22200000      50.75180000
C       57.20430000      51.68690000      50.83230000
C       57.33800000      48.18370000      49.10080000
C       44.36480000      48.21680000      46.23020000
C       47.72150000      46.34970000      44.43400000
C       47.05240000      43.94590000      48.70680000
C       43.74120000      51.32540000      52.93600000
C       55.52690000      48.43820000      53.64560000
C       55.87680000      51.91540000      46.11580000
C       47.85010000      53.84880000      55.87330000
C       52.17700000      46.48780000      55.45700000
C       52.47570000      53.57160000      44.48430000
C       46.08950000      55.54620000      52.46710000
C       52.90430000      44.05130000      51.22050000
C       53.07340000      56.19800000      48.60760000
C       56.22250000      48.51600000      46.93310000
C       51.84110000      46.04330000      44.21050000
C       53.55940000      44.41810000      47.60810000
C       55.52660000      52.48760000      53.86660000
C       43.83210000      48.49130000      52.88310000
C       44.55990000      52.25380000      46.43720000
C       51.30900000      53.10270000      56.30160000
C       48.11660000      46.07780000      55.72820000
C       48.81360000      52.91300000      43.99110000
C       53.84090000      55.82600000      52.02600000
C       46.41430000      44.38930000      52.33000000
C       46.35320000      55.57350000      48.39800000
C       49.39360000      51.50300000      57.08580000
C       51.90680000      56.93330000      49.28200000
C       57.79300000      49.41830000      51.15070000
C       49.38430000      48.62980000      42.29150000
C       50.68240000      51.46220000      43.02190000
C       50.56530000      48.75710000      57.70910000
C       51.77130000      43.31260000      50.58170000
C       48.47020000      57.70350000      50.61460000
C       48.20620000      43.25250000      49.36250000
C       57.10280000      50.41070000      48.60840000
C       42.38720000      49.38630000      48.57700000
C       43.09100000      50.61690000      51.80960000
C       50.63590000      51.91590000      56.99310000
C       48.85640000      57.77300000      49.44720000
C       43.13330000      49.21480000      51.79840000
C       50.59410000      48.50150000      42.36120000
C       49.42520000      51.78660000      43.18910000
C       49.37360000      48.51480000      57.59680000
C       48.53220000      43.09580000      50.61700000
C       51.37950000      57.07550000      50.47970000
C       51.45260000      43.12150000      49.33140000
C       42.35740000      50.60860000      48.55870000
C       56.95730000      49.20760000      48.09410000
C       57.71110000      50.58850000      51.52670000
C       46.35270000      54.13620000      46.46370000
C       54.31910000      45.36720000      46.72150000
C       46.10590000      45.91450000      54.39390000
C       47.14830000      45.25280000      55.02590000
C       53.99100000      54.57370000      54.06490000
C       52.81570000      45.23340000      44.91530000
C       54.68280000      55.17870000      53.02420000
C       45.65710000      45.35700000      53.19530000
C       45.64020000      54.76770000      47.44650000
C       45.70290000      53.06130000      45.87890000
C       53.87660000      45.89740000      45.51430000
C       54.53400000      53.38460000      54.55160000
C       53.35560000      54.33970000      45.42700000
C       45.75640000      46.26130000      46.14920000
C       54.67850000      47.51560000      54.35020000
C       52.98910000      45.93270000      54.31080000
C       46.87460000      54.69440000      55.18710000
C       46.88460000      45.73800000      45.52700000
C       45.39160000      54.54830000      53.34180000
C       54.06430000      46.51810000      53.65000000
C       54.58790000      53.93350000      45.94370000
C       55.22350000      52.89800000      45.26560000
C       45.13700000      47.27290000      45.46090000
C       45.85420000      54.00500000      54.54370000
C       56.15210000      53.14930000      52.75600000
C       52.72700000      52.78090000      56.39880000
C       52.62240000      55.91570000      52.76040000
C       56.21960000      47.10640000      47.34700000
C       43.86700000      53.00450000      47.47300000
C       43.76880000      47.07130000      52.52330000
C       52.65910000      47.21530000      44.05040000
C       47.38240000      52.63410000      43.90580000
C       47.31350000      47.27180000      55.84200000
C       52.53870000      43.71600000      46.87680000
C       47.57370000      55.75250000      47.59770000
C       47.44380000      43.71560000      53.07730000
C       43.57610000      52.74830000      52.67080000
C       47.09570000      52.63340000      55.94350000
C       47.18980000      56.15990000      53.15680000
C       44.18470000      47.39520000      47.41290000
C       55.94920000      52.66110000      47.32720000
C       55.73680000      47.60880000      52.44920000
C       46.98610000      47.43560000      43.77170000
C       53.21330000      52.53920000      43.81650000
C       52.92010000      47.55410000      56.13860000
C       47.34540000      43.82700000      47.27920000
C       52.68490000      56.20300000      47.18950000
C       52.61910000      43.94300000      52.64650000
C       47.38250000      44.57280000      46.04140000
C       45.11750000      46.21750000      47.40060000
C       45.60580000      47.64460000      44.24940000
C       47.38290000      55.80180000      54.57950000
C       52.56200000      44.71510000      53.86350000
C       52.68040000      55.39080000      46.00330000
C       44.29640000      53.98790000      52.72010000
C       54.75430000      46.45510000      52.43240000
C       55.13310000      53.90550000      47.24630000
C       45.90170000      52.69680000      55.08030000
C       54.26710000      47.79310000      55.60420000
C       54.63670000      52.38210000      44.15420000
C       52.37640000      44.08260000      45.46560000
C       55.40030000      45.92330000      47.36790000
C       53.89140000      47.15950000      44.90870000
C       52.68580000      55.11570000      54.01300000
C       47.59900000      44.09750000      54.48850000
C       47.59370000      54.77720000      46.43320000
C       55.79410000      54.56590000      52.53420000
C       44.56650000      45.88450000      52.53640000
C       44.38190000      54.36050000      47.71340000
C       53.96620000      52.79260000      55.65690000
C       46.11740000      47.19650000      54.96230000
C       46.16650000      52.60090000      44.68060000
C       45.05130000      45.46870000      48.62500000
C       45.02850000      48.92140000      44.12930000
C       48.51550000      44.28450000      45.25240000
C       44.12400000      54.74420000      51.54170000
C       54.86610000      45.63960000      51.26230000
C       55.08220000      54.57420000      48.52280000
C       45.34640000      51.38020000      54.90490000
C       54.90600000      49.02160000      55.82210000
C       55.09940000      51.04360000      44.18420000
C       48.72580000      55.73920000      55.00830000
C       51.46120000      44.38190000      54.68620000
C       51.42730000      55.41930000      45.33760000
C       55.43990000      45.26940000      48.62640000
C       54.61950000      48.40280000      44.89640000
C       51.07810000      43.99460000      44.93330000
C       55.74250000      54.97030000      51.18290000
C       44.51280000      45.19520000      51.29680000
C       44.16600000      54.96810000      48.95840000
C       54.71000000      51.60820000      55.84070000
C       45.47680000      48.47250000      54.84080000
C       45.33490000      51.50020000      44.36900000
C       51.39630000      55.07780000      54.66350000
C       48.89930000      44.03100000      55.02080000
C       48.78240000      54.86190000      45.63630000
C       56.07040000      46.17980000      50.69180000
C       46.11730000      50.60620000      55.82660000
C       50.66200000      56.38640000      45.97320000
C       56.07200000      53.79810000      49.24050000
C       43.88410000      46.05870000      49.21960000
C       43.11500000      54.08050000      50.82040000
C       45.91790000      49.49680000      43.22800000
C       54.10200000      50.38460000      43.49310000
C       54.05950000      49.53800000      56.80340000
C       50.85840000      43.28080000      54.05170000
C       49.37930000      56.37530000      53.98220000
C       49.13800000      43.20290000      45.89980000
C       43.56220000      45.86800000      50.52830000
C       54.06990000      50.90500000      56.86820000
C       49.35510000      56.06100000      46.19940000
C       43.19150000      54.10280000      49.45950000
C       56.40040000      45.92180000      49.38930000
C       56.38490000      53.93520000      50.55270000
C       53.92270000      49.07960000      43.83730000
C       45.95350000      50.86400000      43.28390000
C       46.18530000      49.24900000      55.79100000
C       49.49800000      43.17470000      54.09500000
C       50.69290000      56.05950000      53.86640000
C       50.49900000      43.12770000      45.86180000
C       44.46110000      49.49400000      45.40300000
C       49.04640000      45.40250000      44.48520000
C       45.97150000      44.59450000      49.41820000
C       44.51910000      50.65100000      53.94690000
C       55.48090000      49.66780000      54.59320000
C       55.68730000      50.60100000      45.42080000
C       49.17030000      54.53070000      55.66330000
C       50.90080000      45.49170000      55.44620000
C       51.05480000      54.23970000      44.65670000
C       45.31640000      55.45780000      51.10550000
C       53.96970000      44.71260000      50.49840000
C       54.18920000      55.51740000      49.26800000
C       55.56620000      49.15570000      45.79220000
C       50.53030000      45.26750000      44.36020000
C       54.25140000      44.60990000      49.01130000
C       55.42680000      51.14900000      54.65690000
C       44.57600000      49.16860000      53.91690000
C       44.57800000      50.97120000      45.49640000
C       50.63490000      54.19750000      55.60000000
C       49.42720000      45.31630000      55.58420000
C       49.55090000      53.96050000      44.70040000
C       54.53240000      55.60640000      50.72210000
C       45.70250000      44.53490000      50.91710000
C       45.39630000      55.52330000      49.62230000
C       47.13330000      48.70870000      43.02470000
C       48.49830000      42.98160000      47.13360000
C       43.44740000      47.27400000      48.60100000
C       47.19650000      51.32340000      56.42640000
C       52.82420000      48.77390000      56.98230000
C       52.96710000      51.24170000      43.21600000
C       48.51970000      56.71480000      52.85950000
C       51.49480000      43.06300000      52.81460000
C       51.45590000      56.92200000      47.03720000
C       42.82270000      52.85930000      51.46140000
C       56.54650000      47.39490000      51.30180000
C       56.47500000      52.59840000      48.62430000
C       52.71450000      48.46790000      43.42010000
C       51.28180000      43.00270000      47.07960000
C       56.93670000      46.97270000      48.58050000
C       52.87490000      51.58170000      57.17890000
C       47.30150000      48.56770000      56.39230000
C       47.17960000      51.51170000      43.02920000
C       51.33010000      56.45030000      52.67330000
C       48.71340000      43.02420000      52.87970000
C       48.73280000      56.54220000      47.40790000
C       56.71720000      52.82830000      51.43490000
C       43.06570000      46.97600000      51.28620000
C       43.04020000      52.87430000      48.68660000
