240
Lattice="100.0 0.0 0.0 0.0 100.0 0.0 0.0 0.0 100.0" Properties=species:S:1:pos:R:3 name=C-2509655-3548-520 pressure=-86.919646666764 spacegroup=Th times_found=1 energy=-1740.03571159306 pbc="T T T"
C       50.71010000      56.79930000      50.73980000
C       56.79930000      50.73950000      50.71020000
C       50.73950000      50.70990000      56.79940000
C       50.70980000      43.20070000      49.26020000
C       49.29020000      56.79930000      49.26030000
C       49.28980000      43.20070000      50.73970000
C       56.79930000      49.26010000      49.29030000
C       43.20070000      50.73990000      49.28980000
C       43.20060000      49.26040000      50.70970000
C       50.74000000      49.29010000      43.20070000
C       49.26050000      50.71000000      43.20070000
C       49.26000000      49.29000000      56.79930000
C       49.29020000      56.79930000      50.73980000
C       43.20070000      50.73990000      50.70970000
C       49.26000000      50.70990000      56.79930000
C       49.28990000      43.20070000      49.26020000
C       50.71020000      56.79930000      49.26030000
C       50.70980000      43.20060000      50.73970000
C       43.20070000      49.26040000      49.28980000
C       56.79940000      50.73960000      49.29030000
C       56.79930000      49.26010000      50.71020000
C       49.26050000      49.29010000      43.20070000
C       50.74000000      50.71000000      43.20070000
C       50.73950000      49.29000000      56.79930000
C       45.29620000      51.34730000      45.02450000
C       51.34720000      45.02470000      45.29600000
C       45.02450000      45.29610000      51.34690000
C       45.29570000      48.65300000      54.97510000
C       54.70390000      51.34700000      54.97550000
C       54.70420000      48.65280000      45.02480000
C       51.34710000      54.97520000      54.70410000
C       48.65260000      45.02470000      54.70390000
C       48.65320000      54.97540000      45.29590000
C       45.02490000      54.70420000      48.65270000
C       54.97520000      45.29580000      48.65300000
C       54.97540000      54.70390000      51.34740000
C       54.70430000      51.34710000      45.02490000
C       48.65290000      45.02480000      45.29590000
C       54.97510000      45.29580000      51.34730000
C       54.70380000      48.65270000      54.97550000
C       45.29580000      51.34720000      54.97510000
C       45.29610000      48.65300000      45.02450000
C       48.65280000      54.97530000      54.70400000
C       51.34680000      45.02460000      54.70400000
C       51.34740000      54.97530000      45.29600000
C       54.97550000      54.70390000      48.65310000
C       45.02460000      45.29610000      48.65270000
C       45.02480000      54.70420000      51.34700000
C       53.01920000      42.98050000      50.73510000
C       42.98050000      50.73520000      53.01920000
C       50.73540000      53.01940000      42.98060000
C       53.01960000      57.01930000      49.26510000
C       46.98040000      42.98070000      49.26480000
C       46.98080000      57.01950000      50.73500000
C       42.98070000      49.26510000      46.98040000
C       57.01960000      50.73490000      46.98090000
C       57.01930000      49.26470000      53.01970000
C       50.73470000      46.98050000      57.01940000
C       49.26480000      53.01940000      57.01940000
C       49.26510000      46.98070000      42.98060000
C       46.98040000      42.98070000      50.73490000
C       57.01930000      50.73480000      53.01970000
C       49.26530000      53.01950000      42.98060000
C       46.98080000      57.01950000      49.26490000
C       53.01920000      42.98050000      49.26500000
C       53.01960000      57.01930000      50.73520000
C       57.01950000      49.26480000      46.98080000
C       42.98070000      50.73530000      46.98040000
C       42.98050000      49.26510000      53.01910000
C       49.26460000      46.98060000      57.01940000
C       50.73490000      53.01930000      57.01950000
C       50.73520000      46.98060000      42.98060000
C       46.97550000      45.13770000      53.10960000
C       45.13780000      53.10990000      46.97560000
C       53.10990000      46.97570000      45.13770000
C       46.97600000      54.86250000      46.89010000
C       53.02430000      45.13760000      46.89030000
C       53.02430000      54.86220000      53.10990000
C       45.13750000      46.89030000      53.02410000
C       54.86230000      53.10960000      53.02450000
C       54.86240000      46.89010000      46.97590000
C       53.10970000      53.02410000      54.86250000
C       46.89000000      46.97580000      54.86220000
C       46.89050000      53.02440000      45.13760000
C       53.02400000      45.13750000      53.10980000
C       54.86250000      53.10970000      46.97590000
C       46.89030000      46.97590000      45.13750000
C       53.02450000      54.86230000      46.89040000
C       46.97570000      45.13780000      46.89010000
C       46.97570000      54.86240000      53.10970000
C       54.86220000      46.89010000      53.02440000
C       45.13760000      53.10990000      53.02410000
C       45.13770000      46.89040000      46.97550000
C       46.89010000      53.02430000      54.86230000
C       53.10950000      46.97560000      54.86240000
C       53.11000000      53.02420000      45.13780000
C       44.05180000      50.72450000      54.93680000
C       50.72470000      54.93710000      44.05210000
C       54.93690000      44.05190000      50.72450000
C       44.05220000      49.27580000      45.06270000
C       55.94820000      50.72430000      45.06320000
C       55.94780000      49.27540000      54.93730000
C       50.72400000      45.06290000      55.94800000
C       49.27550000      54.93700000      55.94800000
C       49.27570000      45.06300000      44.05200000
C       54.93720000      55.94790000      49.27580000
C       45.06280000      44.05210000      49.27540000
C       45.06310000      55.94810000      50.72420000
C       55.94780000      50.72420000      54.93730000
C       49.27600000      54.93710000      44.05200000
C       45.06280000      44.05210000      50.72420000
C       55.94820000      49.27550000      45.06320000
C       44.05220000      50.72460000      45.06280000
C       44.05180000      49.27570000      54.93680000
C       49.27530000      45.06290000      55.94790000
C       50.72430000      54.93700000      55.94800000
C       50.72450000      45.06300000      44.05200000
C       45.06310000      55.94810000      49.27550000
C       54.93690000      44.05190000      49.27570000
C       54.93720000      55.94780000      50.72460000
C       56.54990000      48.53930000      51.86530000
C       48.53930000      51.86510000      56.54990000
C       51.86530000      56.55000000      48.53960000
C       56.55010000      51.46030000      48.13520000
C       43.45000000      48.53970000      48.13470000
C       43.45000000      51.46070000      51.86490000
C       48.53970000      48.13500000      43.45000000
C       51.46080000      51.86510000      43.45010000
C       51.46020000      48.13480000      56.55000000
C       51.86490000      43.44990000      51.46050000
C       48.13500000      56.55000000      51.46050000
C       48.13480000      43.45010000      48.53940000
C       43.44990000      48.53970000      51.86490000
C       51.46030000      51.86500000      56.55010000
C       48.13510000      56.55010000      48.53950000
C       43.45010000      51.46070000      48.13470000
C       56.55000000      48.53930000      48.13510000
C       56.55000000      51.46030000      51.86530000
C       51.46070000      48.13490000      43.45010000
C       48.53980000      51.86520000      43.45000000
C       48.53920000      48.13490000      56.54990000
C       48.13470000      43.45000000      51.46040000
C       51.86520000      56.54990000      51.46060000
C       51.86500000      43.45000000      48.53950000
C       51.37760000      45.74200000      56.99780000
C       45.74220000      56.99790000      51.37790000
C       56.99800000      51.37790000      45.74230000
C       51.37840000      54.25800000      43.00230000
C       48.62210000      45.74210000      43.00210000
C       48.62180000      54.25800000      56.99780000
C       45.74190000      43.00230000      48.62180000
C       54.25820000      56.99770000      48.62220000
C       54.25770000      43.00210000      51.37810000
C       56.99760000      48.62180000      54.25820000
C       43.00210000      51.37820000      54.25770000
C       43.00230000      48.62220000      45.74180000
C       48.62160000      45.74200000      56.99770000
C       54.25810000      56.99760000      51.37820000
C       43.00240000      51.37820000      45.74180000
C       48.62240000      54.25810000      43.00220000
C       51.37820000      45.74210000      43.00220000
C       51.37790000      54.25790000      56.99790000
C       54.25780000      43.00210000      48.62210000
C       45.74230000      56.99790000      48.62190000
C       45.74180000      43.00230000      51.37780000
C       43.00200000      48.62210000      54.25770000
C       56.99770000      51.37780000      54.25820000
C       56.99790000      48.62180000      45.74230000
C       50.74140000      55.54740000      53.53290000
C       55.54750000      53.53260000      50.74160000
C       53.53260000      50.74130000      55.54760000
C       50.74140000      44.45260000      46.46720000
C       49.25890000      55.54750000      46.46720000
C       49.25830000      44.45250000      53.53270000
C       55.54740000      46.46710000      49.25880000
C       44.45270000      53.53290000      49.25840000
C       44.45240000      46.46730000      50.74120000
C       53.53300000      49.25850000      44.45270000
C       46.46740000      50.74150000      44.45240000
C       46.46700000      49.25860000      55.54730000
C       49.25860000      55.54740000      53.53280000
C       44.45260000      53.53290000      50.74120000
C       46.46700000      50.74150000      55.54730000
C       49.25860000      44.45260000      46.46710000
C       50.74170000      55.54750000      46.46730000
C       50.74110000      44.45250000      53.53280000
C       44.45250000      46.46740000      49.25840000
C       55.54760000      53.53260000      49.25880000
C       55.54730000      46.46710000      50.74160000
C       46.46740000      49.25870000      44.45240000
C       53.53300000      50.74140000      44.45270000
C       53.53260000      49.25850000      55.54760000
C       45.63590000      52.55670000      54.24930000
C       52.55690000      54.24940000      45.63620000
C       54.24920000      45.63590000      52.55670000
C       45.63610000      47.44350000      45.75040000
C       54.36420000      52.55650000      45.75080000
C       54.36370000      47.44320000      54.24950000
C       52.55630000      45.75050000      54.36400000
C       47.44330000      54.24940000      54.36390000
C       47.44340000      45.75070000      45.63590000
C       54.24960000      54.36390000      47.44360000
C       45.75060000      45.63620000      47.44320000
C       45.75060000      54.36410000      52.55650000
C       54.36390000      52.55650000      54.24960000
C       47.44370000      54.24950000      45.63600000
C       45.75040000      45.63610000      52.55640000
C       54.36410000      47.44330000      45.75070000
C       45.63620000      52.55680000      45.75050000
C       45.63580000      47.44350000      54.24920000
C       47.44310000      45.75060000      54.36380000
C       52.55660000      54.24930000      54.36410000
C       52.55670000      45.75060000      45.63610000
C       45.75080000      54.36410000      47.44330000
C       54.24940000      45.63590000      47.44350000
C       54.24940000      54.36380000      52.55680000
C       52.62390000      48.09260000      55.74370000
C       48.09270000      55.74360000      52.62420000
C       55.74370000      52.62400000      48.09290000
C       52.62450000      51.90730000      44.25650000
C       47.37600000      48.09280000      44.25630000
C       47.37560000      51.90740000      55.74350000
C       48.09260000      44.25650000      47.37570000
C       51.90760000      55.74360000      47.37590000
C       51.90710000      44.25630000      52.62420000
C       55.74350000      47.37560000      51.90750000
C       44.25640000      52.62430000      51.90710000
C       44.25640000      47.37600000      48.09240000
C       47.37560000      48.09270000      55.74350000
C       51.90740000      55.74350000      52.62430000
C       44.25650000      52.62440000      48.09250000
C       47.37610000      51.90740000      44.25630000
C       52.62440000      48.09260000      44.25650000
C       52.62400000      51.90720000      55.74370000
C       51.90730000      44.25640000      47.37580000
C       48.09290000      55.74370000      47.37580000
C       48.09240000      44.25640000      52.62410000
C       44.25630000      47.37590000      51.90710000
C       55.74360000      52.62400000      51.90760000
C       55.74360000      47.37570000      48.09280000
