240
Lattice="100.0 0.0 0.0 0.0 100.0 0.0 0.0 0.0 100.0" Properties=species:S:1:pos:R:3 name=C-2509655-3548-77 pressure=-0.0248352290867321 energy=-1764.75075298034 spacegroup=Th times_found=1 pbc="T T T"
C       53.75380000      53.37620000      47.35610000
C       53.37670000      47.35590000      53.75330000
C       47.35730000      53.75400000      53.37700000
C       46.24720000      53.37750000      52.64380000
C       46.24580000      46.62370000      47.35670000
C       53.75320000      46.62260000      52.64340000
C       46.62240000      47.35690000      46.24680000
C       46.62380000      52.64420000      53.75370000
C       53.37700000      52.64300000      46.24620000
C       52.64390000      53.75300000      46.62290000
C       52.64320000      46.24610000      53.37670000
C       47.35560000      46.24690000      46.62340000
C       53.75280000      46.62250000      47.35620000
C       53.37760000      52.64310000      53.75320000
C       47.35610000      46.24700000      53.37710000
C       46.24620000      46.62380000      52.64390000
C       46.24680000      53.37740000      47.35660000
C       53.75420000      53.37630000      52.64330000
C       46.62330000      52.64410000      46.24670000
C       46.62300000      47.35700000      53.75380000
C       53.37620000      47.35580000      46.24630000
C       52.64270000      46.24600000      46.62300000
C       52.64440000      53.75310000      53.37660000
C       47.35680000      53.75390000      46.62330000
C       52.55150000      56.03020000      47.19380000
C       56.03040000      47.19320000      52.55030000
C       47.19490000      52.55130000      56.03080000
C       47.45050000      56.03110000      52.80600000
C       47.44810000      43.96970000      47.19440000
C       52.55000000      43.96900000      52.80580000
C       43.96870000      47.19500000      47.44980000
C       43.96990000      52.80690000      52.55110000
C       56.03090000      52.80490000      47.44880000
C       52.80590000      52.55020000      43.96910000
C       52.80600000      47.44900000      56.03050000
C       47.19320000      47.44960000      43.96960000
C       52.54950000      43.96890000      47.19400000
C       56.03130000      52.80500000      52.55020000
C       47.19410000      47.44980000      56.03090000
C       47.44850000      43.96980000      52.80620000
C       47.45000000      56.03100000      47.19420000
C       52.55190000      56.03030000      52.80560000
C       43.96960000      52.80680000      47.44970000
C       43.96910000      47.19510000      52.55120000
C       56.03010000      47.19310000      47.44890000
C       52.80510000      47.44870000      43.96920000
C       52.80680000      52.55040000      56.03040000
C       47.19400000      52.55100000      43.96950000
C       50.70090000      51.77070000      56.57400000
C       51.77180000      56.57380000      50.69990000
C       56.57430000      50.69920000      51.77020000
C       49.29960000      51.77070000      43.42590000
C       49.30000000      48.22950000      56.57420000
C       50.69940000      48.22900000      43.42590000
C       48.23030000      56.57440000      49.29980000
C       48.22830000      43.42620000      50.70040000
C       51.76960000      43.42560000      49.29980000
C       43.42590000      50.70120000      48.22970000
C       43.42590000      49.30090000      51.77120000
C       56.57380000      49.29880000      48.22880000
C       50.70040000      48.22930000      56.57410000
C       51.76970000      43.42560000      50.70020000
C       56.57410000      49.29880000      51.77030000
C       49.29910000      48.22930000      43.42600000
C       49.30060000      51.77100000      56.57410000
C       50.70000000      51.77050000      43.42580000
C       48.22820000      43.42620000      49.30010000
C       48.23040000      56.57440000      50.70020000
C       51.77170000      56.57380000      49.29960000
C       43.42570000      49.30080000      48.22980000
C       43.42620000      50.70120000      51.77120000
C       56.57410000      50.69910000      48.22880000
C       48.63530000      44.83120000      45.27140000
C       44.83020000      45.27200000      48.63690000
C       45.27060000      48.63710000      44.83140000
C       51.36310000      44.83090000      54.72880000
C       51.36400000      55.16870000      45.27100000
C       48.63760000      55.16930000      54.72880000
C       55.16830000      45.27040000      51.36330000
C       55.16960000      54.72790000      48.63600000
C       44.83190000      54.72960000      51.36390000
C       54.72900000      48.63580000      55.16860000
C       54.72860000      51.36270000      44.83070000
C       45.27180000      51.36440000      55.16930000
C       48.63690000      55.16910000      45.27120000
C       44.83170000      54.72960000      48.63670000
C       45.27100000      51.36420000      44.83140000
C       51.36470000      55.16880000      54.72860000
C       51.36240000      44.83070000      45.27120000
C       48.63600000      44.83130000      54.72900000
C       55.16980000      54.72800000      51.36310000
C       55.16810000      45.27040000      48.63610000
C       44.83040000      45.27210000      51.36400000
C       54.72940000      51.36290000      55.16860000
C       54.72820000      48.63560000      44.83070000
C       45.27140000      48.63730000      55.16930000
C       56.28310000      45.82940000      49.31650000
C       45.83080000      49.31770000      56.28420000
C       49.31760000      56.28390000      45.83040000
C       43.71550000      45.83140000      50.68370000
C       43.71680000      54.17060000      49.31730000
C       56.28460000      54.16860000      50.68260000
C       54.16900000      49.31610000      43.71590000
C       54.17020000      50.68260000      56.28350000
C       45.83010000      50.68370000      43.71640000
C       50.68440000      56.28380000      54.16940000
C       50.68180000      43.71600000      45.83050000
C       49.31620000      43.71630000      54.16970000
C       56.28450000      54.16860000      49.31630000
C       45.83100000      50.68390000      56.28410000
C       49.31560000      43.71620000      45.83060000
C       43.71690000      54.17060000      50.68350000
C       43.71540000      45.83140000      49.31740000
C       56.28320000      45.82940000      50.68270000
C       54.16920000      50.68230000      43.71580000
C       54.16990000      49.31630000      56.28360000
C       45.82980000      49.31740000      43.71650000
C       50.68240000      43.71610000      54.16960000
C       50.68380000      56.28370000      45.83030000
C       49.31820000      56.28400000      54.16950000
C       56.94210000      48.30120000      50.71730000
C       48.30290000      50.71810000      56.94240000
C       50.71870000      56.94220000      48.30210000
C       43.05740000      48.30330000      49.28280000
C       43.05800000      51.69890000      50.71820000
C       56.94250000      51.69660000      49.28170000
C       51.69740000      50.71730000      43.05750000
C       51.69810000      49.28210000      56.94220000
C       48.30160000      49.28240000      43.05780000
C       49.28350000      56.94250000      51.69770000
C       49.28100000      43.05780000      48.30240000
C       50.71680000      43.05760000      51.69780000
C       56.94260000      51.69670000      50.71720000
C       48.30260000      49.28270000      56.94250000
C       50.71650000      43.05750000      48.30230000
C       43.05790000      51.69880000      49.28270000
C       43.05750000      48.30340000      50.71830000
C       56.94200000      48.30110000      49.28180000
C       51.69710000      49.28190000      43.05760000
C       51.69840000      50.71760000      56.94220000
C       48.30190000      50.71790000      43.05780000
C       49.28130000      43.05780000      51.69790000
C       49.28320000      56.94240000      48.30220000
C       50.71900000      56.94220000      51.69760000
C       50.72160000      45.91100000      44.53410000
C       45.91040000      44.53470000      50.72310000
C       44.53390000      50.72350000      45.91160000
C       49.27710000      45.91150000      55.46610000
C       49.27760000      54.08880000      44.53410000
C       50.72370000      54.08870000      55.46580000
C       54.08780000      44.53340000      49.27710000
C       54.08970000      55.46530000      50.72230000
C       45.91210000      55.46660000      49.27750000
C       55.46630000      50.72190000      54.08830000
C       55.46550000      49.27640000      45.91090000
C       44.53430000      49.27830000      54.08920000
C       50.72290000      54.08850000      44.53390000
C       45.91220000      55.46660000      50.72290000
C       44.53370000      49.27810000      45.91170000
C       49.27840000      54.08900000      55.46590000
C       49.27630000      45.91130000      44.53420000
C       50.72240000      45.91120000      55.46590000
C       54.08960000      55.46530000      49.27690000
C       54.08790000      44.53340000      50.72250000
C       45.91030000      44.53470000      49.27770000
C       55.46610000      49.27650000      54.08840000
C       55.46570000      50.72170000      45.91080000
C       44.53450000      50.72360000      54.08910000
C       55.02040000      46.14130000      47.51470000
C       46.14220000      47.51570000      55.02150000
C       47.51550000      55.02150000      46.14230000
C       44.97840000      46.14300000      52.48550000
C       44.97930000      53.85860000      47.51530000
C       55.02200000      53.85710000      52.48460000
C       53.85710000      47.51430000      44.97860000
C       53.85860000      52.48450000      55.02080000
C       46.14220000      52.48550000      44.97910000
C       52.48610000      55.02080000      53.85750000
C       52.48390000      44.97840000      46.14210000
C       47.51450000      44.97930000      53.85810000
C       55.02160000      53.85700000      47.51450000
C       46.14290000      52.48570000      55.02140000
C       47.51390000      44.97920000      46.14250000
C       44.97960000      53.85870000      52.48530000
C       44.97800000      46.14290000      47.51540000
C       55.02070000      46.14140000      52.48470000
C       53.85780000      52.48430000      44.97850000
C       53.85780000      47.51450000      55.02090000
C       46.14140000      47.51550000      44.97920000
C       52.48450000      44.97850000      53.85770000
C       52.48550000      55.02070000      46.14190000
C       47.51610000      55.02160000      53.85790000
C       52.92600000      43.99520000      51.40810000
C       43.99600000      51.40920000      52.92730000
C       51.40820000      52.92650000      43.99540000
C       47.07210000      43.99600000      48.59220000
C       47.07420000      56.00490000      51.40830000
C       52.92770000      56.00390000      48.59150000
C       56.00440000      51.40720000      47.07270000
C       56.00440000      48.59090000      52.92640000
C       43.99520000      48.59270000      47.07360000
C       48.59270000      52.92720000      56.00450000
C       48.59090000      47.07330000      43.99580000
C       51.40810000      47.07300000      56.00440000
C       52.92790000      56.00400000      51.40780000
C       43.99560000      48.59280000      52.92730000
C       51.40730000      47.07280000      43.99550000
C       47.07400000      56.00480000      48.59190000
C       47.07230000      43.99610000      51.40850000
C       52.92580000      43.99510000      48.59170000
C       56.00400000      48.59080000      47.07270000
C       56.00480000      51.40730000      52.92640000
C       43.99560000      51.40910000      47.07360000
C       48.59180000      47.07350000      56.00460000
C       48.59190000      52.92700000      43.99560000
C       51.40910000      52.92670000      56.00420000
C       48.66240000      56.73450000      47.03480000
C       56.73370000      47.03370000      48.66110000
C       47.03510000      48.66210000      56.73460000
C       51.33980000      56.73420000      52.96490000
C       51.33720000      43.26540000      47.03490000
C       48.66070000      43.26600000      52.96540000
C       43.26530000      47.03590000      51.33900000
C       43.26610000      52.96620000      48.66200000
C       56.73490000      52.96410000      51.33790000
C       52.96450000      48.66090000      43.26550000
C       52.96590000      51.33810000      56.73410000
C       47.03460000      51.33880000      43.26590000
C       48.66020000      43.26580000      47.03510000
C       56.73470000      52.96410000      48.66100000
C       47.03550000      51.33910000      56.73450000
C       51.33760000      43.26550000      52.96520000
C       51.33930000      56.73400000      47.03460000
C       48.66280000      56.73460000      52.96510000
C       43.26630000      52.96630000      51.33890000
C       43.26510000      47.03590000      48.66210000
C       56.73390000      47.03380000      51.33800000
C       52.96490000      51.33790000      43.26540000
C       52.96540000      48.66120000      56.73410000
C       47.03410000      48.66190000      43.26590000
