240
Lattice="100.0 0.0 0.0 0.0 100.0 0.0 0.0 0.0 100.0" Properties=species:S:1:pos:R:3 name=C-2509655-3548-1217 pressure=0.342118376344742 energy=-1865.40672404062 spacegroup=Oh times_found=1 pbc="T T T"
C       56.82420000      51.74790000      50.70050000
C       50.69920000      56.82440000      51.74780000
C       51.74680000      50.69960000      56.82460000
C       43.17550000      51.74700000      49.29970000
C       56.82460000      48.25310000      49.30070000
C       43.17570000      48.25200000      50.69910000
C       49.29980000      56.82440000      48.25280000
C       50.70050000      43.17570000      48.25230000
C       49.30050000      43.17550000      51.74710000
C       48.25310000      50.70000000      43.17550000
C       51.74810000      49.30060000      43.17570000
C       48.25200000      49.29970000      56.82420000
C       56.82450000      48.25300000      50.70030000
C       50.70020000      43.17560000      51.74720000
C       51.74690000      49.30000000      56.82450000
C       43.17580000      48.25210000      49.29950000
C       56.82430000      51.74800000      49.30090000
C       43.17540000      51.74690000      50.69930000
C       49.30080000      43.17560000      48.25220000
C       50.69950000      56.82450000      48.25290000
C       49.29950000      56.82430000      51.74770000
C       48.25320000      49.30040000      43.17540000
C       51.74800000      50.70030000      43.17580000
C       48.25190000      50.69940000      56.82430000
C       50.70060000      48.25290000      43.17560000
C       43.17570000      50.69940000      48.25200000
C       48.25300000      43.17540000      50.69930000
C       49.29970000      48.25220000      56.82430000
C       50.69910000      51.74720000      56.82450000
C       49.30070000      51.74770000      43.17560000
C       56.82420000      50.70020000      51.74810000
C       43.17550000      49.29960000      51.74680000
C       56.82460000      49.30080000      48.25310000
C       51.74800000      43.17580000      49.30000000
C       48.25210000      56.82430000      49.30040000
C       51.74690000      56.82450000      50.70030000
C       50.70030000      51.74780000      43.17570000
C       43.17580000      49.29980000      48.25190000
C       48.25200000      56.82420000      50.70000000
C       49.29940000      51.74710000      56.82440000
C       50.69930000      48.25230000      56.82440000
C       49.30090000      48.25280000      43.17550000
C       56.82430000      49.30060000      51.74800000
C       43.17540000      50.69920000      51.74690000
C       56.82450000      50.70040000      48.25320000
C       51.74700000      56.82460000      49.30070000
C       48.25310000      43.17550000      49.29970000
C       51.74790000      43.17570000      50.69960000
C       56.39030000      52.96830000      51.34770000
C       51.34630000      56.39060000      52.96830000
C       52.96720000      51.34690000      56.39090000
C       43.60930000      52.96750000      48.65260000
C       56.39090000      47.03270000      48.65340000
C       43.60950000      47.03160000      51.34630000
C       48.65280000      56.39060000      47.03230000
C       51.34770000      43.60960000      47.03190000
C       48.65320000      43.60920000      52.96740000
C       47.03260000      51.34710000      43.60920000
C       52.96850000      48.65350000      43.60960000
C       47.03170000      48.65250000      56.39030000
C       56.39070000      47.03250000      51.34740000
C       51.34720000      43.60940000      52.96770000
C       52.96740000      48.65290000      56.39080000
C       43.60970000      47.03170000      48.65230000
C       56.39050000      52.96840000      48.65370000
C       43.60910000      52.96730000      51.34660000
C       48.65370000      43.60940000      47.03170000
C       51.34680000      56.39080000      47.03260000
C       48.65230000      56.39040000      52.96810000
C       47.03280000      48.65310000      43.60910000
C       52.96830000      51.34750000      43.60970000
C       47.03150000      51.34650000      56.39040000
C       55.80440000      49.28540000      54.07850000
C       54.07760000      55.80510000      49.28580000
C       49.28440000      54.07770000      55.80490000
C       44.19570000      49.28500000      45.92140000
C       55.80500000      50.71540000      45.92250000
C       44.19490000      50.71420000      54.07750000
C       45.92150000      55.80440000      50.71470000
C       54.07840000      44.19560000      50.71490000
C       45.92250000      44.19500000      49.28450000
C       50.71500000      54.07840000      44.19550000
C       49.28600000      45.92220000      44.19500000
C       50.71460000      45.92180000      55.80460000
C       55.80430000      50.71500000      54.07860000
C       54.07850000      44.19560000      49.28530000
C       49.28500000      45.92160000      55.80450000
C       44.19560000      50.71460000      45.92150000
C       55.80510000      49.28580000      45.92250000
C       44.19500000      49.28460000      54.07750000
C       45.92240000      44.19490000      50.71420000
C       54.07750000      55.80500000      50.71550000
C       45.92160000      55.80440000      49.28510000
C       50.71560000      45.92230000      44.19510000
C       49.28540000      54.07820000      44.19540000
C       50.71400000      54.07780000      55.80500000
C       46.54140000      53.45740000      55.19960000
C       55.19970000      46.54230000      53.45820000
C       53.45780000      55.20020000      46.54260000
C       53.45810000      53.45840000      44.80070000
C       46.54280000      46.54210000      44.79980000
C       53.45770000      46.54210000      55.19990000
C       44.80080000      46.54190000      46.54140000
C       55.19980000      53.45850000      46.54270000
C       44.79970000      53.45740000      53.45760000
C       46.54140000      55.19930000      53.45790000
C       53.45800000      44.80030000      53.45800000
C       46.54280000      44.80010000      46.54150000
C       46.54190000      46.54160000      55.19930000
C       55.19920000      53.45810000      53.45860000
C       53.45860000      44.80070000      46.54210000
C       53.45860000      46.54260000      44.80040000
C       46.54230000      53.45790000      44.80010000
C       53.45720000      53.45790000      55.20020000
C       44.80030000      53.45770000      46.54180000
C       55.20030000      46.54260000      46.54240000
C       44.80020000      46.54150000      53.45730000
C       46.54220000      44.79980000      53.45740000
C       53.45720000      55.19990000      53.45850000
C       46.54200000      55.19970000      46.54200000
C       54.60730000      52.83840000      45.39340000
C       45.39230000      54.60660000      52.83760000
C       52.83770000      45.39290000      54.60710000
C       45.39230000      52.83720000      54.60680000
C       54.60690000      47.16230000      54.60740000
C       45.39350000      47.16210000      45.39230000
C       54.60700000      54.60760000      47.16280000
C       45.39350000      45.39270000      47.16160000
C       54.60720000      45.39310000      52.83800000
C       47.16300000      45.39290000      45.39240000
C       52.83790000      54.60750000      45.39340000
C       47.16150000      54.60670000      54.60710000
C       54.60770000      47.16280000      45.39320000
C       45.39300000      45.39240000      52.83720000
C       52.83700000      54.60710000      54.60760000
C       45.39270000      47.16160000      54.60660000
C       54.60650000      52.83790000      54.60770000
C       45.39310000      52.83770000      45.39260000
C       54.60770000      45.39340000      47.16240000
C       45.39280000      54.60690000      47.16200000
C       54.60650000      54.60730000      52.83840000
C       47.16230000      54.60710000      45.39290000
C       52.83850000      45.39330000      45.39290000
C       47.16210000      45.39250000      54.60660000
C       47.03250000      43.60910000      51.34640000
C       51.34780000      47.03250000      43.60940000
C       43.60960000      51.34670000      47.03160000
C       52.96850000      43.60970000      48.65300000
C       47.03180000      56.39040000      48.65300000
C       52.96730000      56.39080000      51.34760000
C       48.65270000      47.03170000      56.39030000
C       51.34620000      52.96770000      56.39090000
C       48.65340000      52.96810000      43.60940000
C       56.39020000      51.34730000      52.96850000
C       43.60920000      48.65240000      52.96720000
C       56.39100000      48.65360000      47.03260000
C       47.03150000      56.39030000      51.34700000
C       51.34730000      52.96830000      43.60970000
C       43.60980000      48.65270000      47.03150000
C       52.96750000      56.39090000      48.65360000
C       47.03270000      43.60920000      48.65240000
C       52.96820000      43.60960000      51.34700000
C       48.65220000      52.96750000      56.39060000
C       51.34660000      47.03190000      56.39060000
C       48.65380000      47.03230000      43.60910000
C       56.39040000      48.65330000      52.96840000
C       43.60900000      51.34640000      52.96740000
C       56.39080000      51.34760000      47.03280000
C       55.80450000      54.07850000      49.28590000
C       49.28440000      55.80450000      54.07820000
C       54.07760000      49.28520000      55.80510000
C       44.19490000      54.07750000      50.71450000
C       55.80500000      45.92240000      50.71510000
C       44.19560000      45.92160000      49.28450000
C       50.71470000      55.80500000      45.92230000
C       49.28600000      44.19540000      45.92160000
C       50.71490000      44.19510000      54.07780000
C       45.92260000      49.28520000      44.19490000
C       54.07850000      50.71540000      44.19570000
C       45.92140000      50.71420000      55.80440000
C       55.80510000      45.92250000      49.28550000
C       49.28530000      44.19500000      54.07770000
C       54.07740000      50.71480000      55.80510000
C       44.19550000      45.92150000      50.71410000
C       55.80440000      54.07840000      50.71550000
C       44.19500000      54.07760000      49.28490000
C       50.71560000      44.19550000      45.92180000
C       49.28510000      55.80490000      45.92220000
C       50.71400000      55.80460000      54.07840000
C       45.92240000      50.71480000      44.19490000
C       54.07860000      49.28580000      44.19560000
C       45.92150000      49.28460000      55.80430000
C       52.71100000      52.71110000      43.87900000
C       43.87820000      52.71000000      52.71020000
C       52.71080000      43.87870000      52.71060000
C       47.28860000      52.71010000      56.12120000
C       52.71030000      47.28930000      56.12150000
C       47.29010000      47.28950000      43.87830000
C       56.12140000      52.71120000      47.29010000
C       43.87910000      47.28900000      47.28870000
C       56.12130000      47.28970000      52.71100000
C       47.29010000      43.87860000      47.28880000
C       52.71040000      56.12170000      47.28990000
C       47.28870000      56.12100000      52.71070000
C       52.71140000      47.28990000      43.87880000
C       43.87860000      47.28880000      52.70990000
C       52.70990000      56.12140000      52.71120000
C       47.28900000      47.28890000      56.12100000
C       52.70990000      52.71050000      56.12170000
C       47.28970000      52.71070000      43.87850000
C       56.12180000      47.29000000      47.28980000
C       43.87870000      52.71030000      47.28900000
C       56.12090000      52.71100000      52.71130000
C       47.28920000      56.12130000      47.28940000
C       52.71130000      43.87900000      47.28930000
C       47.28960000      43.87830000      52.71010000
C       54.91520000      48.53520000      54.91590000
C       54.91530000      54.91600000      48.53570000
C       48.53430000      54.91520000      54.91570000
C       45.08500000      48.53490000      45.08390000
C       54.91590000      51.46550000      45.08490000
C       45.08390000      51.46430000      54.91520000
C       45.08390000      54.91510000      51.46470000
C       54.91580000      45.08470000      51.46510000
C       45.08490000      45.08410000      48.53440000
C       51.46500000      54.91590000      45.08480000
C       48.53590000      45.08460000      45.08410000
C       51.46490000      45.08430000      54.91550000
C       54.91500000      51.46510000      54.91610000
C       54.91610000      45.08490000      48.53530000
C       48.53500000      45.08410000      54.91520000
C       45.08480000      51.46480000      45.08410000
C       54.91610000      48.53570000      45.08480000
C       45.08410000      48.53450000      54.91510000
C       45.08470000      45.08400000      51.46430000
C       54.91510000      54.91590000      51.46560000
C       45.08420000      54.91530000      48.53490000
C       51.46570000      45.08480000      45.08430000
C       48.53510000      54.91570000      45.08450000
C       51.46410000      54.91540000      54.91590000
