240
Lattice="100.0 0.0 0.0 0.0 100.0 0.0 0.0 0.0 100.0" Properties=species:S:1:pos:R:3 name=C-2509655-3548-1461 pressure=-0.0317238245287858 spacegroup=Td times_found=1 energy=-1768.37185677225 pbc="T T T"
C       51.78440000      46.25850000      44.18530000
C       44.18540000      51.78480000      46.25840000
C       46.25820000      44.18540000      51.78430000
C       51.78430000      53.74120000      55.81490000
C       48.21630000      53.74110000      44.18480000
C       48.21500000      46.25920000      55.81500000
C       44.18470000      48.21630000      53.74090000
C       55.81500000      48.21500000      46.25920000
C       55.81490000      51.78390000      53.74140000
C       46.25950000      55.81520000      48.21520000
C       53.74160000      55.81470000      51.78440000
C       53.74070000      44.18460000      48.21610000
C       51.78400000      44.18480000      46.25910000
C       44.18460000      46.25940000      51.78410000
C       46.25940000      51.78450000      44.18480000
C       51.78470000      55.81490000      53.74110000
C       48.21490000      44.18530000      53.74120000
C       48.21640000      55.81500000      46.25850000
C       44.18550000      53.74160000      48.21520000
C       55.81470000      46.25830000      48.21610000
C       55.81520000      53.74070000      51.78460000
C       46.25830000      48.21620000      55.81480000
C       53.74100000      51.78420000      55.81510000
C       53.74130000      48.21510000      44.18530000
C       43.48980000      51.53730000      52.54030000
C       52.54010000      43.48960000      51.53700000
C       51.53720000      52.54040000      43.48980000
C       43.48980000      48.46390000      47.45890000
C       56.50990000      48.46290000      52.54120000
C       56.51050000      51.53590000      47.45960000
C       52.54140000      56.50990000      48.46330000
C       47.45980000      56.51050000      51.53620000
C       47.45880000      43.49000000      48.46350000
C       51.53600000      47.45930000      56.51040000
C       48.46350000      47.45920000      43.48980000
C       48.46320000      52.54110000      56.51000000
C       43.49000000      52.54140000      51.53610000
C       52.54130000      51.53620000      43.48990000
C       51.53590000      43.48980000      52.54110000
C       43.48970000      47.45980000      48.46310000
C       56.51050000      52.54010000      48.46370000
C       56.50990000      47.45870000      51.53710000
C       52.54020000      48.46340000      56.51040000
C       47.45900000      51.53710000      56.51000000
C       47.45950000      48.46340000      43.48970000
C       51.53740000      56.51000000      47.45910000
C       48.46290000      43.48990000      47.45940000
C       48.46380000      56.51040000      52.54040000
C       50.20260000      43.00040000      52.24210000
C       52.24230000      50.20290000      43.00040000
C       43.00050000      52.24250000      50.20290000
C       50.20410000      56.99960000      47.75800000
C       49.79710000      56.99980000      52.24160000
C       49.79610000      43.00020000      47.75840000
C       52.24140000      49.79670000      56.99980000
C       47.75860000      49.79660000      43.00020000
C       47.75780000      50.20380000      56.99960000
C       43.00010000      47.75880000      49.79630000
C       56.99950000      47.75760000      50.20390000
C       56.99990000      52.24120000      49.79700000
C       50.20400000      52.24160000      43.00020000
C       52.24120000      43.00010000      50.20370000
C       43.00020000      50.20410000      52.24140000
C       50.20280000      47.75840000      56.99980000
C       49.79640000      52.24210000      56.99960000
C       49.79680000      47.75800000      43.00040000
C       52.24250000      56.99950000      49.79650000
C       47.75760000      43.00050000      49.79670000
C       47.75880000      56.99990000      50.20300000
C       43.00040000      49.79720000      47.75780000
C       56.99990000      50.20270000      47.75860000
C       56.99960000      49.79610000      52.24220000
C       49.99320000      57.57220000      51.01870000
C       51.01860000      49.99280000      57.57220000
C       57.57230000      51.01830000      49.99300000
C       49.99200000      42.42780000      48.98130000
C       50.00660000      42.42790000      51.01930000
C       50.00810000      57.57210000      48.98070000
C       51.01950000      50.00700000      42.42790000
C       48.98050000      50.00770000      57.57210000
C       48.98140000      49.99250000      42.42780000
C       57.57210000      48.98030000      50.00790000
C       42.42770000      48.98170000      49.99220000
C       42.42790000      51.01970000      50.00690000
C       49.99230000      51.01930000      57.57210000
C       51.01970000      57.57210000      49.99240000
C       57.57210000      49.99200000      51.01950000
C       49.99300000      48.98070000      42.42790000
C       50.00790000      51.01870000      42.42780000
C       50.00680000      48.98130000      57.57220000
C       51.01830000      42.42770000      50.00770000
C       48.98170000      57.57230000      50.00710000
C       48.98030000      42.42790000      49.99280000
C       57.57220000      50.00670000      48.98140000
C       42.42790000      49.99330000      48.98050000
C       42.42780000      50.00810000      51.01860000
C       50.69640000      45.32820000      55.64290000
C       55.64310000      50.69650000      45.32840000
C       45.32860000      55.64320000      50.69670000
C       50.69800000      54.67160000      44.35720000
C       49.30290000      54.67220000      55.64250000
C       49.30270000      45.32800000      44.35740000
C       55.64240000      49.30240000      54.67230000
C       44.35750000      49.30310000      45.32780000
C       44.35710000      50.69790000      54.67150000
C       45.32760000      44.35770000      49.30270000
C       54.67130000      44.35690000      50.69770000
C       54.67250000      55.64230000      49.30290000
C       50.69800000      55.64250000      45.32800000
C       55.64230000      45.32760000      50.69770000
C       45.32780000      50.69780000      55.64240000
C       50.69640000      44.35740000      54.67210000
C       49.30300000      55.64290000      54.67170000
C       49.30260000      44.35720000      45.32830000
C       55.64320000      54.67140000      49.30300000
C       44.35690000      45.32860000      49.30260000
C       44.35770000      54.67240000      50.69670000
C       45.32840000      49.30300000      44.35700000
C       54.67230000      50.69660000      44.35750000
C       54.67150000      49.30260000      55.64300000
C       50.89030000      46.91430000      43.30000000
C       43.30010000      50.89070000      46.91410000
C       46.91390000      43.30020000      50.89020000
C       50.89000000      53.08560000      56.70010000
C       49.11050000      53.08530000      43.29970000
C       49.10920000      46.91490000      56.70020000
C       43.29960000      49.11060000      53.08510000
C       56.70020000      49.10910000      46.91500000
C       56.70000000      50.88970000      53.08580000
C       46.91520000      56.70040000      49.10940000
C       53.08600000      56.69990000      50.89010000
C       53.08490000      43.29960000      49.11030000
C       50.88970000      43.29970000      46.91480000
C       43.29950000      46.91520000      50.88990000
C       46.91500000      50.89020000      43.29970000
C       50.89060000      56.70020000      53.08530000
C       49.10910000      43.30010000      53.08560000
C       49.11060000      56.70010000      46.91430000
C       43.30020000      53.08600000      49.10930000
C       56.69990000      46.91390000      49.11030000
C       56.70040000      53.08490000      50.89050000
C       46.91410000      49.11030000      56.70000000
C       53.08510000      50.89010000      56.70030000
C       53.08580000      49.10930000      43.30010000
C       47.13490000      53.85070000      45.13300000
C       45.13280000      47.13480000      53.85040000
C       53.85030000      45.13290000      47.13460000
C       47.13360000      46.14980000      54.86660000
C       52.86570000      46.14900000      45.13360000
C       52.86580000      53.85050000      54.86670000
C       45.13380000      52.86610000      46.14900000
C       54.86670000      52.86540000      53.85080000
C       54.86660000      47.13370000      46.14980000
C       53.85090000      54.86640000      52.86580000
C       46.15000000      54.86690000      47.13380000
C       46.14880000      45.13380000      52.86570000
C       47.13360000      45.13370000      53.85060000
C       45.13390000      53.85090000      47.13380000
C       53.85060000      47.13370000      45.13370000
C       47.13490000      54.86680000      46.14910000
C       52.86550000      45.13290000      46.14970000
C       52.86600000      54.86650000      53.85060000
C       45.13280000      46.14990000      52.86560000
C       54.86680000      53.85030000      52.86590000
C       54.86650000      46.14890000      47.13470000
C       53.85060000      52.86560000      54.86680000
C       46.14880000      47.13480000      54.86650000
C       46.14990000      52.86590000      45.13300000
C       52.90300000      45.06780000      53.91210000
C       53.91230000      52.90320000      45.06800000
C       45.06810000      53.91230000      52.90330000
C       52.90440000      54.93170000      46.08820000
C       47.09650000      54.93250000      53.91140000
C       47.09610000      45.06800000      46.08820000
C       53.91120000      47.09610000      54.93240000
C       46.08830000      47.09650000      45.06780000
C       46.08820000      52.90420000      54.93180000
C       45.06770000      46.08860000      47.09610000
C       54.93160000      46.08790000      52.90420000
C       54.93260000      53.91120000      47.09640000
C       52.90440000      53.91130000      45.06790000
C       53.91120000      45.06760000      52.90410000
C       45.06790000      52.90430000      53.91140000
C       52.90310000      46.08810000      54.93240000
C       47.09630000      53.91220000      54.93180000
C       47.09620000      46.08830000      45.06780000
C       53.91240000      54.93170000      47.09630000
C       46.08790000      45.06810000      47.09620000
C       46.08850000      54.93260000      52.90330000
C       45.06790000      47.09660000      46.08800000
C       54.93260000      52.90310000      46.08840000
C       54.93160000      47.09600000      53.91220000
C       53.74730000      44.22300000      51.76090000
C       51.76110000      53.74750000      44.22330000
C       44.22330000      51.76110000      53.74750000
C       53.74850000      55.77630000      48.23960000
C       46.25250000      55.77710000      51.76000000
C       46.25170000      44.22360000      48.23950000
C       51.75970000      46.25220000      55.77690000
C       48.23960000      46.25210000      44.22330000
C       48.23960000      53.74820000      55.77640000
C       44.22340000      48.24000000      46.25180000
C       55.77630000      48.23920000      53.74830000
C       55.77710000      51.75980000      46.25240000
C       53.74840000      51.75990000      44.22350000
C       51.75970000      44.22330000      53.74820000
C       44.22360000      53.74850000      51.76000000
C       53.74740000      48.23940000      55.77700000
C       46.25190000      51.76100000      55.77640000
C       46.25230000      48.23970000      44.22320000
C       51.76120000      55.77640000      46.25200000
C       48.23930000      44.22340000      46.25220000
C       48.23990000      55.77700000      53.74760000
C       44.22310000      46.25260000      48.23940000
C       55.77710000      53.74730000      48.23980000
C       55.77620000      46.25160000      51.76090000
C       49.42920000      43.86550000      54.28890000
C       54.28910000      49.42940000      43.86560000
C       43.86570000      54.28930000      49.42950000
C       49.43080000      56.13460000      45.71100000
C       50.57030000      56.13480000      54.28860000
C       50.56970000      43.86510000      45.71150000
C       54.28850000      50.56980000      56.13490000
C       45.71160000      50.57020000      43.86500000
C       45.71080000      49.43060000      56.13440000
C       43.86490000      45.71180000      50.56980000
C       56.13430000      45.71070000      49.43050000
C       56.13500000      54.28820000      50.57020000
C       49.43080000      54.28860000      43.86510000
C       54.28820000      43.86490000      49.43050000
C       43.86500000      49.43070000      54.28840000
C       49.42930000      45.71150000      56.13480000
C       50.57000000      54.28890000      56.13460000
C       50.56990000      45.71100000      43.86550000
C       54.28930000      56.13430000      50.57000000
C       45.71060000      43.86570000      50.56990000
C       45.71180000      56.13500000      49.42960000
C       43.86560000      50.57040000      45.71080000
C       56.13490000      49.42930000      45.71160000
C       56.13450000      50.56960000      54.28910000
