240
Lattice="100.0 0.0 0.0 0.0 100.0 0.0 0.0 0.0 100.0" Properties=species:S:1:pos:R:3 name=C-2509655-3548-550 pressure=0.0657277990270866 energy=-1813.34118055084 spacegroup=Oh times_found=1 pbc="T T T"
C       43.63270000      48.64810000      47.63210000
C       47.63440000      43.62990000      48.65700000
C       48.65410000      47.62630000      43.63350000
C       56.36700000      51.34910000      47.62970000
C       56.36890000      48.65820000      52.36950000
C       43.63140000      51.34460000      52.36870000
C       52.36540000      56.36850000      48.64920000
C       52.37290000      43.63420000      51.35050000
C       47.62730000      56.36740000      51.34330000
C       51.34510000      52.36610000      43.63060000
C       51.34860000      47.63540000      56.36930000
C       48.65220000      52.37210000      56.36660000
C       48.65660000      43.62990000      47.63470000
C       43.63330000      47.62640000      48.65490000
C       47.63120000      48.64800000      43.63300000
C       51.34310000      56.36730000      47.62700000
C       48.64960000      56.36860000      52.36550000
C       51.35070000      43.63420000      52.37280000
C       56.36650000      52.37200000      48.65130000
C       43.63080000      52.36630000      51.34590000
C       56.36940000      47.63530000      51.34790000
C       52.36800000      51.34450000      43.63110000
C       47.63050000      51.34930000      56.36730000
C       52.37030000      48.65830000      56.36860000
C       47.24500000      54.77090000      53.74540000
C       53.75000000      47.25250000      54.77170000
C       54.76800000      53.74920000      47.24500000
C       52.75540000      45.23350000      53.75070000
C       52.74950000      54.76970000      46.24890000
C       47.25010000      45.22590000      46.25490000
C       46.25060000      52.75310000      54.76890000
C       46.25320000      47.24260000      45.23150000
C       53.74620000      52.75180000      45.22780000
C       45.23170000      46.24760000      47.25010000
C       45.22770000      53.74700000      52.75050000
C       54.77260000      46.25630000      52.75440000
C       54.77210000      47.25250000      53.74940000
C       47.24570000      53.74930000      54.76830000
C       53.74520000      54.77080000      47.24450000
C       45.22830000      52.75190000      53.74670000
C       54.76850000      52.75300000      46.25000000
C       45.23100000      47.24260000      46.25390000
C       52.75490000      46.25630000      54.77240000
C       47.24940000      46.24750000      45.23210000
C       52.75000000      53.74680000      45.22730000
C       46.25450000      45.22590000      47.25060000
C       53.75100000      45.23350000      52.75500000
C       46.24940000      54.76980000      52.74990000
C       51.02440000      42.19710000      50.00460000
C       49.99890000      51.01530000      42.19590000
C       42.19660000      49.99610000      51.02040000
C       48.97560000      57.80290000      49.99540000
C       48.98450000      42.19590000      50.00470000
C       51.01550000      57.80410000      49.99530000
C       50.00010000      48.97540000      42.19710000
C       49.99990000      51.02460000      57.80290000
C       50.00110000      48.98470000      57.80410000
C       57.80360000      50.00510000      51.01950000
C       57.80340000      50.00390000      48.97960000
C       42.19640000      49.99490000      48.98050000
C       42.19590000      51.01550000      49.99990000
C       51.01950000      49.99600000      42.19640000
C       50.00460000      42.19710000      51.02460000
C       57.80410000      48.98450000      50.00010000
C       42.19710000      48.97560000      50.00110000
C       57.80290000      51.02440000      49.99890000
C       48.97960000      49.99480000      42.19660000
C       51.02040000      50.00520000      57.80340000
C       48.98050000      50.00400000      57.80360000
C       49.99560000      57.80410000      51.01530000
C       49.99540000      57.80290000      48.97540000
C       50.00440000      42.19590000      48.98470000
C       50.00160000      47.93160000      56.90440000
C       56.90310000      50.00270000      47.92700000
C       47.92350000      56.90200000      49.99600000
C       49.99920000      52.07660000      56.90200000
C       50.00080000      47.92340000      43.09800000
C       49.99840000      52.06840000      43.09560000
C       43.09670000      49.99480000      47.92790000
C       43.09690000      49.99730000      52.07300000
C       56.90330000      50.00520000      52.07210000
C       52.07650000      43.09800000      50.00400000
C       52.06850000      56.90440000      49.99580000
C       47.93150000      43.09560000      50.00420000
C       47.92790000      50.00290000      56.90330000
C       49.99590000      56.90200000      47.92340000
C       56.90440000      47.93150000      50.00080000
C       52.07300000      50.00530000      56.90310000
C       47.92700000      49.99470000      43.09690000
C       52.07210000      49.99710000      43.09670000
C       50.00380000      43.09560000      47.93160000
C       50.00410000      43.09800000      52.07660000
C       49.99620000      56.90440000      52.06840000
C       43.09560000      52.06850000      49.99920000
C       56.90200000      52.07650000      49.99830000
C       43.09800000      47.92350000      50.00170000
C       52.36880000      51.35200000      56.36700000
C       56.36670000      52.37360000      51.34510000
C       51.34340000      56.37010000      52.36530000
C       47.63200000      48.65550000      56.36890000
C       47.62970000      51.34170000      43.63140000
C       52.36950000      48.65070000      43.63270000
C       43.63350000      47.62800000      51.34870000
C       43.63060000      52.36470000      48.65210000
C       56.36920000      47.63370000      48.65410000
C       48.65690000      43.63270000      52.37300000
C       48.64930000      56.36580000      47.62720000
C       51.35040000      43.63140000      47.63450000
C       51.34590000      52.37370000      56.36650000
C       52.36560000      56.37010000      51.34300000
C       56.36730000      51.35190000      52.36790000
C       48.65490000      47.63390000      56.36940000
C       51.34780000      47.62790000      43.63340000
C       48.65140000      52.36460000      43.63070000
C       47.63460000      43.63150000      51.35080000
C       52.37270000      43.63260000      48.65670000
C       47.62710000      56.36580000      48.64950000
C       43.63300000      48.65090000      52.37030000
C       56.36860000      48.65540000      47.63130000
C       43.63110000      51.34180000      47.63050000
C       52.75500000      45.22910000      46.25460000
C       46.25000000      52.74750000      45.22830000
C       45.23200000      46.25080000      52.75500000
C       47.24460000      54.76650000      46.24930000
C       47.25050000      45.23030000      53.75110000
C       52.74990000      54.77410000      53.74510000
C       53.74940000      47.24690000      45.23110000
C       53.74680000      52.75740000      54.76850000
C       46.25380000      47.24820000      54.77220000
C       54.76830000      53.75240000      52.74990000
C       54.77230000      46.25300000      47.24950000
C       45.22740000      53.74370000      47.24560000
C       45.22790000      52.74750000      46.25060000
C       52.75430000      46.25070000      45.23170000
C       46.25480000      45.22920000      52.75550000
C       54.77170000      47.24810000      46.25330000
C       45.23150000      47.24700000      53.75000000
C       54.76900000      52.75740000      53.74610000
C       47.24510000      53.74370000      45.22760000
C       52.75060000      53.75250000      54.76790000
C       47.25000000      46.25320000      54.77270000
C       53.74550000      54.77410000      52.74940000
C       46.24900000      54.76650000      47.24500000
C       53.75060000      45.23020000      47.25010000
C       45.36290000      50.72690000      55.64830000
C       55.65120000      45.36670000      50.72860000
C       50.72270000      55.64610000      45.35960000
C       54.63780000      49.27980000      55.64860000
C       54.63620000      50.72550000      44.35080000
C       45.36310000      49.26780000      44.35220000
C       44.34890000      54.63420000      50.72380000
C       44.35420000      45.35930000      49.27690000
C       55.64580000      54.63980000      49.27070000
C       49.27670000      44.34840000      45.36640000
C       49.27080000      55.65080000      54.63370000
C       50.72980000      44.35470000      54.64030000
C       50.72920000      45.36680000      55.65120000
C       45.35980000      55.64620000      50.72320000
C       55.64780000      50.72670000      45.36220000
C       49.27150000      54.63990000      55.64580000
C       50.72320000      54.63410000      44.34870000
C       49.27610000      45.35930000      44.35430000
C       54.64030000      44.35460000      50.72930000
C       45.36620000      44.34840000      49.27740000
C       54.63370000      55.65070000      49.27020000
C       44.35170000      49.26780000      45.36380000
C       55.64920000      49.27980000      54.63710000
C       44.35140000      50.72570000      54.63690000
C       46.40980000      55.66350000      48.36140000
C       48.36700000      46.41560000      55.66870000
C       55.66720000      48.36570000      46.41380000
C       53.59000000      44.33460000      48.36770000
C       53.58360000      55.66950000      51.63180000
C       46.41660000      44.33240000      51.63900000
C       51.63370000      53.59110000      55.66430000
C       51.63710000      46.41080000      44.33550000
C       48.36220000      53.58250000      44.33150000
C       44.33230000      51.63000000      46.41260000
C       44.33470000      48.36340000      53.58810000
C       55.66580000      51.64080000      53.58550000
C       55.66850000      46.41550000      48.36630000
C       46.41450000      48.36590000      55.66770000
C       48.36110000      55.66340000      46.40990000
C       44.33130000      53.58260000      48.36280000
C       55.66450000      53.59100000      51.63290000
C       44.33570000      46.41090000      51.63790000
C       53.58620000      51.64080000      55.66530000
C       46.41190000      51.63000000      44.33280000
C       53.58740000      48.36330000      44.33420000
C       51.63850000      44.33230000      46.41640000
C       48.36810000      44.33470000      53.59030000
C       51.63240000      55.66960000      53.58340000
C       44.35220000      49.27330000      54.63780000
C       54.64020000      44.35380000      49.27680000
C       49.27080000      54.63320000      44.34880000
C       55.64830000      50.73220000      54.63620000
C       55.64860000      49.27430000      45.36310000
C       44.35080000      50.72020000      45.36290000
C       45.35970000      55.64540000      49.27070000
C       45.36630000      44.34930000      50.72980000
C       54.63380000      55.65160000      50.72260000
C       50.72850000      45.36010000      44.35420000
C       50.72390000      54.64070000      55.64570000
C       49.27680000      45.36590000      55.65130000
C       49.27730000      44.35390000      54.64040000
C       44.34880000      54.63330000      49.27140000
C       54.63710000      49.27310000      44.35170000
C       50.72330000      55.65160000      54.63360000
C       49.27020000      55.64530000      45.35970000
C       50.72920000      44.34920000      45.36630000
C       55.65110000      45.36580000      49.27620000
C       44.35420000      45.36020000      50.72930000
C       55.64580000      54.64070000      50.72310000
C       45.36220000      50.72020000      44.35140000
C       54.63690000      50.73220000      55.64780000
C       45.36380000      49.27450000      55.64920000
C       53.59020000      44.33650000      51.63860000
C       51.63300000      53.58440000      44.33130000
C       44.33280000      51.63430000      53.58620000
C       46.41000000      55.66540000      51.63230000
C       46.41640000      44.33050000      48.36820000
C       53.58340000      55.66760000      48.36100000
C       48.36630000      46.40890000      44.33570000
C       48.36290000      53.58920000      55.66450000
C       51.63780000      46.41750000      55.66850000
C       55.66770000      48.37000000      53.58740000
C       55.66530000      51.63660000      46.41190000
C       44.33420000      48.35920000      46.41450000
C       44.33150000      53.58450000      51.63370000
C       53.58550000      51.63410000      44.33230000
C       51.63890000      44.33660000      53.59010000
C       55.66870000      46.41740000      51.63720000
C       44.33550000      46.40900000      48.36710000
C       55.66430000      53.58910000      48.36210000
C       46.41380000      48.35920000      44.33470000
C       53.58810000      48.37000000      55.66720000
C       46.41260000      51.63670000      55.66580000
C       48.36150000      55.66770000      53.58360000
C       51.63190000      55.66530000      46.40970000
C       48.36760000      44.33040000      46.41660000
