240
Lattice="100.0 0.0 0.0 0.0 100.0 0.0 0.0 0.0 100.0" Properties=species:S:1:pos:R:3 name=C-2509655-3548-1442 pressure=-1.69862637073213 spacegroup=C1 times_found=1 energy=-1759.67806716691 pbc="T T T"
C       43.47900000      54.74690000      45.44420000
C       54.48030000      44.79930000      43.87530000
C       44.66770000      43.65080000      53.34000000
C       43.44800000      45.26730000      54.60930000
C       55.70220000      54.32710000      55.19170000
C       56.73630000      45.29340000      44.42710000
C       54.10820000      55.69900000      56.08590000
C       45.66050000      44.70840000      55.22160000
C       45.68740000      55.30500000      44.82740000
C       44.70290000      56.36110000      46.71570000
C       55.52150000      43.88540000      45.86220000
C       55.54140000      56.67940000      54.57710000
C       43.64620000      44.65590000      53.32900000
C       54.50600000      43.79190000      44.90350000
C       44.67440000      54.30220000      44.84080000
C       43.67590000      55.36020000      46.72340000
C       55.82470000      55.31870000      54.18060000
C       56.75660000      44.40970000      45.34490000
C       54.61830000      56.86750000      55.44610000
C       45.28410000      56.52230000      45.42040000
C       45.25060000      43.48930000      54.63530000
C       44.64680000      45.71020000      55.20950000
C       55.47850000      45.77820000      43.93120000
C       55.13310000      54.80080000      56.39840000
C       56.46160000      48.66240000      46.89930000
C       48.66470000      46.90200000      56.12530000
C       47.28120000      56.84580000      48.84750000
C       56.37690000      51.21840000      53.05420000
C       43.21360000      49.02220000      53.01890000
C       43.24620000      50.99570000      47.04260000
C       48.67610000      53.12640000      43.86910000
C       51.23800000      46.80410000      43.81200000
C       51.16420000      53.23030000      56.32560000
C       47.23380000      43.11990000      51.20380000
C       53.12950000      56.41850000      51.18060000
C       53.24020000      43.51650000      48.85190000
C       56.48080000      46.89480000      48.70280000
C       49.06610000      56.70920000      46.94810000
C       46.78130000      48.75750000      56.10040000
C       56.44630000      53.09160000      51.15530000
C       43.13660000      52.84470000      48.89880000
C       43.13160000      47.17830000      51.15540000
C       49.02230000      43.24380000      53.11140000
C       51.30620000      43.65060000      46.96080000
C       51.29940000      56.44480000      52.93640000
C       46.81090000      51.25220000      43.94400000
C       52.93520000      51.34000000      56.28380000
C       53.12030000      48.72250000      43.60980000
C       44.20840000      50.78460000      51.70650000
C       50.67180000      51.68540000      44.34580000
C       51.83490000      44.18250000      50.77940000
C       44.23950000      49.24670000      48.37150000
C       55.77280000      50.61350000      48.17760000
C       55.75200000      49.25880000      51.64380000
C       50.64660000      48.35260000      55.57260000
C       49.23460000      51.80070000      55.61130000
C       49.31900000      48.23630000      44.50070000
C       51.89210000      55.68930000      49.24030000
C       48.39750000      44.24590000      49.47580000
C       48.39990000      55.72290000      50.59170000
C       44.24200000      51.74270000      50.64920000
C       50.81270000      44.18380000      51.80310000
C       51.70160000      50.64630000      44.30440000
C       44.26010000      48.28930000      49.42820000
C       55.75340000      48.20510000      50.62300000
C       55.80550000      51.66700000      49.20050000
C       50.87060000      55.73500000      48.21400000
C       49.39100000      55.70080000      51.64200000
C       49.39690000      44.27960000      48.41890000
C       51.66550000      49.40730000      55.54890000
C       48.27430000      49.27490000      44.50280000
C       48.21100000      50.75400000      55.57640000
C       50.42430000      45.72290000      43.94410000
C       45.93890000      43.71860000      50.94840000
C       44.00110000      50.65990000      45.87490000
C       50.27440000      54.27810000      56.29890000
C       49.55270000      45.86350000      56.27320000
C       49.55510000      54.17390000      43.71190000
C       45.97140000      56.27850000      49.10590000
C       54.31010000      43.50550000      49.73610000
C       54.37300000      55.87720000      50.72440000
C       43.95790000      49.35520000      54.19350000
C       56.36390000      50.36610000      54.13630000
C       55.92620000      49.12860000      45.66360000
C       50.46160000      43.76510000      45.90030000
C       45.77090000      50.35940000      43.84420000
C       43.75220000      45.88450000      50.92630000
C       50.79510000      55.93870000      54.16640000
C       49.35030000      55.97070000      45.75620000
C       49.31470000      44.01940000      54.27850000
C       45.73270000      49.63860000      56.22570000
C       54.17940000      49.61350000      43.54300000
C       54.17990000      50.86760000      55.78300000
C       43.75320000      54.13960000      49.13080000
C       56.50690000      54.15270000      50.27500000
C       55.97590000      45.65900000      49.20020000
C       49.21120000      51.74510000      44.01540000
C       51.86190000      43.73070000      49.35540000
C       43.53220000      49.47430000      51.71860000
C       49.18910000      48.28500000      55.96480000
C       50.63750000      51.85720000      56.09560000
C       50.72800000      48.17480000      43.99280000
C       51.85630000      56.21860000      50.62750000
C       48.48370000      43.52400000      50.74950000
C       48.52230000      56.41530000      49.29950000
C       43.55370000      50.55090000      48.34780000
C       56.28020000      49.21380000      48.17890000
C       56.21130000      50.69550000      51.67930000
C       49.50630000      43.52800000      51.80870000
C       51.74140000      49.21350000      43.87750000
C       43.53970000      51.60350000      49.37140000
C       49.55450000      56.39750000      48.24110000
C       50.78990000      56.22900000      51.65010000
C       50.82280000      43.80570000      48.33850000
C       51.65700000      50.81060000      56.06350000
C       48.19470000      50.72010000      44.07350000
C       48.15920000      49.30000000      55.95850000
C       43.53660000      48.42300000      50.69360000
C       56.28090000      48.18080000      49.23130000
C       56.24100000      51.71450000      50.64440000
C       46.93770000      52.11600000      53.87630000
C       52.12680000      53.99540000      46.94710000
C       54.04350000      46.95540000      51.98170000
C       47.01530000      47.94270000      46.23930000
C       53.04310000      51.98100000      45.95370000
C       52.98880000      48.03710000      53.89490000
C       52.05780000      45.99040000      52.99980000
C       47.95950000      54.06930000      52.85380000
C       47.99930000      45.98190000      47.26670000
C       54.12090000      52.96480000      47.87570000
C       46.03390000      46.99420000      48.27660000
C       45.98790000      53.05560000      51.83130000
C       47.01700000      54.04240000      51.81690000
C       52.03280000      47.04330000      53.94540000
C       54.07530000      51.96710000      46.92020000
C       47.05460000      46.00200000      48.29720000
C       53.05610000      45.94380000      52.04130000
C       53.13540000      53.98890000      47.89850000
C       52.08940000      52.97540000      45.96730000
C       47.92310000      53.07900000      53.86960000
C       48.00070000      46.98260000      46.25820000
C       54.01290000      47.97790000      52.91150000
C       46.00370000      47.93790000      47.23490000
C       45.93870000      52.11320000      52.87230000
C       44.98060000      52.89330000      44.71530000
C       53.09260000      43.99290000      45.19050000
C       43.27370000      45.43490000      52.23730000
C       44.95210000      47.11790000      55.33620000
C       54.74740000      52.22350000      55.67760000
C       55.03970000      47.12090000      44.11610000
C       52.13080000      55.84870000      54.79220000
C       47.91920000      44.05170000      54.74800000
C       47.95210000      55.95220000      45.29270000
C       43.29200000      54.58410000      47.81280000
C       55.87850000      45.04780000      47.86620000
C       55.79030000      54.93630000      52.81150000
C       45.46480000      43.26120000      52.26160000
C       53.06590000      45.05980000      44.10940000
C       44.01820000      52.04630000      45.36420000
C       45.50460000      56.74270000      47.79470000
C       54.92650000      55.78330000      52.07960000
C       55.10490000      44.06540000      47.21290000
C       52.78350000      55.18210000      55.84270000
C       47.08520000      54.98210000      44.67400000
C       47.06100000      45.03170000      55.36160000
C       43.98410000      47.96500000      54.69410000
C       55.82870000      47.78600000      45.07900000
C       55.65270000      52.92850000      54.83530000
C       46.35220000      52.60350000      44.23830000
C       52.68480000      43.69500000      46.52660000
C       42.78540000      46.79220000      52.49700000
C       46.32880000      47.40780000      55.80030000
C       53.44870000      52.71090000      56.27030000
C       53.60770000      47.38830000      43.75490000
C       52.66180000      56.44310000      53.50770000
C       47.66290000      43.06620000      53.59710000
C       47.70920000      56.91240000      46.46350000
C       42.80570000      53.22570000      47.55160000
C       56.46760000      46.33310000      47.33610000
C       56.22140000      53.55590000      52.50310000
C       46.81970000      42.78720000      52.54470000
C       52.62420000      46.38880000      43.81680000
C       43.06140000      52.34430000      46.52510000
C       46.86730000      57.19570000      47.51180000
C       53.63730000      56.41400000      52.56070000
C       53.69130000      43.66550000      47.50750000
C       52.53270000      53.73800000      56.24400000
C       47.34520000      53.59560000      44.21050000
C       47.32740000      46.42170000      55.81240000
C       43.03180000      47.67000000      53.52850000
C       56.45120000      47.28570000      46.36300000
C       56.16800000      52.58070000      53.49310000
C       50.36860000      44.89350000      54.22410000
C       44.87410000      54.17280000      49.98750000
C       54.18410000      50.40910000      44.65690000
C       50.41170000      55.10740000      45.77080000
C       49.52180000      44.73060000      45.94030000
C       49.64810000      55.17630000      54.12700000
C       44.88640000      45.85490000      50.08600000
C       55.41910000      54.14340000      49.44340000
C       55.20170000      45.70200000      50.33890000
C       54.16690000      49.74570000      54.99440000
C       45.76530000      50.53060000      55.17830000
C       45.82390000      49.48850000      44.90810000
C       50.47270000      54.14650000      44.73380000
C       44.81300000      50.42920000      54.14300000
C       54.28380000      44.62950000      50.52270000
C       50.44930000      45.88070000      55.23480000
C       49.51360000      45.74500000      44.93940000
C       49.47270000      54.25380000      55.19010000
C       44.86930000      49.59660000      45.94050000
C       55.25520000      49.56460000      54.09250000
C       55.14500000      50.26000000      45.69890000
C       54.36630000      55.09070000      49.59370000
C       45.92070000      55.17500000      49.97590000
C       45.92310000      44.83960000      50.09670000
C       45.02090000      47.03960000      49.26520000
C       47.05530000      48.86590000      45.16420000
C       48.96610000      44.95680000      47.22850000
C       44.99490000      52.99740000      50.82180000
C       55.06660000      46.96070000      50.99650000
C       55.17800000      52.91040000      48.80150000
C       46.98570000      51.17430000      54.93450000
C       52.92210000      49.06580000      54.86940000
C       52.95360000      51.04080000      44.91440000
C       48.98710000      55.04520000      52.87130000
C       51.09310000      44.95900000      53.00650000
C       51.14930000      55.01220000      46.98150000
C       44.98020000      48.91220000      47.18030000
C       47.12410000      44.98940000      49.29310000
C       48.94570000      47.01770000      45.19950000
C       44.92600000      51.12560000      52.90940000
C       55.06720000      50.95710000      46.94020000
C       55.06350000      48.90570000      52.86290000
C       47.10960000      55.02130000      50.79290000
C       53.13050000      54.98960000      48.89690000
C       53.04990000      44.85770000      51.15570000
C       48.84130000      53.02610000      54.94150000
C       51.11650000      52.91990000      44.95070000
C       51.07900000      47.11150000      54.97880000
