240
Lattice="100.0 0.0 0.0 0.0 100.0 0.0 0.0 0.0 100.0" Properties=species:S:1:pos:R:3 name=C-2509655-3548-476 pressure=0.00111351140776479 energy=-1755.97468881062 spacegroup=C1 times_found=1 pbc="T T T"
C       54.58530000      52.65960000      55.78630000
C       52.90410000      55.79250000      53.92300000
C       55.14970000      53.96940000      52.60000000
C       46.31700000      47.50040000      54.63270000
C       53.96980000      47.36390000      44.55870000
C       45.39640000      52.62800000      44.17930000
C       47.69670000      44.36480000      54.14900000
C       52.75370000      44.87570000      46.00560000
C       47.26170000      55.73190000      45.96490000
C       44.67220000      46.07010000      52.30530000
C       55.82950000      45.41210000      47.55310000
C       44.89730000      54.14200000      47.26490000
C       53.59830000      52.49780000      45.07120000
C       52.29080000      55.70030000      45.48700000
C       55.23820000      53.85730000      47.38670000
C       46.00250000      47.34360000      44.93450000
C       54.34360000      47.50690000      55.86550000
C       44.93260000      52.45800000      55.95410000
C       47.46550000      44.22120000      45.42110000
C       52.66340000      44.41620000      54.02040000
C       47.70400000      55.20470000      54.18470000
C       44.43100000      46.06230000      47.32630000
C       55.05970000      46.03240000      52.79840000
C       44.96370000      54.00990000      52.80160000
C       56.56320000      47.26040000      51.53020000
C       46.63680000      51.35640000      56.99810000
C       51.30280000      56.94520000      47.05360000
C       43.54520000      52.83120000      51.36550000
C       56.80980000      52.85280000      48.56240000
C       42.90930000      47.15950000      48.54570000
C       52.69610000      48.68050000      56.85340000
C       47.30990000      48.68850000      43.55310000
C       52.57080000      51.30700000      43.37360000
C       48.59930000      43.27350000      47.09800000
C       51.54290000      42.82060000      52.94180000
C       48.83670000      56.76910000      52.92220000
C       56.73210000      47.08050000      48.72550000
C       47.11190000      51.49470000      43.26530000
C       51.52310000      57.12460000      52.75740000
C       43.52510000      52.87880000      48.63880000
C       56.64290000      52.72320000      51.32780000
C       43.00150000      47.12030000      51.24820000
C       52.93140000      48.57640000      43.02590000
C       47.23070000      48.64320000      56.42700000
C       52.81430000      51.63570000      56.80950000
C       48.74070000      42.98270000      52.77500000
C       51.39320000      43.49430000      47.29070000
C       48.54290000      57.16220000      47.13660000
C       47.23330000      47.40120000      44.09940000
C       47.28660000      43.85990000      46.84150000
C       43.66690000      47.28450000      47.33130000
C       52.40820000      52.49700000      44.12110000
C       46.23580000      52.66820000      56.53750000
C       52.91160000      47.35490000      56.19170000
C       52.50240000      56.15030000      46.86820000
C       47.67740000      55.94880000      52.91600000
C       52.71810000      43.63880000      52.80570000
C       56.02820000      52.66230000      47.37480000
C       44.03730000      52.86760000      52.66720000
C       55.94330000      47.24330000      52.79860000
C       47.46590000      47.50060000      55.60910000
C       47.52850000      43.84070000      52.78830000
C       43.83290000      47.24360000      52.40780000
C       53.19410000      52.91950000      56.16720000
C       46.81600000      52.82930000      43.80620000
C       52.78570000      47.34740000      43.74460000
C       52.77890000      56.40840000      52.63190000
C       47.32080000      56.42290000      47.22050000
C       52.68280000      44.04000000      47.23650000
C       56.01920000      52.73320000      52.60290000
C       44.02390000      52.96350000      47.33570000
C       56.14980000      46.84240000      47.41530000
C       48.44030000      55.91030000      45.21060000
C       55.79700000      44.93340000      48.88510000
C       45.44100000      48.61990000      54.81640000
C       51.47610000      44.91430000      45.33560000
C       48.88570000      44.14750000      54.85860000
C       51.75620000      56.02230000      54.71270000
C       45.06820000      54.69500000      48.58210000
C       55.08500000      54.59990000      51.30450000
C       44.42600000      45.29730000      51.13970000
C       55.00060000      51.33570000      55.92410000
C       44.97360000      51.28340000      44.27110000
C       54.63050000      48.61960000      44.52780000
C       49.04770000      55.43960000      54.80580000
C       55.08210000      45.34750000      51.53290000
C       45.34820000      48.62890000      44.96540000
C       51.48090000      44.19410000      54.75360000
C       48.80420000      44.25610000      44.96390000
C       51.01640000      55.89840000      44.93670000
C       45.13110000      54.59320000      51.50060000
C       55.39130000      54.62080000      48.57570000
C       44.28930000      45.32230000      48.52250000
C       54.36530000      51.28290000      45.03880000
C       44.62010000      51.08500000      55.78610000
C       54.88820000      48.79270000      55.97250000
C       48.45710000      42.40010000      49.36080000
C       43.08810000      49.38890000      48.12480000
C       49.49090000      48.64010000      42.88270000
C       51.53530000      56.81290000      49.28720000
C       48.31020000      56.60950000      50.73620000
C       51.89610000      43.01460000      50.70430000
C       56.77420000      50.60430000      48.16590000
C       42.96490000      50.62740000      51.52850000
C       57.66160000      49.38880000      51.49240000
C       50.51140000      51.16590000      42.17610000
C       49.12830000      51.59060000      57.29690000
C       50.45840000      48.82560000      57.70700000
C       48.83290000      42.28640000      50.52320000
C       43.11540000      49.33820000      51.72590000
C       49.24680000      48.84820000      57.69830000
C       51.83220000      56.69510000      50.55170000
C       48.23860000      56.72860000      49.35120000
C       51.40160000      42.90160000      49.49550000
C       57.72130000      50.59520000      51.29760000
C       42.96220000      50.66620000      48.40250000
C       56.95620000      49.36120000      48.53870000
C       50.35290000      51.55810000      57.23420000
C       49.34320000      51.54820000      42.25170000
C       50.69030000      48.11510000      43.01660000
C       45.47310000      44.63180000      48.98450000
C       44.41650000      49.38050000      45.84790000
C       49.26180000      45.47530000      44.34050000
C       54.26100000      55.35520000      48.99720000
C       46.13320000      55.36380000      50.80880000
C       54.19690000      44.41360000      50.75730000
C       55.28590000      50.51160000      45.96770000
C       44.17070000      50.72010000      54.45810000
C       55.62500000      49.29430000      54.78140000
C       50.36170000      54.66570000      44.38630000
C       49.97580000      54.69380000      55.54480000
C       50.96740000      45.38610000      55.42230000
C       45.56390000      44.62160000      50.55760000
C       44.43230000      49.31500000      53.99010000
C       49.49860000      45.39560000      55.43260000
C       54.09740000      55.42570000      50.51550000
C       46.06770000      55.45270000      49.32020000
C       54.56960000      44.31930000      49.31270000
C       55.66940000      50.75130000      54.73090000
C       44.32920000      50.84650000      45.49350000
C       55.31390000      49.00050000      45.70180000
C       51.36260000      54.86530000      55.48050000
C       48.87490000      54.72520000      44.48130000
C       50.71770000      45.81980000      44.41650000
C       47.08200000      56.18670000      48.63990000
C       55.48520000      47.57760000      46.37890000
C       48.29750000      46.32730000      55.41630000
C       53.88630000      44.12990000      47.99290000
C       46.52500000      44.54900000      51.98270000
C       53.03450000      56.13710000      51.22120000
C       44.10960000      52.17900000      46.14500000
C       55.86420000      52.00360000      53.85930000
C       43.83950000      48.64020000      52.83140000
C       52.63450000      54.05820000      55.53550000
C       47.50810000      53.94050000      44.40230000
C       51.37000000      46.94870000      43.74700000
C       47.25500000      55.93860000      51.49950000
C       55.76750000      48.01450000      53.99840000
C       47.96050000      46.18030000      44.16880000
C       53.07020000      43.73050000      51.39210000
C       46.23330000      44.50930000      47.57820000
C       53.48170000      55.44080000      47.62800000
C       44.01630000      52.07630000      53.83640000
C       55.98680000      51.23470000      47.03430000
C       43.74800000      48.69660000      46.96480000
C       51.61540000      53.72700000      44.28090000
C       46.97580000      53.70260000      56.00650000
C       52.25640000      46.25100000      55.52840000
C       53.97460000      50.79170000      56.71090000
C       50.91390000      56.88100000      54.02140000
C       56.16760000      53.90150000      50.65200000
C       45.98740000      49.19980000      56.01030000
C       53.99500000      49.37460000      43.55430000
C       45.99820000      50.63300000      43.63200000
C       49.44980000      43.16890000      54.04410000
C       50.77310000      43.89810000      46.09210000
C       49.16010000      56.90960000      45.89570000
C       43.29640000      45.91350000      50.55820000
C       56.46640000      45.93070000      49.56280000
C       44.11680000      53.96410000      49.34880000
C       53.77920000      50.68590000      43.86120000
C       50.51710000      56.84650000      45.84350000
C       56.38330000      53.99570000      49.30880000
C       46.12480000      49.32490000      43.96170000
C       53.91250000      49.43190000      56.72500000
C       45.62560000      50.42730000      56.50000000
C       49.45810000      43.58620000      45.96610000
C       50.82050000      43.13570000      54.10850000
C       49.56630000      56.60460000      54.09720000
C       43.23450000      45.93810000      49.20280000
C       56.13360000      46.07570000      50.87540000
C       44.14400000      53.93180000      50.70640000
C       54.60800000      54.06860000      53.89010000
C       55.17000000      53.03130000      54.61650000
C       53.50130000      54.67660000      54.47760000
C       45.88550000      45.65340000      52.77810000
C       54.72990000      44.81270000      47.02520000
C       45.44070000      54.17300000      45.95840000
C       46.41290000      46.30870000      53.89690000
C       54.54920000      46.69260000      45.60770000
C       44.79450000      53.14480000      45.28380000
C       47.40220000      45.62030000      54.53000000
C       54.04590000      45.44880000      45.99550000
C       46.63880000      54.63730000      45.40410000
C       54.12060000      54.36650000      46.79280000
C       53.59600000      53.76030000      45.66240000
C       52.59840000      54.46740000      45.02700000
C       45.52100000      45.50540000      46.70640000
C       54.38810000      46.04060000      54.03290000
C       45.44040000      54.02600000      54.13840000
C       45.96530000      46.04570000      45.49380000
C       54.96970000      47.06190000      54.75030000
C       44.62230000      53.04190000      54.75660000
C       46.97380000      45.34830000      44.84540000
C       53.18620000      45.56950000      54.54630000
C       46.70800000      54.37790000      54.79890000
C       57.30290000      51.69190000      50.59320000
C       51.62290000      50.96290000      57.15730000
C       50.81420000      57.15260000      51.55150000
C       42.73790000      48.36100000      50.64130000
C       57.07220000      48.27760000      49.34730000
C       43.00210000      51.73360000      49.24990000
C       48.06950000      49.40150000      57.25400000
C       51.72590000      49.10840000      42.62740000
C       48.24110000      50.87160000      42.77640000
C       49.49400000      42.48190000      51.69310000
C       50.65800000      42.95190000      48.37070000
C       49.20780000      57.23360000      48.36820000
C       57.19730000      51.67130000      49.14540000
C       51.64610000      50.54450000      42.59080000
C       50.66170000      57.13720000      48.30090000
C       42.70680000      48.38510000      49.19480000
C       57.20530000      48.27280000      50.82270000
C       43.00400000      51.71480000      50.71400000
C       48.37900000      49.40470000      42.96460000
C       51.61960000      49.45810000      57.29200000
C       47.90900000      50.86630000      57.27960000
C       49.19370000      42.81440000      48.24690000
C       50.94580000      42.53790000      51.73160000
C       49.38440000      57.02220000      51.64140000
