240
Lattice="100.0 0.0 0.0 0.0 100.0 0.0 0.0 0.0 100.0" Properties=species:S:1:pos:R:3 name=C-2509655-3548-1182 pressure=1.23837578599546 energy=-1791.69492037769 spacegroup=C1 times_found=1 pbc="T T T"
C       55.41200000      53.74620000      51.57540000
C       53.79130000      51.26700000      55.49300000
C       51.43870000      55.60930000      53.75090000
C       44.50620000      46.29600000      51.39240000
C       55.35600000      46.37490000      48.50210000
C       44.61550000      53.68730000      48.45640000
C       46.27870000      48.70920000      55.54300000
C       53.74110000      48.69800000      44.46970000
C       46.24240000      51.22880000      44.52420000
C       48.46090000      44.54860000      53.69580000
C       51.45160000      44.39300000      46.32500000
C       48.63920000      55.52000000      46.32500000
C       55.48500000      53.83570000      48.71020000
C       53.64830000      51.46540000      44.42650000
C       51.46430000      55.40500000      46.34290000
C       44.38150000      46.25490000      48.60350000
C       55.52480000      46.32220000      51.32150000
C       44.50650000      53.74130000      51.29810000
C       46.29740000      48.37150000      44.64120000
C       53.70770000      48.40930000      55.35550000
C       46.34830000      51.49110000      55.44860000
C       48.68230000      44.40580000      46.26450000
C       51.26730000      44.47210000      53.73310000
C       48.64750000      55.48790000      53.73150000
C       49.24280000      42.40540000      49.29570000
C       42.38880000      49.30490000      49.30790000
C       49.25170000      49.17670000      42.51370000
C       50.73450000      57.62860000      49.29450000
C       49.28040000      57.62380000      50.74030000
C       50.66530000      42.43330000      50.76580000
C       57.48880000      50.82550000      49.25000000
C       42.46830000      50.76200000      50.71430000
C       57.55770000      49.34890000      50.64190000
C       50.63900000      50.65450000      42.45050000
C       49.36360000      50.72490000      57.52890000
C       50.76250000      49.24260000      57.50800000
C       49.22130000      42.43350000      50.73220000
C       42.43830000      49.32330000      50.74610000
C       49.32240000      49.28670000      57.53750000
C       50.71830000      57.65320000      50.73960000
C       49.29940000      57.61270000      49.29780000
C       50.68760000      42.39780000      49.33290000
C       57.53890000      50.79180000      50.68810000
C       42.42690000      50.74730000      49.27530000
C       57.50120000      49.38310000      49.20950000
C       50.80210000      50.68300000      57.50120000
C       49.20660000      50.61910000      42.50060000
C       50.68970000      49.21180000      42.47190000
C       56.16860000      50.70170000      52.62880000
C       50.88790000      52.60190000      56.06100000
C       52.64120000      56.26510000      50.79590000
C       43.92040000      49.33520000      52.62070000
C       56.03620000      49.44860000      47.34940000
C       43.81650000      50.66200000      47.34690000
C       49.18980000      47.37350000      56.11650000
C       50.84470000      47.31270000      43.93930000
C       49.15720000      52.55000000      43.95150000
C       47.29910000      43.84950000      50.64420000
C       52.60880000      43.83770000      49.35370000
C       47.40750000      56.18070000      49.28390000
C       56.00590000      50.92650000      47.37680000
C       50.61370000      52.59190000      43.86720000
C       52.64140000      56.21840000      49.34550000
C       43.76250000      49.21180000      47.37260000
C       56.19650000      49.25170000      52.57890000
C       43.93400000      50.80120000      52.59820000
C       49.36860000      47.26810000      43.93350000
C       50.65380000      47.32440000      56.10400000
C       49.42210000      52.63880000      56.11150000
C       47.32970000      43.86850000      49.17960000
C       52.57950000      43.90970000      50.81050000
C       47.39920000      56.15210000      50.73590000
C       56.69380000      48.56070000      51.37900000
C       48.64330000      51.49220000      56.63400000
C       51.48250000      56.70810000      48.57750000
C       43.39810000      51.50220000      51.40820000
C       56.56220000      51.59000000      48.57330000
C       43.23910000      48.51640000      48.55580000
C       51.45150000      48.46600000      56.59660000
C       48.57120000      48.41110000      43.43550000
C       51.37070000      51.44620000      43.31480000
C       48.52690000      43.30370000      48.52180000
C       51.38220000      43.36210000      51.49820000
C       48.56010000      56.69690000      51.47630000
C       56.57090000      48.66490000      48.48330000
C       48.47470000      51.33600000      43.42830000
C       51.46940000      56.78760000      51.51030000
C       43.33420000      51.44760000      48.49690000
C       56.65090000      51.49520000      51.48410000
C       43.36050000      48.58760000      51.46740000
C       51.48200000      48.51160000      43.36680000
C       48.53170000      48.57650000      56.65470000
C       51.55500000      51.38570000      56.58340000
C       48.45320000      43.34470000      51.42500000
C       51.46350000      43.27670000      48.60280000
C       48.58070000      56.70340000      48.55240000
C       53.99210000      52.70190000      55.57330000
C       52.81700000      55.73830000      53.87470000
C       55.35740000      53.79480000      53.03290000
C       46.14800000      47.31280000      55.64310000
C       53.97620000      47.27490000      44.44700000
C       46.06150000      52.66710000      44.45620000
C       47.05100000      44.54250000      53.78010000
C       52.83120000      44.28070000      46.23330000
C       47.26120000      55.66210000      46.20010000
C       44.56520000      46.21900000      52.81290000
C       55.30200000      46.29330000      47.05190000
C       44.68750000      53.74930000      47.00160000
C       53.73300000      52.84250000      44.29370000
C       52.91720000      55.35710000      46.25330000
C       55.52190000      54.03640000      47.27260000
C       46.22560000      46.91790000      44.69960000
C       53.77120000      46.95550000      55.28230000
C       46.27500000      52.89750000      55.45850000
C       47.25520000      44.36640000      46.05530000
C       52.70100000      44.41840000      53.91380000
C       47.22710000      55.42100000      53.81540000
C       44.24930000      46.12080000      47.22580000
C       55.68520000      46.17430000      52.69720000
C       44.40860000      53.84040000      52.70130000
C       47.03590000      53.70130000      44.71020000
C       53.83160000      44.31650000      47.28140000
C       44.58060000      47.23580000      53.80790000
C       53.02390000      46.22050000      44.69640000
C       47.07290000      46.23750000      55.48230000
C       53.02950000      53.74990000      55.33850000
C       46.22260000      55.68420000      47.21310000
C       53.84770000      55.75740000      52.85550000
C       46.10940000      44.37330000      52.72100000
C       55.60240000      52.73840000      53.98460000
C       44.43550000      52.70820000      46.03200000
C       55.54750000      47.32790000      46.07570000
C       47.33770000      53.83680000      55.63080000
C       53.72970000      44.67370000      52.93140000
C       44.25350000      47.13340000      46.18940000
C       52.72580000      45.99730000      55.53880000
C       47.27070000      45.95880000      44.45230000
C       52.68140000      53.83930000      44.30930000
C       46.22290000      55.42210000      52.80600000
C       53.90950000      55.61810000      47.27340000
C       46.20950000      44.61240000      47.02250000
C       55.26000000      53.07320000      46.23520000
C       44.58190000      52.89710000      53.75870000
C       55.70950000      47.17170000      53.74750000
C       54.69510000      49.16220000      54.60750000
C       49.40440000      54.68410000      54.68130000
C       54.68070000      54.77690000      49.43360000
C       45.39410000      50.79100000      54.63740000
C       54.58940000      50.85980000      45.32620000
C       45.30160000      49.12560000      45.37550000
C       50.56270000      45.29110000      54.68280000
C       49.42070000      45.23120000      45.33080000
C       50.68220000      54.61030000      45.38530000
C       45.28580000      45.32720000      49.23190000
C       54.61140000      45.40240000      50.69840000
C       45.35880000      54.67980000      50.62870000
C       54.65320000      49.45620000      45.30010000
C       49.26630000      54.60810000      45.40840000
C       54.65400000      54.74150000      50.84030000
C       45.28050000      50.53050000      45.32680000
C       54.73410000      50.56570000      54.67100000
C       45.35970000      49.38850000      54.66860000
C       50.82580000      45.27760000      45.38080000
C       49.16500000      45.34730000      54.64720000
C       50.81600000      54.68470000      54.66070000
C       45.28490000      45.31950000      50.64380000
C       54.59580000      45.39280000      49.28280000
C       45.38150000      54.66950000      49.21680000
C       53.73070000      55.64190000      51.47640000
C       55.56380000      51.31580000      53.75120000
C       51.57760000      53.68230000      55.39730000
C       46.21560000      44.46110000      51.31750000
C       53.68840000      44.46890000      48.65800000
C       46.32230000      55.56020000      48.59270000
C       44.56100000      48.66060000      53.70760000
C       55.46790000      48.76540000      46.25620000
C       44.44860000      51.28180000      46.24350000
C       48.48460000      46.30250000      55.46190000
C       51.56760000      46.26800000      44.62360000
C       48.48650000      53.62440000      44.64970000
C       53.73520000      55.59660000      48.70460000
C       55.33020000      51.62080000      46.31120000
C       51.30600000      53.68940000      44.47320000
C       46.27030000      44.55620000      48.47670000
C       53.64530000      44.62120000      51.48050000
C       46.31510000      55.47690000      51.38340000
C       44.38460000      48.51080000      46.29530000
C       55.58630000      48.54960000      53.66130000
C       44.59550000      51.48670000      53.67890000
C       48.70580000      46.16630000      44.51260000
C       51.29610000      46.21520000      55.50590000
C       48.74110000      53.73310000      55.52670000
C       50.60110000      43.88260000      52.63720000
C       43.90480000      52.65600000      50.62400000
C       52.56990000      50.75790000      43.81760000
C       49.29380000      56.18030000      52.65630000
C       50.79140000      56.12170000      47.40410000
C       49.31030000      43.79970000      47.37650000
C       56.13630000      47.41500000      50.62640000
C       43.77140000      47.35500000      49.29150000
C       56.07180000      52.73600000      49.37070000
C       47.36860000      49.07160000      43.98200000
C       52.65190000      49.11650000      56.03710000
C       47.43320000      50.81450000      56.11820000
C       50.76130000      43.77750000      47.41110000
C       43.91820000      52.63260000      49.15750000
C       52.69150000      50.59400000      56.06300000
C       49.33290000      56.15900000      47.39750000
C       50.74260000      56.24460000      52.67200000
C       49.13660000      43.88660000      52.61370000
C       56.05060000      47.45250000      49.17010000
C       43.84430000      47.38580000      50.74050000
C       56.08000000      52.69540000      50.84740000
C       47.38450000      49.36270000      56.14700000
C       52.62240000      49.30770000      43.85280000
C       47.33920000      50.54990000      43.95660000
C       46.90480000      44.63350000      44.72490000
C       45.14020000      45.31120000      46.45160000
C       45.14850000      46.35150000      45.39420000
C       53.46940000      54.65920000      45.17610000
C       46.62570000      54.77730000      54.89890000
C       53.08010000      44.67330000      55.23870000
C       55.23430000      55.35720000      46.90040000
C       45.13880000      54.78170000      53.41060000
C       54.81190000      45.36180000      53.48650000
C       54.54000000      53.63250000      45.16930000
C       45.39250000      53.76250000      54.64470000
C       54.82880000      46.38900000      54.55640000
C       46.20020000      45.36980000      54.66080000
C       45.17880000      45.12420000      53.42530000
C       45.20160000      46.62110000      54.89930000
C       53.59850000      54.83590000      54.66280000
C       46.47320000      54.78400000      45.39550000
C       53.60190000      45.17070000      45.42400000
C       54.65200000      54.85450000      53.61740000
C       45.41150000      54.80510000      46.43290000
C       54.63080000      45.20160000      46.49270000
C       55.31910000      53.07230000      55.31710000
C       44.73850000      53.05450000      44.70770000
C       55.30440000      46.94230000      44.75120000
