240
Lattice="100.0 0.0 0.0 0.0 100.0 0.0 0.0 0.0 100.0" Properties=species:S:1:pos:R:3 name=C-2509655-3548-1446 pressure=-72.3524108430384 spacegroup=Th times_found=1 energy=-1760.67589659238 pbc="T T T"
C       44.01080000      51.45290000      48.16730000
C       48.16720000      44.01090000      51.45310000
C       51.45290000      48.16710000      44.01080000
C       44.01100000      48.54680000      51.83310000
C       55.98910000      48.54710000      48.16690000
C       55.98910000      51.45310000      51.83270000
C       48.16690000      55.98910000      48.54700000
C       51.83290000      55.98910000      51.45300000
C       51.83300000      44.01090000      48.54690000
C       51.45320000      51.83290000      55.98910000
C       48.54670000      51.83290000      44.01100000
C       48.54720000      48.16700000      55.98910000
C       55.98900000      51.45320000      48.16690000
C       51.83310000      44.01090000      51.45300000
C       48.54680000      48.16710000      44.01090000
C       55.98920000      48.54710000      51.83270000
C       44.01090000      48.54690000      48.16730000
C       44.01090000      51.45290000      51.83310000
C       51.83280000      55.98910000      48.54690000
C       48.16700000      55.98910000      51.45310000
C       48.16710000      44.01090000      48.54700000
C       48.54710000      51.83290000      55.98920000
C       51.45280000      51.83300000      44.01090000
C       51.45330000      48.16710000      55.98900000
C       49.25810000      43.72990000      53.56190000
C       53.56170000      49.25800000      43.72980000
C       43.72980000      53.56180000      49.25810000
C       49.25770000      56.27010000      46.43820000
C       50.74210000      56.27010000      53.56190000
C       50.74210000      43.72990000      46.43810000
C       53.56210000      50.74220000      56.27000000
C       46.43790000      50.74210000      43.73010000
C       46.43840000      49.25780000      56.27020000
C       43.73000000      46.43800000      50.74230000
C       56.27010000      46.43820000      49.25770000
C       56.27000000      53.56200000      50.74190000
C       50.74230000      43.72990000      53.56180000
C       46.43790000      49.25780000      43.73000000
C       56.27000000      53.56200000      49.25770000
C       50.74190000      56.27010000      46.43810000
C       49.25790000      56.27010000      53.56190000
C       49.25790000      43.72990000      46.43810000
C       46.43830000      50.74200000      56.27020000
C       53.56170000      50.74220000      43.72980000
C       53.56210000      49.25790000      56.26990000
C       56.27020000      46.43820000      50.74190000
C       43.73000000      46.43800000      49.25810000
C       43.72990000      53.56180000      50.74230000
C       45.01020000      49.24680000      43.52040000
C       43.52030000      45.01030000      49.24710000
C       49.24690000      43.52020000      45.01040000
C       45.01060000      50.75300000      56.47990000
C       54.98940000      50.75320000      43.52010000
C       54.98980000      49.24700000      56.47960000
C       43.52020000      54.98950000      50.75330000
C       56.47970000      54.98970000      49.24670000
C       56.47990000      45.01050000      50.75280000
C       49.24700000      56.47970000      54.98960000
C       50.75280000      56.47980000      45.01040000
C       50.75340000      43.52020000      54.98950000
C       54.98940000      49.24700000      43.52010000
C       56.47980000      45.01050000      49.24670000
C       50.75300000      43.52030000      45.01040000
C       54.98980000      50.75320000      56.47960000
C       45.01020000      50.75300000      43.52040000
C       45.01060000      49.24680000      56.47990000
C       56.47970000      54.98970000      50.75290000
C       43.52010000      54.98950000      49.24720000
C       43.52030000      45.01030000      50.75330000
C       50.75310000      56.47980000      54.98960000
C       49.24660000      56.47980000      45.01050000
C       49.24720000      43.52020000      54.98960000
C       55.84150000      49.27610000      53.01820000
C       53.01820000      55.84140000      49.27600000
C       49.27620000      53.01830000      55.84140000
C       55.84120000      50.72410000      46.98140000
C       44.15870000      50.72380000      53.01860000
C       44.15860000      49.27600000      46.98180000
C       53.01850000      44.15870000      50.72380000
C       46.98170000      44.15860000      49.27610000
C       46.98160000      55.84130000      50.72410000
C       49.27590000      46.98160000      44.15870000
C       50.72420000      46.98160000      55.84130000
C       50.72370000      53.01840000      44.15860000
C       44.15880000      49.27590000      53.01860000
C       46.98150000      55.84130000      49.27620000
C       50.72410000      53.01840000      55.84130000
C       44.15850000      50.72390000      46.98180000
C       55.84140000      50.72400000      53.01820000
C       55.84130000      49.27620000      46.98140000
C       46.98180000      44.15860000      50.72400000
C       53.01840000      44.15870000      49.27590000
C       53.01830000      55.84140000      50.72390000
C       50.72380000      46.98170000      44.15860000
C       49.27630000      46.98160000      55.84140000
C       49.27580000      53.01840000      44.15870000
C       52.85300000      45.14760000      46.56110000
C       46.56100000      52.85300000      45.14770000
C       45.14770000      46.56120000      52.85310000
C       52.85300000      54.85250000      53.43870000
C       47.14680000      54.85240000      46.56140000
C       47.14720000      45.14750000      53.43880000
C       46.56150000      47.14690000      54.85250000
C       53.43860000      47.14710000      45.14750000
C       53.43890000      52.85300000      54.85230000
C       45.14740000      53.43870000      47.14720000
C       54.85240000      53.43880000      52.85280000
C       54.85240000      46.56140000      47.14680000
C       47.14700000      45.14750000      46.56130000
C       53.43850000      52.85310000      45.14750000
C       54.85260000      46.56130000      52.85280000
C       47.14700000      54.85240000      53.43890000
C       52.85280000      54.85250000      46.56120000
C       52.85320000      45.14760000      53.43860000
C       53.43900000      47.14700000      54.85230000
C       46.56110000      47.14700000      45.14770000
C       46.56140000      52.85290000      54.85250000
C       54.85230000      53.43880000      47.14690000
C       45.14760000      53.43860000      52.85320000
C       45.14760000      46.56120000      47.14720000
C       54.17600000      44.50020000      48.54620000
C       48.54610000      54.17600000      44.50020000
C       44.50030000      48.54620000      54.17610000
C       54.17590000      55.49990000      51.45360000
C       45.82390000      55.49980000      48.54650000
C       45.82420000      44.50010000      51.45380000
C       48.54660000      45.82400000      55.49990000
C       51.45360000      45.82410000      44.50010000
C       51.45380000      54.17600000      55.49980000
C       44.50000000      51.45360000      45.82420000
C       55.50000000      51.45380000      54.17580000
C       55.49970000      48.54640000      45.82380000
C       45.82410000      44.50010000      48.54640000
C       51.45340000      54.17600000      44.50010000
C       55.50000000      48.54640000      54.17580000
C       45.82400000      55.49980000      51.45380000
C       54.17580000      55.49990000      48.54620000
C       54.17610000      44.50020000      51.45350000
C       51.45390000      45.82400000      55.49980000
C       48.54620000      45.82400000      44.50020000
C       48.54640000      54.17590000      55.49990000
C       55.49970000      51.45380000      45.82390000
C       44.50030000      51.45360000      54.17620000
C       44.50000000      48.54620000      45.82420000
C       47.37070000      45.96490000      45.37710000
C       45.37700000      47.37070000      45.96500000
C       45.96490000      45.37700000      47.37090000
C       47.37090000      54.03500000      54.62300000
C       52.62900000      54.03520000      45.37700000
C       52.62940000      45.96490000      54.62280000
C       45.37720000      52.62910000      54.03530000
C       54.62280000      52.62930000      45.96480000
C       54.62310000      47.37090000      54.03490000
C       45.96490000      54.62290000      52.62940000
C       54.03490000      54.62300000      47.37070000
C       54.03530000      45.37710000      52.62900000
C       52.62910000      45.96500000      45.37700000
C       54.62280000      47.37090000      45.96470000
C       54.03510000      45.37710000      47.37060000
C       52.62930000      54.03510000      54.62290000
C       47.37060000      54.03510000      45.37720000
C       47.37100000      45.96480000      54.62300000
C       54.62300000      52.62930000      54.03500000
C       45.37690000      52.62910000      45.96510000
C       45.37720000      47.37070000      54.03520000
C       54.03510000      54.62300000      52.62910000
C       45.96470000      54.62290000      47.37100000
C       45.96510000      45.37700000      52.62930000
C       52.85580000      51.82280000      44.28100000
C       44.28110000      52.85590000      51.82290000
C       51.82290000      44.28120000      52.85590000
C       52.85620000      48.17730000      55.71880000
C       47.14380000      48.17730000      44.28120000
C       47.14410000      51.82260000      55.71900000
C       44.28110000      47.14390000      48.17750000
C       55.71900000      47.14410000      51.82250000
C       55.71880000      52.85610000      48.17710000
C       51.82250000      55.71890000      47.14390000
C       48.17730000      55.71880000      52.85610000
C       48.17730000      44.28110000      47.14400000
C       47.14380000      51.82270000      44.28120000
C       55.71890000      52.85610000      51.82250000
C       48.17750000      44.28110000      52.85610000
C       47.14420000      48.17720000      55.71900000
C       52.85590000      48.17740000      44.28100000
C       52.85620000      51.82270000      55.71880000
C       55.71890000      47.14410000      48.17710000
C       44.28120000      47.14390000      51.82290000
C       44.28100000      52.85590000      48.17750000
C       48.17710000      55.71880000      47.14410000
C       51.82270000      55.71890000      52.85600000
C       51.82270000      44.28120000      47.14390000
C       50.74360000      55.35320000      55.84640000
C       55.84650000      50.74360000      55.35300000
C       55.35310000      55.84650000      50.74340000
C       50.74340000      44.64680000      44.15360000
C       49.25680000      44.64680000      55.84640000
C       49.25620000      55.35320000      44.15370000
C       55.84620000      49.25660000      44.64660000
C       44.15380000      49.25640000      55.35340000
C       44.15340000      50.74340000      44.64700000
C       55.35330000      44.15370000      49.25630000
C       44.64690000      44.15350000      50.74370000
C       44.64670000      55.84630000      49.25670000
C       49.25660000      55.35320000      55.84640000
C       44.15380000      50.74340000      55.35340000
C       44.64670000      55.84630000      50.74370000
C       49.25640000      44.64680000      44.15360000
C       50.74380000      44.64680000      55.84630000
C       50.74320000      55.35320000      44.15360000
C       44.15350000      49.25640000      44.64700000
C       55.84660000      49.25660000      55.35300000
C       55.84620000      50.74360000      44.64660000
C       44.64690000      44.15350000      49.25660000
C       55.35330000      44.15370000      50.74330000
C       55.35310000      55.84650000      49.25630000
C       56.41520000      50.72270000      50.72810000
C       50.72830000      56.41520000      50.72260000
C       50.72280000      50.72840000      56.41520000
C       56.41520000      49.27750000      49.27140000
C       43.58490000      49.27730000      50.72860000
C       43.58480000      50.72250000      49.27190000
C       50.72850000      43.58480000      49.27740000
C       49.27180000      43.58480000      50.72260000
C       49.27150000      56.41520000      49.27750000
C       50.72240000      49.27170000      43.58480000
C       49.27770000      49.27160000      56.41520000
C       49.27720000      50.72840000      43.58490000
C       43.58480000      50.72250000      50.72860000
C       49.27150000      56.41520000      50.72260000
C       49.27760000      50.72830000      56.41520000
C       43.58480000      49.27730000      49.27190000
C       56.41520000      49.27750000      50.72810000
C       56.41510000      50.72270000      49.27140000
C       49.27170000      43.58480000      49.27740000
C       50.72850000      43.58480000      50.72250000
C       50.72820000      56.41520000      49.27740000
C       49.27720000      49.27160000      43.58480000
C       50.72280000      49.27160000      56.41510000
C       50.72230000      50.72840000      43.58480000
