240
Lattice="100.0 0.0 0.0 0.0 100.0 0.0 0.0 0.0 100.0" Properties=species:S:1:pos:R:3 name=C-2509655-3548-213 pressure=7.27840307666058 energy=-1764.87547570316 spacegroup=C1 times_found=1 pbc="T T T"
C       53.78910000      55.92520000      51.59370000
C       51.96680000      53.48190000      55.58620000
C       55.53380000      51.69450000      53.59400000
C       53.55320000      44.45190000      48.16130000
C       46.34750000      44.52290000      51.68650000
C       46.62310000      55.50940000      48.14130000
C       51.70670000      46.35040000      44.59580000
C       48.25730000      46.32820000      55.97940000
C       48.16590000      53.67050000      44.40820000
C       55.79940000      48.57340000      46.51070000
C       44.20440000      47.99240000      53.44790000
C       43.97170000      51.63640000      46.39780000
C       46.72480000      55.46550000      51.73160000
C       48.42470000      53.44970000      55.33400000
C       44.28180000      51.45090000      53.37920000
C       46.36310000      44.32950000      48.12080000
C       53.57090000      44.60440000      51.72360000
C       53.80920000      55.77030000      48.17870000
C       48.15730000      46.25750000      44.56970000
C       51.60700000      46.34540000      56.01160000
C       51.59740000      53.69830000      44.16630000
C       43.88370000      48.29940000      46.34340000
C       55.62120000      48.12540000      53.54450000
C       55.75280000      52.06260000      46.48680000
C       50.86320000      56.67020000      46.23480000
C       46.38770000      50.60490000      56.26300000
C       56.70370000      46.36140000      50.58650000
C       50.69930000      43.59690000      53.67730000
C       49.25540000      43.10640000      46.31180000
C       49.55940000      56.61540000      53.63420000
C       46.25620000      49.21150000      43.63640000
C       53.67080000      49.09210000      56.69310000
C       53.54870000      50.84940000      43.59550000
C       56.88870000      53.88420000      49.39000000
C       43.60110000      53.57260000      50.70450000
C       43.17600000      46.22030000      49.07400000
C       49.39200000      56.78040000      46.20250000
C       53.73630000      50.54560000      56.70450000
C       43.15200000      46.15270000      50.52940000
C       49.22330000      43.58340000      53.66910000
C       50.72530000      43.13920000      46.31960000
C       51.01520000      56.62200000      53.60640000
C       53.51420000      49.40140000      43.76810000
C       46.27950000      49.16360000      56.46290000
C       46.25290000      50.68500000      43.62290000
C       43.54980000      53.61330000      49.25750000
C       56.69930000      53.75720000      50.85010000
C       56.67320000      46.44500000      49.13080000
C       54.77870000      48.49700000      45.58930000
C       45.61190000      54.49890000      48.05650000
C       48.19890000      45.34680000      54.99490000
C       54.93110000      51.60860000      54.84630000
C       44.94610000      51.69540000      45.40410000
C       45.24920000      47.88860000      54.45790000
C       45.06120000      45.04810000      51.60590000
C       54.57070000      45.46440000      48.00620000
C       54.79860000      54.98470000      51.73800000
C       48.25400000      54.96620000      44.95400000
C       52.15200000      54.52520000      54.59480000
C       51.73710000      45.03240000      45.08840000
C       44.89000000      48.22000000      45.38440000
C       55.08870000      55.17740000      48.26440000
C       51.68180000      45.37660000      55.01570000
C       45.28030000      51.49840000      54.32260000
C       54.69090000      52.15840000      45.50660000
C       54.62680000      47.95200000      54.58780000
C       54.83990000      45.17230000      51.65150000
C       45.30340000      45.29960000      47.94750000
C       45.73200000      54.43380000      51.81580000
C       51.76470000      54.76160000      45.04190000
C       48.50080000      54.71590000      54.76220000
C       48.17250000      44.94190000      45.06060000
C       49.21650000      44.42920000      54.83110000
C       54.53970000      49.56180000      44.76080000
C       44.81240000      54.34000000      49.22920000
C       49.35380000      55.85790000      45.08670000
C       51.07850000      55.45700000      54.48280000
C       50.69610000      44.08180000      45.21270000
C       54.69660000      50.45470000      55.61390000
C       45.09020000      50.68980000      44.46710000
C       45.39350000      49.01820000      55.31800000
C       44.27860000      45.23420000      50.45120000
C       55.51840000      45.55670000      49.06830000
C       55.80490000      54.88250000      50.80970000
C       50.67960000      44.44400000      54.83750000
C       45.08320000      49.22620000      44.46550000
C       55.97140000      55.00520000      49.37050000
C       50.80490000      55.74520000      45.13710000
C       49.64030000      55.51990000      54.58940000
C       49.25580000      44.04600000      45.20300000
C       45.42110000      50.46330000      55.20880000
C       54.50810000      51.01230000      44.67420000
C       54.54550000      49.02030000      55.52870000
C       55.61530000      45.39830000      50.49900000
C       44.36350000      45.37720000      49.01670000
C       44.86150000      54.30860000      50.68640000
C       50.65540000      49.26780000      57.86220000
C       57.77220000      50.88460000      49.33660000
C       49.42970000      57.68620000      50.62340000
C       50.57450000      50.69180000      42.50500000
C       49.22520000      50.72480000      57.55140000
C       49.15770000      49.20560000      42.72630000
C       57.70800000      49.39950000      50.78300000
C       41.96490000      49.22730000      49.22390000
C       42.07650000      50.64730000      50.71130000
C       49.25140000      42.42690000      49.38640000
C       50.72000000      42.58190000      50.83230000
C       50.87890000      57.69630000      49.14410000
C       49.19320000      49.27580000      57.79130000
C       41.99890000      50.68860000      49.24480000
C       50.90160000      57.78330000      50.59850000
C       49.11990000      50.66800000      42.59820000
C       50.66710000      50.72460000      57.65530000
C       50.60570000      49.22760000      42.68090000
C       42.06510000      49.19640000      50.68720000
C       57.83030000      49.43330000      49.31160000
C       57.64620000      50.84310000      50.79970000
C       50.72980000      42.44470000      49.39220000
C       49.24930000      42.56370000      50.82620000
C       49.41210000      57.64530000      49.18390000
C       47.11800000      55.29470000      45.71160000
C       46.26940000      46.77410000      54.72890000
C       54.73850000      46.48980000      46.89680000
C       47.01290000      45.54750000      54.09760000
C       52.92530000      44.71040000      45.77610000
C       53.30280000      54.75430000      53.61040000
C       45.85330000      52.87650000      45.60430000
C       54.31490000      52.79380000      55.28470000
C       54.01400000      47.22260000      45.70850000
C       54.55990000      54.10600000      52.92070000
C       45.27010000      53.56810000      46.88970000
C       44.60120000      45.65390000      52.78920000
C       53.00070000      54.59570000      45.87720000
C       53.61230000      46.81750000      54.81000000
C       45.07360000      46.29050000      46.81130000
C       52.87780000      45.59420000      54.13930000
C       46.98610000      44.57110000      45.73220000
C       47.33110000      55.12990000      54.10480000
C       53.67630000      53.29660000      45.26950000
C       46.11920000      52.71260000      54.18460000
C       45.75460000      47.01310000      45.59390000
C       45.47520000      53.44870000      52.94980000
C       55.42170000      54.44140000      47.11940000
C       55.27740000      45.78390000      52.83890000
C       51.88220000      56.50230000      47.14030000
C       47.32480000      51.60880000      56.13160000
C       56.75560000      47.26250000      51.64810000
C       51.71480000      43.80200000      52.77340000
C       48.23740000      43.17540000      47.25110000
C       48.53150000      56.64870000      52.69180000
C       47.15310000      48.18790000      43.83800000
C       52.71150000      48.14160000      56.85860000
C       52.63160000      51.83460000      43.39290000
C       56.89290000      52.98370000      48.34110000
C       43.37680000      52.62200000      51.66710000
C       43.00970000      47.17920000      48.12020000
C       48.39040000      56.71510000      47.16100000
C       52.82450000      51.59910000      56.74890000
C       43.06320000      47.06350000      51.57920000
C       48.21420000      43.76900000      52.75300000
C       51.73130000      43.23880000      47.26740000
C       51.98100000      56.77900000      52.65840000
C       52.64910000      48.33510000      43.88990000
C       47.16580000      48.16720000      56.73570000
C       47.14390000      51.71630000      43.76080000
C       43.23420000      52.72730000      48.26230000
C       56.42810000      52.79550000      51.80000000
C       56.78360000      47.43000000      48.19240000
C       52.88390000      47.19790000      44.79630000
C       44.11210000      52.80430000      47.16020000
C       47.08120000      44.67590000      52.93520000
C       53.13570000      52.73890000      55.92820000
C       46.96500000      52.86680000      44.66260000
C       47.06210000      47.05570000      55.87240000
C       43.90480000      46.80040000      52.72330000
C       55.83640000      47.33790000      47.15920000
C       55.44290000      52.95440000      52.88070000
C       47.25570000      55.87670000      46.91350000
C       53.05020000      55.87250000      52.78240000
C       52.85280000      44.09110000      46.96960000
C       46.92900000      47.04390000      44.73130000
C       56.06390000      53.26490000      47.19620000
C       52.83000000      44.73070000      52.97010000
C       47.20540000      52.69090000      55.14500000
C       52.79530000      52.96820000      44.21450000
C       52.80700000      47.06830000      55.94650000
C       55.93360000      46.95640000      52.78790000
C       43.93380000      47.09470000      47.05590000
C       44.33280000      52.66430000      52.69190000
C       53.01280000      55.55660000      46.97240000
C       47.40940000      55.79130000      52.94070000
C       47.08130000      43.97630000      46.93750000
C       52.83500000      43.87530000      50.72040000
C       50.56220000      52.95010000      43.50830000
C       43.43090000      50.50600000      52.75380000
C       53.06350000      56.54720000      49.14670000
C       47.36490000      56.22710000      50.65800000
C       47.07350000      43.68960000      49.25180000
C       50.64170000      47.04200000      56.80650000
C       49.19900000      47.04290000      43.91630000
C       49.38730000      52.74750000      56.13540000
C       43.08350000      49.26480000      47.04190000
C       56.33170000      49.25350000      52.87860000
C       56.52460000      50.98860000      47.16560000
C       47.10330000      43.80470000      50.69210000
C       49.13370000      52.90880000      43.65010000
C       56.27310000      50.70140000      52.86270000
C       47.32230000      56.23440000      49.21800000
C       53.09190000      56.65930000      50.57980000
C       52.86720000      43.77320000      49.27920000
C       49.21430000      47.03810000      56.78270000
C       50.65170000      47.08470000      43.91830000
C       50.82920000      52.79960000      56.26250000
C       56.57900000      49.55580000      47.17450000
C       43.42580000      49.06700000      52.77840000
C       43.12970000      50.69440000      47.07490000
C       51.35710000      48.18350000      57.36330000
C       57.20070000      51.60770000      48.30250000
C       48.46210000      56.98330000      51.31100000
C       51.26240000      51.79080000      42.96050000
C       48.62970000      51.65860000      56.72660000
C       48.50060000      48.18780000      43.38160000
C       57.06130000      48.65100000      51.74570000
C       42.50100000      48.53350000      48.15740000
C       42.78850000      51.28800000      51.69220000
C       48.21540000      42.97090000      48.65170000
C       51.72270000      43.30630000      51.44240000
C       51.89960000      57.04720000      48.45930000
C       48.49710000      48.19460000      57.28930000
C       42.61050000      51.40730000      48.23440000
C       51.96090000      57.25230000      51.29450000
C       48.45360000      51.72040000      43.20840000
C       51.42650000      51.68390000      57.02010000
C       51.31150000      48.26160000      43.37460000
C       42.71090000      48.44560000      51.65700000
C       57.24420000      48.79620000      48.24250000
C       56.89940000      51.44990000      51.78950000
C       51.75360000      43.02190000      48.66660000
C       48.22550000      43.26710000      51.42430000
C       48.39110000      56.98500000      48.54230000
