240
Lattice="100.0 0.0 0.0 0.0 100.0 0.0 0.0 0.0 100.0" Properties=species:S:1:pos:R:3 name=C-2509655-3548-48 pressure=-0.0276204633363758 spacegroup=Td times_found=1 energy=-1733.70011888767 pbc="T T T"
C       53.08190000      44.90390000      45.92530000
C       45.92640000      53.08420000      44.90440000
C       44.90330000      45.92650000      53.08250000
C       53.08380000      55.09500000      54.07450000
C       46.91790000      55.09710000      45.92680000
C       46.91640000      44.90390000      54.07340000
C       45.92570000      46.91720000      55.09580000
C       54.07330000      46.91710000      44.90350000
C       54.07460000      53.08150000      55.09630000
C       44.90450000      54.07520000      46.91780000
C       55.09680000      54.07270000      53.08320000
C       55.09530000      45.92560000      46.91650000
C       53.08200000      45.92620000      44.90340000
C       45.92530000      44.90420000      53.08230000
C       44.90440000      53.08420000      45.92660000
C       53.08370000      54.07280000      55.09650000
C       46.91660000      45.92590000      55.09560000
C       46.91770000      54.07510000      44.90450000
C       45.92680000      55.09710000      46.91790000
C       54.07300000      44.90370000      46.91640000
C       54.07490000      55.09500000      53.08340000
C       44.90350000      46.91750000      54.07370000
C       55.09670000      53.08150000      54.07420000
C       55.09540000      46.91680000      45.92550000
C       48.35490000      44.53530000      45.56790000
C       45.56810000      48.35740000      44.53440000
C       44.53370000      45.56960000      48.35550000
C       48.35700000      55.46520000      54.43220000
C       51.64480000      55.46580000      45.56920000
C       51.64330000      44.53370000      54.43080000
C       45.56890000      51.64410000      55.46580000
C       54.43160000      51.64400000      44.53460000
C       54.43140000      48.35450000      55.46520000
C       44.53530000      54.43220000      51.64480000
C       55.46620000      54.43080000      48.35640000
C       55.46480000      45.56740000      51.64340000
C       48.35510000      45.56950000      44.53400000
C       45.56760000      44.53550000      48.35540000
C       44.53410000      48.35740000      45.56850000
C       48.35680000      54.43110000      55.46610000
C       51.64350000      45.56760000      55.46490000
C       51.64470000      54.43190000      44.53500000
C       45.56950000      55.46600000      51.64490000
C       54.43060000      44.53360000      51.64330000
C       54.43230000      55.46500000      48.35650000
C       44.53490000      51.64440000      54.43180000
C       55.46530000      48.35450000      54.43110000
C       55.46560000      51.64370000      45.56860000
C       49.97780000      47.30290000      56.64370000
C       56.64400000      49.97730000      47.30360000
C       47.30490000      56.64450000      49.97900000
C       49.97830000      52.69710000      43.35630000
C       50.02250000      52.69540000      56.64440000
C       50.02130000      47.30460000      43.35560000
C       56.64410000      50.02050000      52.69610000
C       43.35590000      50.02340000      47.30390000
C       43.35600000      49.97880000      52.69640000
C       47.30270000      43.35640000      50.02120000
C       52.69510000      43.35550000      49.97720000
C       52.69730000      56.64360000      50.02270000
C       49.97910000      56.64440000      47.30460000
C       56.64360000      47.30270000      49.97760000
C       47.30390000      49.97770000      56.64410000
C       49.97700000      43.35560000      52.69540000
C       50.02310000      56.64370000      52.69710000
C       50.02080000      43.35630000      47.30290000
C       56.64450000      52.69510000      50.02210000
C       43.35550000      47.30490000      50.02180000
C       43.35640000      52.69730000      49.97860000
C       47.30360000      50.02320000      43.35600000
C       52.69610000      49.97850000      43.35590000
C       52.69640000      50.02060000      56.64400000
C       55.54030000      45.42840000      49.18530000
C       49.18690000      55.54170000      45.43000000
C       45.42930000      49.18610000      55.54110000
C       55.54180000      54.56970000      50.81440000
C       44.45970000      54.57180000      49.18680000
C       44.45820000      45.43010000      50.81350000
C       49.18530000      44.45850000      54.57010000
C       50.81290000      44.45940000      45.42850000
C       50.81500000      55.54030000      54.57140000
C       45.42920000      50.81540000      44.45920000
C       54.57100000      50.81250000      55.54100000
C       54.57050000      49.18600000      44.45870000
C       55.54080000      49.18570000      45.42900000
C       49.18540000      45.42870000      55.54050000
C       45.43010000      55.54190000      49.18690000
C       55.54130000      50.81240000      54.57070000
C       44.45890000      49.18640000      54.57080000
C       44.45900000      50.81540000      45.42950000
C       49.18670000      54.57160000      44.45960000
C       50.81300000      45.42980000      44.45840000
C       50.81480000      54.56990000      55.54160000
C       45.42830000      44.45960000      50.81340000
C       54.57170000      55.54020000      50.81450000
C       54.56980000      44.45830000      49.18520000
C       55.81400000      46.23970000      48.07880000
C       48.08030000      55.81550000      46.24120000
C       46.24030000      48.07930000      55.81460000
C       55.81540000      53.75830000      51.92090000
C       44.18590000      53.76080000      48.08010000
C       44.18470000      46.24120000      51.92020000
C       48.07860000      44.18510000      53.75890000
C       51.91950000      44.18540000      46.23970000
C       51.92160000      55.81390000      53.76020000
C       46.24060000      51.92190000      44.18560000
C       53.76000000      51.91920000      55.81490000
C       53.75910000      48.07950000      44.18490000
C       55.81430000      48.07890000      46.24010000
C       48.07900000      46.24000000      55.81430000
C       46.24140000      55.81560000      48.08030000
C       55.81510000      51.91910000      53.75960000
C       44.18510000      48.07990000      53.75950000
C       44.18550000      51.92200000      46.24080000
C       48.07990000      53.76060000      44.18580000
C       51.91980000      46.24090000      44.18480000
C       51.92130000      53.75850000      55.81510000
C       46.23950000      44.18570000      51.91990000
C       53.76060000      55.81380000      51.92120000
C       53.75850000      44.18490000      48.07860000
C       52.69450000      56.17080000      46.22870000
C       46.22860000      52.69350000      56.17120000
C       56.17020000      46.22670000      52.69300000
C       52.69270000      43.82830000      53.77110000
C       47.30530000      43.83020000      46.22730000
C       47.30750000      56.17070000      53.77280000
C       46.22740000      47.30780000      43.82900000
C       53.77170000      47.30500000      56.17030000
C       53.77230000      52.69380000      43.82950000
C       56.17130000      53.77130000      47.30670000
C       43.82990000      53.77270000      52.69420000
C       43.82850000      46.22940000      47.30610000
C       52.69310000      46.22680000      56.17020000
C       46.22910000      56.17110000      52.69450000
C       56.17110000      52.69310000      46.22820000
C       52.69410000      53.77230000      43.82960000
C       47.30560000      46.22920000      43.82880000
C       47.30720000      53.77160000      56.17130000
C       46.22690000      43.83020000      47.30570000
C       53.77290000      56.17050000      47.30710000
C       53.77100000      43.82830000      52.69270000
C       56.17040000      47.30490000      53.77150000
C       43.82980000      52.69420000      53.77250000
C       43.82870000      47.30790000      46.22780000
C       52.15790000      46.84360000      57.37860000
C       57.37930000      52.15740000      46.84500000
C       46.84620000      57.37930000      52.15920000
C       52.15850000      53.15570000      42.62130000
C       47.84250000      53.15450000      57.37950000
C       47.84110000      46.84620000      42.62060000
C       57.37880000      47.84020000      53.15460000
C       42.62050000      47.84340000      46.84480000
C       42.62140000      52.15900000      53.15550000
C       46.84360000      42.62180000      47.84090000
C       53.15390000      42.62020000      52.15720000
C       53.15620000      57.37880000      47.84260000
C       52.15930000      57.37910000      46.84580000
C       57.37860000      46.84340000      52.15760000
C       46.84550000      52.15780000      57.37940000
C       52.15710000      42.62020000      53.15410000
C       47.84310000      57.37900000      53.15610000
C       47.84050000      42.62170000      46.84400000
C       57.37950000      53.15410000      47.84200000
C       42.62040000      46.84640000      47.84160000
C       42.62160000      53.15600000      52.15880000
C       46.84440000      47.84320000      42.62080000
C       53.15520000      52.15860000      42.62120000
C       53.15490000      47.84030000      57.37870000
C       57.29170000      51.07570000      47.85330000
C       47.85460000      57.29180000      51.07760000
C       51.07650000      47.85230000      57.29130000
C       57.29150000      48.92190000      52.14630000
C       42.70820000      48.92480000      47.85340000
C       42.70870000      51.07760000      52.14700000
C       47.85210000      42.70890000      48.92250000
C       52.14550000      42.70790000      51.07570000
C       52.14780000      57.29140000      48.92420000
C       51.07680000      52.14740000      42.70870000
C       48.92390000      52.14590000      57.29190000
C       48.92280000      47.85440000      42.70820000
C       57.29130000      47.85200000      51.07620000
C       47.85370000      51.07610000      57.29180000
C       51.07780000      57.29170000      47.85420000
C       57.29190000      52.14560000      48.92340000
C       42.70800000      47.85470000      48.92330000
C       42.70880000      52.14770000      51.07710000
C       47.85300000      48.92460000      42.70830000
C       52.14660000      51.07720000      42.70850000
C       52.14670000      48.92210000      57.29140000
C       51.07550000      42.70800000      52.14570000
C       48.92460000      57.29150000      52.14760000
C       48.92210000      42.70890000      47.85250000
C       48.50580000      43.56270000      52.50420000
C       52.50460000      48.50720000      43.56250000
C       43.56320000      52.50630000      48.50730000
C       48.50780000      56.43780000      47.49580000
C       51.49430000      56.43660000      52.50580000
C       51.49200000      43.56290000      47.49410000
C       52.50540000      51.49190000      56.43730000
C       47.49510000      51.49440000      43.56300000
C       47.49490000      48.50640000      56.43710000
C       43.56240000      47.49590000      51.49300000
C       56.43680000      47.49410000      48.50640000
C       56.43770000      52.50380000      51.49330000
C       48.50710000      52.50610000      43.56310000
C       52.50390000      43.56260000      48.50600000
C       43.56260000      48.50760000      52.50500000
C       48.50660000      47.49440000      56.43690000
C       51.49370000      52.50400000      56.43750000
C       51.49260000      47.49550000      43.56240000
C       52.50610000      56.43660000      51.49390000
C       47.49400000      43.56300000      51.49240000
C       47.49600000      56.43780000      48.50770000
C       43.56300000      51.49450000      47.49530000
C       56.43690000      48.50610000      47.49460000
C       56.43750000      51.49180000      52.50500000
C       44.06240000      46.03610000      49.65030000
C       49.64950000      44.06360000      46.03430000
C       46.03480000      49.65200000      44.06310000
C       44.06370000      53.96590000      50.35010000
C       55.93760000      53.96400000      49.65090000
C       55.93630000      46.03400000      50.34870000
C       49.65170000      55.93650000      53.96570000
C       50.35030000      55.93740000      46.03580000
C       50.34850000      44.06250000      53.96420000
C       46.03520000      50.34930000      55.93710000
C       53.96490000      50.34950000      44.06300000
C       53.96510000      49.64920000      55.93680000
C       44.06290000      49.65210000      46.03510000
C       49.64980000      46.03580000      44.06260000
C       46.03400000      44.06380000      49.65000000
C       44.06320000      50.34990000      53.96520000
C       55.93700000      49.64910000      53.96480000
C       55.93690000      50.34890000      46.03490000
C       49.65140000      53.96430000      55.93740000
C       50.34890000      46.03420000      55.93640000
C       50.34990000      53.96570000      44.06360000
C       46.03600000      55.93750000      50.35030000
C       53.96400000      44.06240000      50.34860000
C       53.96590000      55.93630000      49.65120000
