240
Lattice="100.0 0.0 0.0 0.0 100.0 0.0 0.0 0.0 100.0" Properties=species:S:1:pos:R:3 name=C-2509655-3548-844 pressure=15.9558800225791 energy=-1711.64327258627 spacegroup=C1 times_found=1 pbc="T T T"
C       45.63900000      46.60810000      55.35270000
C       46.57530000      55.43510000      45.71180000
C       55.43740000      45.71750000      46.57220000
C       54.27130000      53.42120000      55.43020000
C       45.71770000      53.42470000      44.56700000
C       54.28150000      46.57440000      44.56970000
C       53.42950000      44.56630000      45.71980000
C       46.59320000      44.58060000      54.30140000
C       53.41830000      55.42900000      54.28240000
C       44.56490000      54.29160000      46.56560000
C       55.42780000      54.28070000      53.42880000
C       44.56950000      45.61350000      53.33300000
C       46.63040000      45.58720000      55.32850000
C       55.34970000      46.67370000      45.52190000
C       45.52170000      55.35610000      46.66450000
C       53.31550000      54.47230000      55.34570000
C       53.32660000      45.52220000      44.65550000
C       46.67390000      54.47680000      44.64900000
C       44.64980000      53.33030000      45.51890000
C       44.60900000      46.61280000      54.35250000
C       55.34100000      53.32390000      54.47890000
C       54.48450000      44.64980000      46.67220000
C       54.47300000      55.34670000      53.32950000
C       45.56670000      44.58220000      53.30660000
C       55.97790000      49.27370000      48.27640000
C       49.27320000      48.29010000      55.92830000
C       48.27330000      55.98400000      49.26860000
C       44.01140000      50.74320000      48.28340000
C       55.97680000      50.72360000      51.72660000
C       43.93700000      49.31470000      51.71280000
C       50.71070000      51.71340000      55.93870000
C       49.27410000      51.72340000      44.03370000
C       50.72550000      48.27590000      44.04130000
C       51.74410000      44.00850000      49.28250000
C       48.32460000      43.94850000      50.73110000
C       51.72200000      55.97790000      50.72770000
C       49.30170000      56.03900000      48.31340000
C       48.30420000      49.29240000      55.93760000
C       56.04020000      48.31530000      49.30140000
C       50.71640000      43.95760000      48.32740000
C       50.69350000      56.03880000      51.68350000
C       49.32940000      43.92770000      51.70250000
C       51.67280000      50.69190000      56.00190000
C       51.68260000      49.30180000      43.97570000
C       48.31730000      50.69680000      43.98020000
C       43.93970000      51.71100000      49.29820000
C       43.92680000      48.33860000      50.71170000
C       56.03500000      51.68200000      50.70140000
C       55.18450000      56.37040000      49.41840000
C       56.36670000      49.41500000      55.18940000
C       49.40680000      55.17770000      56.36600000
C       44.80700000      43.80780000      49.49800000
C       55.20930000      43.62360000      50.58090000
C       44.81380000      56.39570000      50.57360000
C       44.30910000      50.36280000      55.26070000
C       56.36970000      50.58670000      44.81630000
C       43.63270000      49.40450000      44.83420000
C       50.55110000      44.83870000      56.38590000
C       49.40170000      44.82200000      43.65130000
C       50.58640000      55.18220000      43.62940000
C       55.72220000      55.24070000      49.65610000
C       49.64430000      55.72270000      55.24010000
C       55.23520000      49.65170000      55.72370000
C       44.01110000      44.78390000      49.57320000
C       44.27490000      55.26610000      50.33680000
C       55.74170000      44.75570000      50.34300000
C       50.34540000      44.29060000      55.25530000
C       50.34920000      55.72190000      44.75820000
C       49.64510000      44.28440000      44.78030000
C       44.84820000      50.55940000      56.39690000
C       44.76210000      49.64500000      44.29690000
C       55.23990000      50.34740000      44.27960000
C       48.85230000      52.99520000      55.20480000
C       52.99070000      55.21850000      48.87100000
C       55.22500000      48.86110000      52.99200000
C       51.11780000      47.00490000      55.18900000
C       48.87160000      47.01360000      44.81690000
C       51.13250000      52.99150000      44.78770000
C       47.02590000      44.79110000      48.92110000
C       53.01200000      44.76350000      51.13880000
C       47.00190000      55.23600000      51.12700000
C       44.80700000      51.12520000      52.98320000
C       55.21850000      51.13290000      47.01140000
C       44.78590000      48.87990000      47.03370000
C       52.97780000      48.88590000      55.17450000
C       55.18930000      52.97660000      48.89540000
C       48.88190000      55.20000000      52.97450000
C       47.00890000      51.12690000      55.19320000
C       47.02700000      48.89500000      44.84000000
C       52.97710000      51.10920000      44.81580000
C       44.78110000      47.03670000      48.90760000
C       44.79790000      52.99930000      51.09990000
C       55.20290000      47.01670000      51.10820000
C       51.13160000      44.79070000      52.98690000
C       51.11000000      55.19220000      47.02380000
C       48.90540000      44.82250000      47.05210000
C       48.37820000      44.44500000      49.37700000
C       44.44930000      49.36860000      48.36500000
C       49.35050000      48.34600000      44.47670000
C       51.65570000      55.55320000      49.34890000
C       48.33770000      55.56340000      50.64850000
C       51.67720000      44.42480000      50.66340000
C       55.55170000      50.65190000      48.34530000
C       44.39630000      50.68200000      51.65100000
C       55.55640000      49.34330000      51.65810000
C       50.65220000      51.65670000      44.45850000
C       49.33560000      51.65320000      55.50210000
C       50.64920000      48.34490000      55.50450000
C       44.42400000      48.39360000      49.35590000
C       49.35120000      44.42740000      48.39190000
C       48.37330000      49.33030000      44.44840000
C       55.57750000      51.62850000      49.33070000
C       55.58550000      48.36650000      50.67300000
C       44.38840000      51.65750000      50.67030000
C       50.67240000      55.58130000      48.37020000
C       50.69520000      44.39490000      51.64450000
C       49.32090000      55.58720000      51.62750000
C       51.62930000      50.67260000      44.43140000
C       51.62790000      49.32370000      55.54120000
C       48.35720000      50.66530000      55.49980000
C       50.23940000      44.17710000      53.89450000
C       44.17750000      53.90690000      50.20750000
C       53.87950000      50.21820000      44.18920000
C       49.77480000      55.81880000      53.88010000
C       50.22010000      55.81610000      46.11840000
C       49.78530000      44.19230000      46.13900000
C       55.82930000      46.11650000      50.21500000
C       44.05620000      46.15820000      49.74300000
C       55.81480000      53.88010000      49.78600000
C       46.12220000      49.77830000      44.20590000
C       53.87380000      49.77830000      55.80780000
C       46.15540000      50.27880000      55.93580000
C       44.19970000      50.24070000      53.89990000
C       53.88880000      44.04150000      50.29480000
C       50.29470000      53.86540000      44.05540000
C       55.94820000      49.70350000      53.86940000
C       55.94740000      50.29490000      46.13440000
C       44.05370000      49.70790000      46.15010000
C       46.12970000      55.96590000      50.28480000
C       46.16930000      44.00830000      49.72700000
C       53.86610000      55.94840000      49.70940000
C       49.70110000      46.13700000      44.07760000
C       49.69270000      53.85900000      55.94120000
C       50.26940000      46.14560000      55.92740000
C       47.08430000      52.11010000      45.91690000
C       52.11320000      45.90490000      47.09730000
C       45.93040000      46.96550000      51.96930000
C       52.91220000      47.88980000      45.91660000
C       46.97920000      47.92850000      53.97600000
C       52.90550000      52.10560000      54.07880000
C       47.88700000      54.09490000      47.09010000
C       52.10550000      54.09090000      52.90270000
C       47.91910000      45.92480000      52.93040000
C       54.09050000      52.91190000      52.10340000
C       45.90000000      52.92200000      47.89380000
C       54.09640000      47.08430000      47.89520000
C       51.98850000      46.83110000      46.04490000
C       46.02800000      51.99260000      46.84010000
C       46.90970000      45.95150000      51.93890000
C       48.01020000      53.16720000      46.03980000
C       47.96100000      46.90350000      53.94430000
C       51.98010000      53.16330000      53.95260000
C       53.96730000      48.01070000      46.83860000
C       53.96260000      51.98510000      53.15880000
C       45.97160000      47.94390000      52.99030000
C       53.16630000      53.96580000      51.98080000
C       53.17380000      46.02910000      48.01960000
C       46.82600000      53.97370000      48.01320000
C       46.82960000      48.99360000      56.10060000
C       48.99170000      56.16680000      46.84120000
C       56.17470000      46.84420000      48.98740000
C       53.14260000      51.00450000      56.15200000
C       46.84530000      51.00530000      43.84630000
C       53.15370000      48.99040000      43.84100000
C       51.01720000      43.83210000      46.85370000
C       49.00920000      43.82890000      53.17770000
C       51.00410000      56.16600000      53.15570000
C       43.81960000      53.18070000      48.98150000
C       56.16650000      53.15440000      51.01340000
C       43.76700000      46.85570000      51.00430000
C       48.98040000      46.81220000      56.08780000
C       56.11290000      49.00100000      46.78120000
C       46.77930000      56.12350000      48.99160000
C       50.98530000      53.20870000      56.09580000
C       50.99560000      46.78160000      43.90310000
C       49.00100000      53.21730000      43.89220000
C       43.88250000      51.00640000      46.78630000
C       43.85340000      49.00150000      53.19490000
C       56.10990000      50.99740000      53.22180000
C       53.23800000      43.87830000      49.00280000
C       53.21700000      56.11440000      51.00230000
C       46.83860000      43.77210000      51.00690000
C       47.97520000      46.22540000      55.37190000
C       46.10800000      55.37730000      48.04450000
C       55.36770000      48.05130000      46.11350000
C       51.93710000      53.88070000      55.35680000
C       48.05070000      53.88600000      44.63480000
C       51.94770000      46.11010000      44.64190000
C       53.89900000      44.62790000      48.05190000
C       46.21530000      44.51260000      51.97750000
C       53.88810000      55.36810000      51.94950000
C       44.62800000      51.95350000      46.11460000
C       55.36160000      51.94680000      53.88670000
C       44.53350000      47.93290000      53.68580000
C       46.31620000      47.93110000      55.41880000
C       55.56690000      46.45930000      47.83980000
C       47.84150000      55.56230000      46.45780000
C       53.52800000      52.15510000      55.55190000
C       53.53730000      47.84050000      44.44500000
C       46.45920000      52.15650000      44.44610000
C       44.43120000      53.55510000      47.83330000
C       44.46800000      46.31270000      52.03710000
C       55.55920000      53.53980000      52.16090000
C       52.16480000      44.43680000      46.46530000
C       52.15360000      55.55870000      53.53590000
C       47.89370000      44.47540000      53.60300000
C       52.19720000      53.22830000      45.74860000
C       53.24660000      45.72870000      52.19920000
C       45.74410000      52.20530000      53.20360000
C       47.80930000      46.78230000      45.78310000
C       52.20190000      46.76080000      54.25020000
C       47.78210000      53.24610000      54.25500000
C       46.76230000      54.27500000      52.18980000
C       53.22710000      54.25600000      47.80740000
C       46.78760000      45.75870000      47.85210000
C       54.26620000      47.79270000      53.22650000
C       45.74900000      47.81290000      46.80550000
C       54.25600000      52.19710000      46.77690000
C       53.21380000      52.19000000      45.75400000
C       45.74290000      53.22710000      52.17560000
C       52.20870000      45.73270000      53.21630000
C       46.79320000      47.81910000      45.78560000
C       46.75470000      52.21220000      54.25490000
C       53.21960000      47.79990000      54.24540000
C       54.26590000      46.77580000      52.18900000
C       54.25000000      53.21310000      47.81550000
C       45.74930000      46.79500000      47.84460000
C       47.79700000      54.26520000      53.20990000
C       47.82120000      45.76230000      46.82930000
C       52.19000000      54.25200000      46.78980000
