240
Lattice="100.0 0.0 0.0 0.0 100.0 0.0 0.0 0.0 100.0" Properties=species:S:1:pos:R:3 name=C-2509655-3548-265 pressure=2.00347634000806 spacegroup=C1 times_found=1 energy=-1691.26748157652 pbc="T T T"
C       56.57090000      51.62290000      47.35790000
C       51.61180000      47.39460000      56.38660000
C       47.46660000      56.49260000      51.57550000
C       56.44030000      48.35990000      52.64010000
C       43.57850000      51.61690000      52.68210000
C       43.51450000      48.32180000      47.36370000
C       51.40300000      52.72680000      43.77250000
C       48.33600000      47.39250000      43.59730000
C       48.30470000      52.55780000      56.58250000
C       47.35850000      43.57340000      48.34670000
C       52.97490000      56.34480000      47.92940000
C       52.65070000      43.59240000      51.63230000
C       56.45740000      47.34450000      51.64130000
C       52.93220000      56.34220000      46.50650000
C       47.30470000      51.54350000      56.53120000
C       56.66650000      52.60420000      48.39220000
C       43.57080000      52.63310000      51.68490000
C       43.54540000      47.31680000      48.36920000
C       51.64370000      43.58290000      52.63670000
C       48.36700000      43.59370000      47.34200000
C       48.69030000      56.77480000      52.32290000
C       47.30790000      48.37510000      43.58960000
C       52.59780000      48.41940000      56.35570000
C       52.54490000      51.84040000      43.75620000
C       54.26630000      46.82670000      47.77750000
C       46.75820000      47.73740000      54.24660000
C       47.54870000      54.23450000      46.73980000
C       54.17020000      53.12290000      52.01720000
C       45.72380000      46.76110000      52.21800000
C       45.55840000      53.20990000      47.76920000
C       46.63740000      52.21140000      45.73880000
C       53.19180000      47.86330000      45.79420000
C       53.06640000      52.17920000      54.02820000
C       47.76260000      45.72270000      53.19770000
C       52.04280000      54.10710000      52.81850000
C       52.21620000      45.81350000      46.80670000
C       54.25690000      47.83290000      46.80680000
C       46.57820000      54.25000000      47.74120000
C       47.75270000      46.75930000      54.24010000
C       54.13800000      52.16800000      53.03110000
C       45.57310000      52.22390000      46.77370000
C       45.71590000      47.74290000      53.20830000
C       46.77510000      45.72370000      52.21350000
C       53.21340000      45.79370000      47.78100000
C       53.09440000      54.11510000      51.89690000
C       47.65670000      53.17190000      45.76990000
C       52.04330000      53.14460000      53.94360000
C       52.20570000      46.87460000      45.78090000
C       45.42770000      53.45470000      51.10190000
C       53.55020000      51.19410000      45.66570000
C       51.05030000      45.50420000      53.48270000
C       45.47790000      46.48170000      48.94140000
C       54.90180000      53.57080000      48.86240000
C       54.51130000      46.51500000      51.04500000
C       53.45200000      48.95630000      54.42600000
C       46.46130000      51.00900000      54.52730000
C       46.40430000      48.94370000      45.51930000
C       51.12900000      53.74960000      47.65690000
C       48.92340000      45.54800000      46.51570000
C       48.67630000      54.34210000      53.52010000
C       45.45900000      51.02640000      53.53820000
C       53.50820000      45.52630000      51.04680000
C       50.47670000      53.07650000      46.83160000
C       45.39940000      48.92610000      46.50740000
C       54.46250000      48.95140000      53.44390000
C       54.61600000      51.14900000      46.59020000
C       53.85910000      54.57060000      48.74640000
C       46.49490000      54.38930000      51.08130000
C       46.48460000      45.49660000      48.93910000
C       51.03860000      46.50520000      54.47360000
C       48.91090000      46.55250000      45.52930000
C       48.81670000      53.54760000      54.63590000
C       50.47910000      51.60430000      43.85370000
C       51.63320000      43.75900000      50.56700000
C       43.71610000      50.55540000      51.65520000
C       50.53520000      48.39200000      56.21000000
C       49.37080000      51.60210000      56.22870000
C       49.38730000      48.43140000      43.77640000
C       51.75800000      56.17150000      48.80490000
C       48.37510000      43.74370000      49.41060000
C       48.30050000      56.33980000      50.38890000
C       43.66930000      49.39140000      48.38670000
C       56.37060000      50.54620000      48.36200000
C       56.29790000      49.40870000      51.61080000
C       50.58030000      43.74650000      51.61410000
C       51.61420000      50.67310000      43.82040000
C       43.69860000      51.60680000      50.61220000
C       50.51830000      56.08650000      47.98920000
C       49.53080000      56.48450000      51.17090000
C       49.42790000      43.76380000      48.36280000
C       51.55880000      49.46840000      56.16290000
C       48.30300000      49.45080000      43.77060000
C       48.34720000      50.52600000      56.25880000
C       43.70030000      48.33840000      49.43290000
C       56.31380000      48.35510000      50.56540000
C       56.42680000      51.56990000      49.42420000
C       51.68850000      50.80880000      55.69260000
C       50.77690000      55.79210000      51.28470000
C       55.92840000      51.75220000      50.73700000
C       51.77920000      49.31920000      44.21380000
C       48.10530000      50.77330000      44.21770000
C       48.17360000      49.18830000      55.83250000
C       50.77170000      44.18910000      48.20680000
C       49.07610000      55.78030000      48.12910000
C       49.22940000      44.14590000      51.77590000
C       55.90320000      48.19900000      49.21660000
C       44.05790000      51.77090000      49.25620000
C       44.11740000      48.18080000      50.77840000
C       51.83670000      55.74450000      50.26230000
C       50.65880000      51.84570000      55.66900000
C       55.86530000      50.74710000      51.75120000
C       51.79470000      44.18090000      49.22310000
C       48.20740000      44.14440000      50.75830000
C       48.06520000      55.86320000      49.09580000
C       50.74400000      48.29850000      44.19170000
C       49.19440000      48.18610000      55.81940000
C       49.14940000      51.75430000      44.31590000
C       55.91250000      49.21990000      48.19740000
C       44.11860000      49.20090000      51.80180000
C       44.04600000      50.74930000      48.22590000
C       49.78860000      44.83570000      54.05830000
C       44.76950000      54.05440000      49.85440000
C       54.01540000      49.93300000      44.95260000
C       49.64070000      55.08940000      46.01510000
C       50.20300000      44.91380000      45.94150000
C       49.99920000      55.15850000      53.62720000
C       44.82530000      45.89890000      50.20620000
C       55.34620000      54.07610000      50.20110000
C       55.17010000      45.93490000      49.78200000
C       53.99050000      50.24750000      55.05790000
C       45.87810000      49.72910000      55.17160000
C       45.80620000      50.19160000      44.85070000
C       49.98260000      53.80050000      45.40440000
C       44.80210000      49.75140000      54.08760000
C       54.07980000      44.86400000      49.78160000
C       49.77890000      45.91810000      55.13630000
C       50.19210000      46.00800000      44.87260000
C       50.10610000      54.26910000      54.98260000
C       44.71960000      50.17840000      45.92810000
C       55.09240000      50.23660000      54.00680000
C       55.16750000      49.86040000      45.95210000
C       54.24740000      55.14030000      50.10270000
C       45.88570000      55.09450000      49.82860000
C       45.91760000      44.82520000      50.20140000
C       54.26650000      44.75200000      53.26380000
C       44.68480000      53.22640000      54.34950000
C       53.63080000      54.66490000      44.96730000
C       55.03200000      55.52620000      46.80490000
C       45.72510000      44.71820000      46.72750000
C       45.74790000      55.20860000      53.34600000
C       44.68830000      46.70310000      45.73210000
C       55.49240000      53.34600000      45.82020000
C       55.25310000      46.76620000      54.25750000
C       53.25340000      45.76700000      55.25550000
C       46.65440000      54.18700000      55.45640000
C       46.71730000      45.74270000      44.73390000
C       54.40160000      53.45930000      44.88740000
C       44.71580000      54.23730000      53.34270000
C       53.26430000      44.75400000      54.26100000
C       54.24530000      46.77460000      55.25200000
C       45.69780000      46.72260000      44.73420000
C       45.67990000      53.19090000      55.37260000
C       44.70790000      45.70510000      46.73160000
C       55.26630000      45.75460000      53.26560000
C       55.80020000      54.35380000      46.78450000
C       54.05440000      55.70510000      45.85800000
C       46.66190000      55.19650000      54.44500000
C       46.72890000      44.73750000      45.73000000
C       48.08110000      46.12090000      44.25540000
C       46.08120000      44.22650000      48.08870000
C       44.16030000      48.05600000      46.08020000
C       48.05630000      53.82130000      55.91690000
C       51.88820000      46.11130000      55.74300000
C       52.18820000      54.76750000      44.92540000
C       46.22380000      55.69020000      51.97140000
C       53.91730000      44.26000000      51.89700000
C       54.41960000      55.91180000      48.12760000
C       44.19980000      51.87100000      53.97480000
C       55.73650000      48.12810000      53.89330000
C       55.88830000      51.94400000      46.10920000
C       48.10020000      44.26960000      46.08150000
C       46.03010000      48.09060000      44.24700000
C       44.21490000      46.05010000      48.09810000
C       47.95160000      55.54740000      54.14580000
C       51.83210000      55.82490000      45.84100000
C       51.90550000      44.24900000      53.90870000
C       46.03780000      51.80920000      55.83450000
C       53.84200000      52.12220000      44.43280000
C       53.87470000      48.14840000      55.71400000
C       44.21180000      53.91610000      51.97680000
C       56.20820000      53.96220000      48.17100000
C       55.77020000      46.09010000      51.90190000
C       44.69290000      48.77350000      53.08260000
C       48.85890000      52.95800000      45.02300000
C       53.07960000      44.76020000      48.80090000
C       44.58480000      51.16890000      46.92060000
C       55.29420000      48.84570000      46.92060000
C       55.21410000      51.18730000      52.98790000
C       48.78370000      46.89880000      55.25460000
C       51.03280000      53.11270000      54.97010000
C       51.16830000      47.01570000      44.76780000
C       53.06400000      55.16230000      50.86320000
C       46.91710000      44.70950000      51.18090000
C       46.77980000      55.24400000      48.76580000
C       44.59590000      53.07410000      48.84800000
C       48.80390000      44.71250000      53.06310000
C       53.03610000      48.92650000      44.81890000
C       44.70180000      46.89450000      51.19080000
C       55.29840000      46.92990000      48.79810000
C       55.31650000      53.02600000      51.13050000
C       48.59970000      55.14980000      46.90170000
C       50.99740000      55.08880000      52.58570000
C       51.18870000      44.78980000      46.93270000
C       52.96060000      51.21140000      55.10350000
C       46.80050000      51.17620000      44.74770000
C       46.88560000      48.75830000      55.27180000
C       54.82800000      49.26470000      55.84130000
C       48.98000000      56.32440000      53.60420000
C       56.24950000      54.91630000      49.34760000
C       54.78420000      50.97350000      44.19180000
C       45.01560000      49.15950000      44.10290000
C       45.04390000      50.72320000      55.93740000
C       49.20450000      44.16020000      45.10670000
C       50.66600000      55.87650000      46.53550000
C       50.81220000      44.10640000      54.89030000
C       55.90340000      45.10990000      50.80520000
C       44.11340000      54.91830000      50.91360000
C       44.08880000      45.06480000      49.19000000
C       55.26210000      55.95780000      49.31340000
C       49.25140000      54.67350000      56.09570000
C       55.83960000      49.24900000      54.85450000
C       54.89700000      44.11710000      50.80230000
C       45.10030000      44.07660000      49.18400000
C       45.18320000      55.85570000      50.90280000
C       49.19570000      45.16610000      44.11600000
C       50.80460000      45.11460000      55.88510000
C       51.20430000      53.85340000      44.55600000
C       55.87840000      50.87870000      45.09470000
C       44.05100000      50.75060000      54.93070000
C       44.00250000      49.14280000      45.09450000
