240
Lattice="100.0 0.0 0.0 0.0 100.0 0.0 0.0 0.0 100.0" Properties=species:S:1:pos:R:3 name=C-2509655-3548-584 pressure=68.5945110707194 energy=-1793.584420508 spacegroup=C1 times_found=1 pbc="T T T"
C       52.84160000      46.26070000      44.28830000
C       44.37490000      52.75730000      46.03680000
C       46.17600000      44.31340000      52.69970000
C       46.92930000      53.77980000      44.67480000
C       46.94510000      46.19790000      55.30750000
C       52.74790000      53.69260000      55.68620000
C       55.35990000      47.08160000      46.24110000
C       55.30370000      52.90510000      53.75700000
C       44.42840000      47.30380000      53.92090000
C       53.92330000      55.46100000      52.71370000
C       54.03560000      44.48270000      47.27330000
C       46.13820000      55.77030000      47.18430000
C       52.70020000      46.02330000      55.56850000
C       44.72170000      53.05560000      53.78880000
C       46.29500000      44.70870000      47.06040000
C       47.28300000      53.81350000      55.73710000
C       47.27240000      46.02780000      44.45280000
C       52.67650000      53.93410000      44.42180000
C       55.70360000      47.24660000      53.85640000
C       55.68660000      52.73830000      46.14380000
C       44.28610000      47.18540000      46.24640000
C       53.76190000      55.30720000      46.95600000
C       53.79400000      44.66870000      53.03220000
C       46.12330000      55.57220000      52.75270000
C       45.41710000      45.40310000      50.70620000
C       50.85870000      45.40960000      45.32550000
C       45.23930000      50.58910000      45.32760000
C       54.70500000      54.62920000      50.56250000
C       54.76860000      45.33780000      49.43080000
C       45.35750000      54.72730000      49.18950000
C       49.13900000      54.70560000      45.34560000
C       49.15790000      45.28200000      54.62840000
C       50.72970000      54.51460000      54.65370000
C       54.62080000      49.31390000      45.35890000
C       54.60150000      50.66330000      54.64180000
C       45.29980000      49.43160000      54.72900000
C       45.40560000      45.42180000      49.29190000
C       50.56320000      45.25180000      54.68590000
C       45.36390000      50.83730000      54.71230000
C       54.67980000      54.60020000      49.15690000
C       54.72890000      45.37220000      50.83670000
C       45.33850000      54.74960000      50.59460000
C       49.31520000      54.54420000      54.66620000
C       49.45480000      45.34740000      45.30170000
C       50.54370000      54.72210000      45.29540000
C       54.62420000      49.24600000      54.63040000
C       54.62410000      50.73040000      45.37280000
C       45.28430000      49.18450000      45.38430000
C       53.66380000      51.28050000      55.54150000
C       55.53720000      53.70280000      51.29990000
C       51.48830000      55.25050000      53.66380000
C       46.20280000      48.66650000      55.56270000
C       46.17390000      51.29900000      44.50410000
C       53.69370000      48.68720000      44.45480000
C       44.64460000      46.37250000      51.48980000
C       44.58500000      53.74450000      48.45170000
C       55.58780000      46.28210000      48.69970000
C       48.54770000      44.39750000      53.67400000
C       48.52840000      55.63180000      46.26070000
C       51.62030000      44.67080000      46.31140000
C       53.63520000      51.50800000      44.61650000
C       55.58410000      53.67660000      48.53020000
C       51.29830000      55.55470000      46.20860000
C       46.27110000      48.43830000      44.62650000
C       46.29070000      51.44040000      55.63100000
C       53.64550000      48.45700000      55.38650000
C       44.48390000      46.33480000      48.67170000
C       44.51920000      53.81860000      51.31400000
C       55.61580000      46.30940000      51.46860000
C       48.76430000      44.53480000      46.25970000
C       48.57410000      55.31290000      53.68310000
C       51.31800000      44.43410000      53.75900000
C       47.42040000      43.86750000      50.63140000
C       50.75760000      47.42520000      43.81190000
C       43.81790000      50.71070000      47.37990000
C       52.64520000      55.99040000      50.61350000
C       52.73520000      43.93720000      49.37280000
C       47.38560000      56.23380000      49.24340000
C       49.07970000      52.63040000      43.96170000
C       49.10710000      47.30180000      56.08910000
C       50.71860000      52.50880000      56.23650000
C       56.13630000      49.21100000      47.37530000
C       56.11910000      50.78300000      52.62980000
C       43.94370000      49.43410000      52.66170000
C       47.45720000      43.95590000      49.17550000
C       50.58380000      47.28100000      56.09560000
C       43.97380000      50.91210000      52.64190000
C       52.63570000      56.02550000      49.13400000
C       52.69460000      43.93140000      50.84990000
C       47.41030000      56.14560000      50.69200000
C       49.28810000      52.54900000      56.26520000
C       49.30720000      47.37520000      43.85050000
C       50.55760000      52.65700000      43.93310000
C       56.18630000      49.32630000      52.65240000
C       56.18730000      50.66730000      47.35290000
C       43.79300000      49.26050000      47.42230000
C       43.92240000      52.72570000      50.65090000
C       50.70410000      43.83030000      52.63590000
C       52.55620000      50.83570000      43.92750000
C       56.23110000      47.39980000      50.78770000
C       56.20730000      52.59400000      49.21600000
C       43.86310000      47.41990000      49.37010000
C       49.29610000      55.96570000      52.61800000
C       49.44900000      43.96670000      47.35230000
C       50.68230000      56.18330000      47.31800000
C       47.31550000      49.15660000      43.93660000
C       47.34910000      50.72150000      56.26490000
C       52.56800000      49.11630000      56.08500000
C       43.91450000      52.69200000      49.17430000
C       50.92670000      43.99720000      47.37860000
C       52.58700000      50.57420000      56.16260000
C       56.20200000      47.38240000      49.33660000
C       56.17160000      52.61110000      50.66740000
C       43.94600000      47.45050000      50.82660000
C       49.23500000      56.25130000      47.33970000
C       49.25320000      43.79790000      52.58770000
C       50.78660000      55.92300000      52.60030000
C       47.30680000      49.27310000      56.20540000
C       47.27340000      50.63240000      43.92550000
C       52.59540000      49.37880000      43.84920000
C       55.61700000      46.09690000      47.26950000
C       47.15110000      55.76340000      46.15030000
C       45.98080000      47.24090000      55.56120000
C       44.62720000      53.80600000      46.99560000
C       44.68940000      46.27890000      52.93850000
C       55.55510000      53.89230000      52.72940000
C       53.07270000      44.74040000      46.23460000
C       52.94890000      55.19920000      53.74090000
C       47.16830000      44.27350000      53.75480000
C       53.77280000      52.66200000      55.68700000
C       53.84010000      47.31060000      44.29810000
C       45.96830000      52.73400000      44.43660000
C       55.73400000      46.20600000      52.84700000
C       47.11040000      55.30630000      53.77130000
C       46.22060000      46.98270000      44.70320000
C       44.47720000      54.02210000      52.74950000
C       44.32390000      46.18790000      47.29650000
C       55.70920000      53.78060000      47.15180000
C       52.74310000      44.40960000      53.98600000
C       52.72220000      55.56480000      45.99020000
C       47.32610000      44.45810000      46.08210000
C       53.71170000      52.95910000      44.67060000
C       53.73040000      47.00550000      55.32650000
C       46.22090000      52.82210000      55.75030000
C       48.38270000      53.70640000      44.61630000
C       44.50210000      48.74450000      53.75560000
C       53.83320000      44.52520000      48.71050000
C       51.46470000      46.34770000      44.42280000
C       51.37500000      53.59390000      55.57010000
C       48.40070000      46.25850000      55.38880000
C       55.38460000      51.45240000      53.68200000
C       55.41470000      48.53430000      46.31950000
C       44.41560000      51.33240000      46.25850000
C       46.28050000      55.63380000      48.56000000
C       46.32960000      44.48130000      51.32650000
C       53.74260000      55.41480000      51.27680000
C       48.65300000      53.65630000      55.60610000
C       44.40140000      48.56450000      46.33450000
C       53.74180000      44.60870000      51.57520000
C       51.26160000      46.19830000      55.50530000
C       51.23870000      53.75500000      44.49520000
C       48.69640000      46.25940000      44.47140000
C       55.54620000      51.35990000      46.27830000
C       55.55180000      48.62520000      53.72510000
C       44.64090000      51.60240000      53.71560000
C       46.30170000      55.54570000      51.32600000
C       46.38130000      44.65570000      48.50950000
C       53.69240000      55.35860000      48.41360000
C       51.46450000      56.63360000      48.48450000
C       48.53110000      51.40180000      56.80340000
C       56.74220000      48.57950000      51.50150000
C       48.66700000      43.43280000      48.48750000
C       48.59930000      56.58060000      51.45890000
C       51.49750000      43.35500000      51.48770000
C       51.37040000      48.41780000      56.62260000
C       51.34090000      51.51840000      43.40680000
C       48.51180000      48.51540000      43.36320000
C       43.42490000      51.58000000      51.44380000
C       43.29980000      48.56470000      48.62140000
C       56.73340000      51.41980000      48.50480000
C       51.49090000      56.47700000      51.40980000
C       48.41610000      51.42640000      43.42170000
C       56.70740000      48.52840000      48.56200000
C       48.56390000      43.30600000      51.38420000
C       48.54760000      56.76850000      48.52820000
C       51.59090000      43.44300000      48.57580000
C       51.44650000      48.62170000      43.30350000
C       51.44630000      51.31940000      56.73700000
C       48.45270000      48.47910000      56.68390000
C       43.33920000      51.49780000      48.53090000
C       43.41850000      48.65610000      51.51910000
C       56.68670000      51.47130000      51.44470000
C       45.43950000      53.61440000      54.85540000
C       54.84640000      45.39050000      53.61300000
C       53.06410000      55.25930000      44.66410000
C       54.82110000      46.45140000      54.65060000
C       54.79900000      53.52390000      45.34580000
C       45.17110000      46.40980000      45.43520000
C       44.78980000      55.33860000      53.12180000
C       45.20330000      45.38340000      46.50550000
C       54.81930000      54.58820000      46.38140000
C       46.93770000      44.70070000      44.75850000
C       46.52380000      54.63290000      54.84850000
C       53.08430000      44.70080000      55.31490000
C       44.64220000      53.10020000      44.70390000
C       55.35650000      44.77030000      46.90270000
C       53.52800000      54.50570000      54.81240000
C       54.65990000      46.52490000      45.16740000
C       54.58110000      53.45660000      54.81910000
C       44.65780000      46.90460000      55.24340000
C       45.32580000      54.87320000      46.41920000
C       45.36320000      45.18510000      53.49080000
C       55.24820000      55.20940000      53.09670000
C       46.38330000      45.14960000      54.56650000
C       46.36600000      54.86270000      45.36180000
C       53.63170000      45.45600000      45.16590000
C       49.33940000      57.58880000      49.31530000
C       49.23140000      49.15990000      57.60190000
C       57.62580000      49.27300000      49.28590000
C       50.82820000      42.51590000      49.25330000
C       50.78510000      57.44400000      50.73140000
C       49.35290000      42.44450000      50.64550000
C       50.70390000      50.57080000      57.63340000
C       50.65390000      49.35150000      42.43860000
C       49.17840000      50.74140000      42.50050000
C       42.45110000      50.79100000      49.32350000
C       42.48850000      49.37580000      50.79440000
C       57.61550000      50.73610000      50.72430000
C       49.35350000      57.50180000      50.75660000
C       49.21100000      49.30330000      42.46380000
C       57.62980000      49.30330000      50.73260000
C       50.79590000      42.46560000      50.69140000
C       50.77690000      57.52620000      49.29000000
C       49.38580000      42.50210000      49.21330000
C       50.62060000      50.78420000      42.48350000
C       50.67370000      49.13470000      57.57260000
C       49.26640000      50.60190000      57.66380000
C       42.49950000      50.81870000      50.76150000
C       42.43370000      49.34780000      49.36200000
C       57.62550000      50.70580000      49.27750000
