240
Lattice="100.0 0.0 0.0 0.0 100.0 0.0 0.0 0.0 100.0" Properties=species:S:1:pos:R:3 name=C-2509655-3548-784 pressure=-0.00292922404604847 energy=-1744.31207723312 spacegroup=C1 times_found=1 pbc="T T T"
C       51.24290000      43.27610000      52.99200000
C       42.63120000      53.10200000      51.27500000
C       53.02910000      51.06790000      42.83820000
C       51.13000000      56.51530000      46.95970000
C       48.75180000      42.71520000      46.99010000
C       48.74370000      56.67200000      53.09860000
C       43.50030000      47.03380000      48.91530000
C       56.73990000      52.90620000      48.77730000
C       56.97060000      47.03250000      51.20800000
C       52.83470000      48.85930000      57.07060000
C       46.94280000      51.14400000      56.53780000
C       47.11450000      48.74810000      43.31060000
C       48.90390000      42.90340000      52.92870000
C       56.58460000      53.04640000      51.12630000
C       46.99020000      51.11170000      43.52890000
C       48.76260000      56.81690000      47.06980000
C       51.07990000      42.90980000      46.83160000
C       51.04410000      57.16360000      52.94640000
C       56.59010000      46.87500000      48.85700000
C       42.94490000      53.19970000      48.96280000
C       43.16190000      47.07670000      51.24080000
C       47.08720000      48.76640000      56.83960000
C       52.97920000      51.17380000      56.76820000
C       53.14700000      48.76190000      43.32740000
C       56.20000000      50.65210000      48.24040000
C       50.70060000      48.26570000      56.19610000
C       48.12470000      56.21250000      50.80170000
C       56.22750000      49.23700000      51.83960000
C       43.31610000      50.84870000      51.86180000
C       43.62490000      49.41740000      48.31130000
C       50.78380000      51.69540000      43.58450000
C       49.38800000      48.17240000      43.83850000
C       49.27210000      51.81690000      56.18790000
C       48.25760000      43.42800000      49.26420000
C       51.71970000      56.29050000      49.32030000
C       51.84120000      43.49400000      50.59530000
C       43.50130000      50.86860000      48.32760000
C       49.28010000      48.20270000      56.06930000
C       51.65150000      56.38310000      50.75430000
C       43.45090000      49.41790000      51.85040000
C       56.28870000      50.69940000      51.84240000
C       56.27020000      49.19670000      48.21700000
C       49.35080000      51.73180000      43.72060000
C       50.85370000      48.14850000      43.81100000
C       50.74040000      51.84660000      56.10980000
C       51.79970000      43.40200000      49.14630000
C       48.16150000      56.24260000      49.33450000
C       48.30920000      43.51910000      50.67780000
C       52.78350000      55.82730000      51.44170000
C       56.00330000      51.32800000      53.09200000
C       51.40080000      53.06760000      55.53990000
C       53.01060000      43.89750000      48.51880000
C       47.00310000      55.69880000      48.69270000
C       47.21360000      44.26630000      51.27200000
C       56.02620000      48.62080000      46.93120000
C       44.02530000      51.48560000      47.13070000
C       44.01610000      48.87930000      53.04910000
C       51.47520000      46.96400000      44.34070000
C       48.84690000      53.00560000      44.13030000
C       48.68540000      46.99940000      55.41030000
C       46.94330000      55.64870000      51.42160000
C       43.83730000      51.47110000      53.06360000
C       48.63970000      53.07140000      55.98160000
C       47.08080000      44.04030000      48.68840000
C       52.99500000      55.89860000      48.81480000
C       53.07940000      44.01480000      51.11040000
C       44.11380000      48.90360000      47.06910000
C       55.62450000      51.26770000      47.06700000
C       55.63950000      48.56840000      53.05700000
C       48.75880000      47.02050000      44.44290000
C       51.42090000      52.90350000      44.04500000
C       51.44430000      47.16200000      55.66260000
C       53.70950000      47.91300000      44.26870000
C       48.30880000      44.08730000      53.46220000
C       43.94000000      53.69890000      48.15270000
C       53.57080000      51.95790000      55.79800000
C       46.54810000      48.13590000      55.72150000
C       46.57620000      52.13410000      44.40620000
C       48.10650000      55.70390000      46.52340000
C       51.93280000      43.86510000      46.32540000
C       51.65620000      56.03560000      53.59520000
C       44.36220000      46.67720000      51.92270000
C       55.66660000      53.53020000      52.08210000
C       55.74990000      46.40220000      47.82540000
C       46.60480000      48.14360000      44.46370000
C       52.14410000      44.28770000      53.38350000
C       55.61590000      53.43960000      48.13450000
C       46.43380000      52.16230000      55.70140000
C       53.56260000      48.31060000      55.95490000
C       53.59720000      51.75490000      43.94550000
C       52.14130000      55.61900000      46.55440000
C       48.17370000      43.91070000      46.48260000
C       47.91390000      55.70360000      53.65350000
C       55.85290000      46.47120000      51.82500000
C       43.78770000      53.64350000      51.90350000
C       44.46090000      46.65790000      47.97110000
C       52.81020000      53.02600000      55.23970000
C       52.70010000      55.52740000      52.82370000
C       55.72730000      52.71720000      53.18800000
C       52.87100000      46.90070000      44.71650000
C       47.44250000      53.22390000      44.29330000
C       47.29120000      47.07870000      55.10590000
C       53.01050000      44.12220000      47.13920000
C       47.02950000      55.28120000      47.30360000
C       47.31010000      44.62390000      52.63160000
C       55.94410000      47.20200000      46.70970000
C       44.24660000      52.86360000      47.10780000
C       44.40340000      47.52200000      53.02580000
C       47.21920000      53.28230000      55.88850000
C       46.89670000      55.24910000      52.80810000
C       44.07790000      52.85410000      53.00220000
C       47.39120000      47.07170000      44.90480000
C       52.80710000      52.85130000      44.25090000
C       52.83460000      47.26590000      55.40190000
C       47.12090000      44.26860000      47.30640000
C       53.23560000      55.73160000      47.41210000
C       53.18120000      44.32640000      52.47980000
C       44.33030000      47.50130000      46.87110000
C       55.17780000      52.63720000      47.07580000
C       55.30420000      47.18230000      52.93220000
C       43.19240000      48.45390000      50.78400000
C       48.38210000      50.66800000      43.49560000
C       50.70340000      42.97650000      48.24380000
C       43.01050000      51.79690000      49.37580000
C       56.55490000      48.26990000      49.30140000
C       56.55820000      51.63950000      50.72960000
C       48.41160000      49.25860000      56.57060000
C       51.59340000      50.76770000      56.59170000
C       51.76470000      49.19620000      43.37030000
C       50.58590000      56.87010000      51.60630000
C       49.36280000      43.04290000      51.56320000
C       49.23140000      56.65850000      48.42840000
C       56.68360000      48.36940000      50.75280000
C       51.67650000      50.61940000      43.13430000
C       49.26240000      42.89380000      48.33800000
C       56.59490000      51.56230000      49.29290000
C       43.35860000      48.41750000      49.35580000
C       42.85290000      51.74210000      50.80940000
C       51.50640000      49.33210000      56.74600000
C       48.34460000      50.71090000      56.47690000
C       48.47430000      49.22880000      43.41830000
C       49.16430000      56.63840000      51.70680000
C       50.80660000      43.19320000      51.59540000
C       50.66810000      56.54560000      48.34550000
C       45.75200000      54.37740000      52.98260000
C       54.32110000      52.82360000      45.92020000
C       53.19780000      46.28510000      54.44290000
C       46.39640000      45.41780000      46.91180000
C       54.50900000      55.24940000      47.21570000
C       54.25160000      45.18180000      52.64960000
C       54.30090000      46.25850000      53.55670000
C       45.19370000      53.27010000      53.77960000
C       44.81470000      47.28230000      45.60610000
C       53.22370000      53.63170000      45.35880000
C       47.19260000      45.93520000      45.78430000
C       46.92960000      54.57720000      55.48240000
C       53.68820000      54.57770000      53.15880000
C       45.34050000      53.27620000      46.31850000
C       46.37870000      46.47880000      54.07490000
C       53.82970000      45.19250000      46.70650000
C       45.87830000      54.42480000      47.08410000
C       46.39130000      45.64170000      52.92690000
C       45.28170000      47.35370000      54.07930000
C       54.91380000      52.92500000      54.29920000
C       55.55450000      46.92420000      45.40920000
C       47.23620000      54.50370000      44.74970000
C       53.06860000      45.75030000      45.57250000
C       53.74780000      53.72260000      54.28490000
C       53.82180000      50.56200000      41.76040000
C       50.46700000      42.53240000      53.89480000
C       41.53510000      53.94190000      50.85030000
C       53.55440000      49.26020000      58.21720000
C       46.15110000      50.30940000      57.31620000
C       46.19450000      49.11960000      42.27140000
C       50.31210000      57.26580000      46.10820000
C       49.10230000      41.61490000      46.12240000
C       49.48590000      57.57840000      53.88440000
C       42.81360000      46.13010000      49.71500000
C       57.81700000      53.80690000      49.10570000
C       58.04520000      46.22450000      50.73660000
C       46.13710000      50.25940000      42.81270000
C       49.35390000      41.92680000      53.84130000
C       57.29380000      53.87250000      50.25290000
C       46.22690000      49.19440000      57.89920000
C       53.72920000      50.38260000      57.65100000
C       53.93830000      49.52320000      42.47000000
C       49.19590000      57.85200000      46.18180000
C       50.20260000      42.23180000      46.00940000
C       50.56150000      58.23150000      53.72330000
C       57.39180000      46.07290000      49.66560000
C       42.20800000      54.03170000      49.78060000
C       42.18900000      46.10880000      50.81410000
C       50.81260000      45.76410000      44.82480000
C       46.09640000      45.01510000      50.64730000
C       44.82530000      50.97400000      46.03610000
C       50.61400000      54.26700000      55.18320000
C       49.51340000      45.85100000      54.95310000
C       49.53560000      54.12750000      44.76040000
C       45.77840000      55.22210000      49.32510000
C       54.12720000      44.68340000      49.01600000
C       53.97080000      55.17500000      50.89340000
C       44.69900000      49.55780000      54.19850000
C       55.45100000      50.71910000      54.26860000
C       55.44530000      49.23190000      45.76670000
C       49.40200000      45.79090000      44.91100000
C       54.21710000      44.68260000      50.41750000
C       55.18260000      50.60350000      45.83700000
C       49.22550000      54.23390000      55.44410000
C       50.93750000      45.99830000      55.01380000
C       50.92820000      54.01830000      44.83970000
C       54.10060000      55.27730000      49.51250000
C       46.06940000      44.94420000      49.23580000
C       45.74600000      55.17440000      50.73900000
C       55.26330000      49.31760000      54.28280000
C       44.67890000      50.96370000      54.14060000
C       44.76520000      49.58350000      45.95810000
C       54.59060000      54.45320000      52.01400000
C       54.79330000      51.75070000      55.05800000
C       51.09810000      55.36240000      54.58620000
C       54.70330000      45.44510000      47.84280000
C       45.05040000      54.57280000      48.26340000
C       45.47780000      45.79400000      51.76320000
C       54.98580000      48.09030000      44.90500000
C       45.60390000      52.13360000      45.45040000
C       45.41200000      48.48740000      54.90680000
C       51.85420000      44.97970000      45.45010000
C       48.41720000      55.00680000      45.29620000
C       48.91610000      44.79430000      54.40300000
C       44.95110000      54.48260000      51.75170000
C       45.45770000      52.13720000      54.67460000
C       48.10880000      55.08320000      54.94000000
C       45.51450000      45.71010000      48.04300000
C       54.98140000      54.70340000      48.41350000
C       55.00510000      45.34740000      51.47600000
C       45.35970000      48.46360000      45.11660000
C       54.44910000      51.61460000      45.09400000
C       54.61830000      48.83770000      55.35620000
C       48.36820000      45.06320000      45.63810000
C       52.10680000      54.55930000      45.60840000
C       52.05850000      45.36850000      54.31880000
