240
Lattice="100.0 0.0 0.0 0.0 100.0 0.0 0.0 0.0 100.0" Properties=species:S:1:pos:R:3 name=C-2509655-3548-1398 pressure=-0.00305698109583362 spacegroup=C1 times_found=1 energy=-1730.52391487273 pbc="T T T"
C       49.44580000      42.03230000      51.27210000
C       51.28050000      49.36930000      42.21430000
C       42.31980000      51.39600000      49.48830000
C       50.53870000      41.97500000      48.61340000
C       49.42690000      57.95860000      48.67380000
C       50.56420000      57.96360000      51.31370000
C       48.56870000      49.38580000      57.81100000
C       51.20490000      50.55800000      57.72300000
C       48.70750000      50.64810000      42.22380000
C       57.51080000      51.19080000      50.51490000
C       42.32710000      48.57890000      50.52380000
C       57.88440000      48.52200000      49.36790000
C       49.34800000      58.17600000      51.33900000
C       51.42030000      50.57330000      42.43630000
C       42.05520000      48.71700000      49.32170000
C       50.64360000      58.16890000      48.64750000
C       49.31850000      41.77700000      48.61610000
C       50.64930000      41.73570000      51.29050000
C       48.55970000      50.58890000      57.54960000
C       51.25520000      49.35400000      57.98170000
C       48.56240000      49.44140000      42.42620000
C       57.49220000      48.63550000      50.54360000
C       42.04280000      51.25670000      50.68930000
C       57.99720000      51.23860000      49.36980000
C       48.57820000      47.73040000      56.05390000
C       55.98140000      48.47270000      47.71720000
C       47.67480000      56.23820000      48.60710000
C       51.46060000      47.71250000      43.93200000
C       48.52110000      52.29320000      43.95010000
C       51.50250000      52.36620000      56.11270000
C       44.08120000      48.47720000      52.28270000
C       55.82450000      51.46590000      52.28530000
C       44.06280000      51.51000000      47.71930000
C       52.31380000      56.24030000      51.38680000
C       47.80160000      43.84020000      51.35190000
C       52.29060000      43.69760000      48.51110000
C       48.56660000      52.48010000      55.95450000
C       56.06850000      51.42090000      47.80750000
C       47.82340000      43.74800000      48.46570000
C       51.44760000      52.47070000      44.03650000
C       48.53430000      47.52400000      44.00080000
C       51.42000000      47.65040000      56.19100000
C       43.94840000      51.43740000      52.21020000
C       55.81110000      48.44740000      52.32220000
C       43.94960000      48.55240000      47.78700000
C       52.19560000      43.68850000      51.42930000
C       47.80440000      56.25050000      51.49450000
C       52.19200000      56.24760000      48.49990000
C       48.49900000      54.46660000      45.39760000
C       45.36210000      48.85870000      54.48130000
C       54.37120000      45.16200000      48.72760000
C       51.51420000      54.52180000      54.64730000
C       48.65090000      45.59330000      54.58280000
C       51.48470000      45.51500000      45.33580000
C       54.65050000      48.85360000      45.53180000
C       45.32130000      51.13630000      45.50220000
C       54.68890000      51.22370000      54.56620000
C       45.67730000      45.21680000      51.18940000
C       54.39150000      54.80410000      51.19430000
C       45.59330000      54.81310000      48.79500000
C       48.89780000      45.29460000      45.20250000
C       45.34440000      51.37310000      54.33040000
C       54.28720000      54.66860000      48.59550000
C       51.32970000      45.53880000      54.64310000
C       48.92380000      54.70870000      54.75970000
C       51.08340000      54.69150000      45.25240000
C       54.65870000      51.36200000      45.68060000
C       45.32230000      48.62730000      45.64650000
C       54.63400000      48.73680000      54.57570000
C       45.69490000      54.69140000      51.40500000
C       54.33530000      45.12890000      51.26890000
C       45.72410000      45.31410000      48.58010000
C       44.40230000      46.30220000      46.97450000
C       47.23930000      44.03690000      46.15240000
C       46.19890000      46.77690000      44.67240000
C       55.27460000      46.08980000      53.10050000
C       44.40270000      53.68960000      53.02430000
C       55.59160000      53.66700000      46.98980000
C       52.95500000      44.19360000      53.68630000
C       47.25500000      55.95610000      53.80710000
C       52.75060000      55.94540000      46.19010000
C       53.75880000      47.08130000      55.87330000
C       46.22460000      53.22600000      55.29590000
C       53.78480000      53.21150000      44.70250000
C       44.67250000      53.82590000      46.95470000
C       46.82340000      55.72630000      46.38180000
C       46.17860000      52.78140000      44.20390000
C       55.33400000      53.84040000      53.03480000
C       44.74650000      46.16800000      53.03890000
C       55.32020000      46.16950000      46.92660000
C       53.17590000      55.77030000      53.61380000
C       46.99500000      44.31210000      53.59030000
C       53.15380000      44.23670000      46.29870000
C       53.88780000      52.91690000      55.85800000
C       46.26870000      47.22810000      55.77140000
C       53.80370000      47.23260000      44.18960000
C       55.27670000      49.25860000      53.41160000
C       53.27370000      55.50890000      49.17690000
C       49.43100000      53.56150000      55.43390000
C       44.61520000      49.25920000      46.71090000
C       55.38150000      50.72670000      46.73590000
C       44.62820000      50.73420000      53.27860000
C       46.71310000      55.52040000      50.81970000
C       53.27990000      44.35810000      50.69670000
C       46.75850000      44.49910000      49.15610000
C       50.58100000      53.53700000      44.59080000
C       49.39970000      46.45320000      44.54680000
C       50.71760000      46.58200000      55.42620000
C       55.29400000      50.67800000      53.39780000
C       53.32170000      44.36800000      49.28050000
C       49.27280000      46.61690000      55.37340000
C       44.63840000      50.67530000      46.65980000
C       55.35720000      49.30840000      46.68130000
C       44.66030000      49.31640000      53.33510000
C       46.73250000      44.48310000      50.58550000
C       53.34580000      55.56290000      50.60240000
C       46.63930000      55.56790000      49.39190000
C       50.83100000      46.56000000      44.58670000
C       49.15040000      53.43260000      44.62840000
C       50.86270000      53.49150000      55.43060000
C       48.25310000      44.01030000      47.08950000
C       47.16160000      47.81810000      44.40400000
C       44.32750000      47.17200000      48.10610000
C       51.84650000      44.11030000      52.80290000
C       48.26070000      55.97480000      52.86220000
C       51.74260000      55.97190000      47.13310000
C       52.80050000      48.07160000      55.93000000
C       47.19350000      52.19010000      55.54700000
C       52.81910000      52.17380000      44.44080000
C       55.46650000      47.05890000      52.03450000
C       44.31650000      52.82180000      51.89000000
C       55.67690000      52.79930000      48.12570000
C       47.95240000      55.86160000      47.23580000
C       47.15810000      51.80300000      44.18170000
C       44.45140000      52.88370000      48.02630000
C       52.04290000      55.87960000      52.76540000
C       48.11800000      44.22480000      52.72210000
C       52.02150000      44.07930000      47.14420000
C       52.88420000      51.96100000      55.90880000
C       47.22910000      48.21940000      55.75780000
C       52.81920000      48.20510000      44.18770000
C       55.49860000      52.85840000      51.97990000
C       44.49090000      47.11050000      51.97160000
C       55.54590000      47.09550000      48.02000000
C       46.41150000      54.58940000      55.08500000
C       55.03020000      46.25580000      54.46760000
C       54.02790000      55.31880000      46.15860000
C       53.59340000      54.57330000      44.91560000
C       46.38820000      45.41400000      44.88720000
C       53.80220000      45.80250000      55.25380000
C       43.93820000      46.57190000      45.70360000
C       56.05770000      53.40420000      45.71920000
C       43.94730000      53.42230000      54.29910000
C       45.97550000      55.33440000      53.84220000
C       54.24950000      43.85200000      53.35330000
C       45.96290000      44.66340000      46.13350000
C       46.20190000      45.93250000      55.18030000
C       55.15510000      53.68680000      54.41280000
C       54.44030000      43.86520000      46.61590000
C       53.90890000      45.92950000      44.75540000
C       46.07910000      54.07480000      44.79350000
C       53.97240000      54.18610000      55.22460000
C       44.87800000      53.61650000      45.58930000
C       55.10890000      46.38660000      45.56360000
C       44.97420000      46.37020000      54.40310000
C       45.70840000      43.89900000      53.29580000
C       54.46150000      56.15260000      53.27790000
C       45.53810000      56.13580000      46.68020000
C       44.96150000      46.41650000      49.24820000
C       49.45630000      44.61400000      46.36640000
C       46.47240000      49.10890000      44.87750000
C       55.01000000      46.32680000      50.74650000
C       44.93190000      53.58630000      50.74220000
C       55.04160000      53.55870000      49.26250000
C       50.70130000      44.78480000      53.53350000
C       49.47540000      55.37560000      53.58300000
C       50.53030000      55.36370000      46.42470000
C       53.49790000      49.29350000      55.32670000
C       46.50630000      50.89970000      55.08030000
C       53.50550000      50.88430000      44.91480000
C       44.92370000      53.62260000      49.30140000
C       49.11030000      55.28200000      46.47310000
C       46.47850000      50.55050000      44.79520000
C       55.03620000      53.59640000      50.69970000
C       44.97100000      46.38650000      50.68890000
C       55.04010000      46.34600000      49.28440000
C       50.89520000      55.30620000      53.54620000
C       49.27820000      44.82000000      53.50040000
C       50.87350000      44.68180000      46.39720000
C       53.53690000      50.71530000      55.32380000
C       46.52720000      49.45770000      55.16400000
C       53.49440000      49.44590000      44.82830000
C       45.03020000      52.36180000      44.95940000
C       45.31870000      44.97070000      52.53540000
C       52.86220000      45.18490000      45.26610000
C       55.01510000      52.45470000      55.08130000
C       45.10220000      47.62760000      55.03080000
C       54.94950000      47.64800000      44.95370000
C       54.76680000      44.95050000      47.39390000
C       45.21910000      55.04190000      47.44770000
C       54.79040000      55.05080000      52.52760000
C       47.26990000      45.23340000      54.64550000
C       52.89400000      54.87550000      54.69160000
C       47.12310000      54.80130000      45.33130000
C       45.03230000      47.29670000      45.29470000
C       45.31720000      54.75490000      52.76610000
C       52.34120000      55.21940000      45.01240000
C       54.91070000      47.50230000      55.11200000
C       45.05250000      52.70250000      54.68660000
C       54.95270000      52.68910000      45.32330000
C       54.67480000      54.73250000      47.23930000
C       45.32390000      45.24160000      47.22310000
C       54.72810000      44.88610000      52.59340000
C       47.66390000      55.23460000      54.98820000
C       52.70170000      45.13300000      54.72890000
C       47.63930000      44.76590000      44.97200000
C       57.02640000      50.60730000      48.46150000
C       48.42660000      57.23940000      50.73470000
C       50.67160000      48.34630000      57.14570000
C       43.01100000      50.61740000      51.54830000
C       56.68870000      49.21510000      51.50690000
C       43.01330000      49.36420000      48.45880000
C       51.56550000      57.23610000      49.25660000
C       48.44190000      42.75900000      49.22450000
C       51.53560000      42.70750000      50.66350000
C       49.21410000      48.38780000      43.10790000
C       50.77070000      51.61840000      43.13130000
C       49.23070000      51.60620000      56.84650000
C       56.98190000      49.19180000      48.42950000
C       48.49300000      42.83720000      50.63770000
C       50.66470000      51.57850000      56.93310000
C       43.10790000      49.19350000      51.52390000
C       56.69160000      50.66400000      51.48680000
C       43.10030000      50.78800000      48.48490000
C       51.52790000      42.75140000      49.24870000
C       48.43900000      57.19320000      49.31630000
C       51.55040000      57.19280000      50.67460000
C       49.34330000      51.61300000      43.05250000
C       50.64190000      48.39780000      43.03520000
C       49.25870000      48.36890000      57.07850000
