240
Lattice="100.0 0.0 0.0 0.0 100.0 0.0 0.0 0.0 100.0" Properties=species:S:1:pos:R:3 name=C-2509655-3548-944 pressure=0.00504823017472731 energy=-1689.01896862264 spacegroup=Td times_found=1 pbc="T T T"
C       52.96460000      43.47260000      51.20530000
C       51.20500000      52.96400000      43.47230000
C       43.47210000      51.20450000      52.96380000
C       47.03780000      43.47170000      48.79380000
C       52.96200000      56.52850000      48.79430000
C       47.03550000      56.52720000      51.20660000
C       48.79390000      52.96270000      56.52810000
C       51.20700000      47.03650000      56.52760000
C       48.79420000      47.03690000      43.47200000
C       56.52740000      51.20740000      47.03630000
C       43.47220000      48.79300000      47.03700000
C       56.52830000      48.79510000      52.96280000
C       51.20740000      43.47220000      52.96280000
C       43.47170000      52.96200000      51.20660000
C       52.96270000      51.20700000      43.47200000
C       48.79510000      43.47210000      47.03630000
C       48.79300000      56.52740000      52.96380000
C       51.20450000      56.52830000      47.03700000
C       56.52720000      52.96460000      48.79380000
C       56.52850000      47.03780000      51.20530000
C       43.47260000      47.03550000      48.79430000
C       47.03690000      51.20500000      56.52810000
C       47.03650000      48.79390000      43.47230000
C       52.96400000      48.79420000      56.52760000
C       45.87850000      47.84550000      53.12920000
C       53.12970000      45.87870000      47.84600000
C       47.84570000      53.12900000      45.87830000
C       54.12230000      47.84750000      46.87050000
C       45.87730000      52.15290000      46.87130000
C       54.12190000      52.15410000      53.12900000
C       46.87180000      45.87720000      52.15340000
C       53.12850000      54.12250000      52.15350000
C       46.87000000      54.12160000      47.84700000
C       52.15320000      53.12920000      54.12210000
C       47.84740000      46.87020000      54.12200000
C       52.15380000      46.87160000      45.87760000
C       53.12920000      47.84740000      45.87760000
C       47.84750000      45.87730000      53.12900000
C       45.87720000      53.12850000      47.84700000
C       46.87160000      47.84570000      54.12220000
C       46.87020000      52.15310000      45.87830000
C       53.12900000      52.15380000      54.12200000
C       52.15400000      45.87850000      46.87050000
C       52.15290000      54.12230000      53.12920000
C       47.84550000      54.12190000      46.87130000
C       54.12160000      53.12980000      52.15340000
C       54.12250000      46.87180000      47.84600000
C       45.87870000      46.87000000      52.15350000
C       50.69840000      55.74630000      51.68920000
C       51.68910000      50.69940000      55.74620000
C       55.74600000      51.68990000      50.69910000
C       49.29940000      55.74630000      48.31150000
C       50.70040000      44.25400000      48.31070000
C       49.30180000      44.25350000      51.68860000
C       48.31060000      50.69950000      44.25390000
C       51.68860000      49.30130000      44.25360000
C       48.31160000      49.29990000      55.74640000
C       44.25330000      51.68780000      49.30110000
C       55.74660000      48.31230000      49.30010000
C       44.25410000      48.31000000      50.69970000
C       51.68780000      55.74660000      50.69970000
C       55.74630000      50.70040000      51.68850000
C       50.69950000      51.68860000      55.74640000
C       48.31000000      55.74600000      49.30110000
C       48.31230000      44.25330000      50.69920000
C       51.68990000      44.25410000      49.30010000
C       44.25350000      50.69840000      48.31160000
C       44.25400000      49.29940000      51.68920000
C       55.74630000      49.30180000      48.31070000
C       49.29990000      51.68910000      44.25390000
C       49.30130000      48.31060000      55.74620000
C       50.69940000      48.31160000      44.25360000
C       50.63800000      48.35370000      56.33670000
C       56.33660000      50.63860000      48.35360000
C       48.35290000      56.33650000      50.63780000
C       49.36260000      48.35430000      43.66310000
C       50.63650000      51.64650000      43.66330000
C       49.36290000      51.64540000      56.33700000
C       43.66320000      50.63590000      51.64650000
C       56.33700000      49.36390000      51.64550000
C       43.66320000      49.36170000      48.35440000
C       51.64470000      56.33720000      49.36310000
C       48.35520000      43.66290000      49.36250000
C       51.64720000      43.66350000      50.63670000
C       56.33720000      48.35520000      50.63670000
C       48.35430000      50.63650000      56.33700000
C       50.63590000      56.33700000      48.35440000
C       43.66350000      48.35290000      49.36310000
C       43.66290000      51.64470000      50.63780000
C       56.33650000      51.64720000      49.36240000
C       51.64540000      50.63800000      43.66310000
C       51.64650000      49.36270000      56.33670000
C       48.35370000      49.36290000      43.66330000
C       49.36170000      56.33660000      51.64640000
C       49.36390000      43.66320000      48.35360000
C       50.63860000      43.66320000      51.64550000
C       45.19190000      47.08500000      50.87580000
C       50.87640000      45.19160000      47.08560000
C       47.08550000      50.87540000      45.19150000
C       54.80930000      47.08700000      49.12380000
C       45.19060000      52.91310000      49.12490000
C       54.80830000      52.91490000      50.87550000
C       49.12550000      45.19090000      52.91370000
C       50.87490000      54.80870000      52.91430000
C       49.12320000      54.80880000      47.08640000
C       52.91420000      50.87590000      54.80860000
C       47.08650000      49.12350000      54.80890000
C       52.91380000      49.12520000      45.19100000
C       50.87590000      47.08650000      45.19100000
C       47.08700000      45.19060000      50.87550000
C       45.19090000      50.87490000      47.08640000
C       49.12520000      47.08550000      54.80860000
C       49.12350000      52.91410000      45.19150000
C       50.87540000      52.91390000      54.80890000
C       52.91490000      45.19190000      49.12380000
C       52.91310000      54.80930000      50.87580000
C       47.08500000      54.80830000      49.12490000
C       54.80880000      50.87640000      52.91370000
C       54.80870000      49.12540000      47.08560000
C       45.19160000      49.12320000      52.91430000
C       49.63570000      55.21510000      45.75120000
C       45.75130000      49.63590000      55.21520000
C       55.21570000      45.75190000      49.63640000
C       50.36230000      55.21470000      54.24950000
C       49.63830000      44.78480000      54.24880000
C       50.36370000      44.78540000      45.75050000
C       54.24890000      49.63820000      44.78480000
C       45.75040000      50.36250000      44.78540000
C       54.24940000      50.36350000      55.21460000
C       44.78590000      45.74980000      50.36310000
C       55.21410000      54.25010000      50.36290000
C       44.78430000      54.24820000      49.63760000
C       45.74980000      55.21410000      49.63760000
C       55.21470000      49.63830000      45.75050000
C       49.63820000      45.75040000      55.21460000
C       54.24820000      55.21570000      50.36300000
C       54.25010000      44.78590000      49.63640000
C       45.75190000      44.78430000      50.36290000
C       44.78550000      49.63570000      54.24950000
C       44.78470000      50.36230000      45.75120000
C       55.21510000      50.36370000      54.24880000
C       50.36340000      45.75130000      44.78480000
C       50.36250000      54.24890000      55.21520000
C       49.63580000      54.24940000      44.78540000
C       53.97660000      52.09340000      43.91330000
C       43.91280000      53.97610000      52.09300000
C       52.09370000      43.91360000      53.97690000
C       46.02260000      52.09110000      56.08700000
C       53.97820000      47.90810000      56.08610000
C       46.02260000      47.90740000      43.91360000
C       56.08560000      53.97870000      47.90760000
C       43.91410000      46.02160000      47.90790000
C       56.08740000      46.02360000      52.09160000
C       47.90860000      43.91330000      46.02230000
C       52.09090000      56.08720000      46.02280000
C       47.90680000      56.08590000      53.97800000
C       43.91330000      52.09090000      53.97800000
C       52.09110000      53.97820000      43.91360000
C       53.97870000      43.91410000      52.09160000
C       56.08590000      52.09370000      46.02230000
C       56.08720000      47.90860000      53.97690000
C       43.91360000      47.90680000      46.02290000
C       47.90740000      53.97660000      56.08690000
C       47.90810000      46.02260000      43.91330000
C       52.09350000      46.02260000      56.08610000
C       46.02360000      43.91280000      47.90760000
C       46.02160000      56.08570000      52.09300000
C       53.97610000      56.08740000      47.90780000
C       52.65960000      50.08890000      46.46010000
C       46.45980000      52.65920000      50.08850000
C       50.08900000      46.46010000      52.65970000
C       47.34030000      50.08740000      53.53990000
C       52.66020000      49.91210000      53.53960000
C       47.33990000      49.91160000      46.46040000
C       53.53920000      52.66060000      49.91180000
C       46.46080000      47.33940000      49.91190000
C       53.54030000      47.34080000      50.08770000
C       49.91240000      46.46040000      47.33990000
C       50.08730000      53.53990000      47.34030000
C       49.91140000      53.53960000      52.66010000
C       46.46040000      50.08730000      52.66010000
C       50.08740000      52.66020000      46.46040000
C       52.66060000      46.46080000      50.08770000
C       53.53950000      50.08900000      47.33990000
C       53.53990000      49.91240000      52.65970000
C       46.46010000      49.91140000      47.34030000
C       49.91160000      52.65970000      53.53990000
C       49.91210000      47.34030000      46.46010000
C       50.08890000      47.33990000      53.53960000
C       47.34080000      46.45980000      49.91180000
C       47.33940000      53.53920000      50.08850000
C       52.65920000      53.54030000      49.91190000
C       45.75010000      46.74730000      44.74070000
C       44.74120000      45.74900000      46.74780000
C       46.74850000      44.74030000      45.74970000
C       54.25120000      46.74820000      55.25880000
C       45.74950000      53.25110000      55.25980000
C       54.24920000      53.25340000      44.74060000
C       55.26040000      45.75060000      53.25160000
C       44.74010000      54.24900000      53.25290000
C       55.25830000      54.25140000      46.74770000
C       53.25350000      44.74100000      54.24960000
C       46.74700000      55.25840000      54.25080000
C       53.25100000      55.26020000      45.74990000
C       44.74100000      46.74700000      45.74990000
C       46.74820000      45.74950000      44.74060000
C       45.75060000      44.74010000      46.74770000
C       55.26020000      46.74850000      54.24960000
C       55.25840000      53.25350000      45.74970000
C       44.74030000      53.25100000      54.25080000
C       53.25340000      45.75010000      55.25880000
C       53.25110000      54.25120000      44.74070000
C       46.74730000      54.24920000      55.25980000
C       54.25140000      44.74130000      53.25160000
C       54.24900000      55.26040000      46.74780000
C       45.74900000      55.25830000      53.25290000
C       45.82770000      56.09940000      50.71300000
C       50.71350000      45.82860000      56.09990000
C       56.09980000      50.71370000      45.82850000
C       54.16990000      56.10110000      49.28780000
C       45.83000000      43.89900000      49.28760000
C       54.17240000      43.90050000      50.71160000
C       49.28810000      45.82910000      43.89950000
C       50.71110000      54.17170000      43.90000000
C       49.28730000      54.17060000      56.10060000
C       43.89990000      50.71090000      54.17160000
C       56.10060000      49.28860000      54.17070000
C       43.89960000      49.28680000      45.82920000
C       50.71090000      56.10060000      45.82920000
C       56.10110000      45.83000000      50.71160000
C       45.82910000      50.71110000      56.10060000
C       49.28680000      56.09980000      54.17160000
C       49.28860000      43.89990000      45.82850000
C       50.71370000      43.89960000      54.17070000
C       43.90050000      45.82770000      49.28780000
C       43.89900000      54.16990000      50.71300000
C       56.09940000      54.17240000      49.28760000
C       54.17060000      50.71350000      43.89950000
C       54.17170000      49.28810000      56.09990000
C       45.82860000      49.28730000      43.90000000
