240
Lattice="100.0 0.0 0.0 0.0 100.0 0.0 0.0 0.0 100.0" Properties=species:S:1:pos:R:3 name=C-2509655-3548-1122 pressure=10.2054260906166 energy=-1694.99640514533 spacegroup=Td times_found=1 pbc="T T T"
C       52.49540000      49.82640000      43.59790000
C       49.82770000      43.59870000      52.49750000
C       43.59840000      52.49670000      49.82820000
C       52.49560000      50.17260000      56.40200000
C       47.50460000      49.83140000      56.40220000
C       47.50440000      50.16960000      43.59790000
C       49.83010000      56.40140000      47.50250000
C       50.16980000      43.59710000      47.50650000
C       50.17230000      56.40280000      52.49350000
C       43.59740000      47.50580000      50.17200000
C       56.40260000      52.49430000      50.17020000
C       56.40160000      47.50320000      49.82960000
C       52.49430000      43.59740000      49.83090000
C       49.82930000      52.49350000      43.59710000
C       43.59790000      49.83090000      52.49560000
C       52.49670000      56.40170000      50.16910000
C       47.50570000      56.40250000      49.82690000
C       47.50330000      43.59840000      50.17310000
C       49.82850000      47.50650000      56.40290000
C       50.17050000      47.50250000      43.59870000
C       50.17160000      52.49750000      56.40130000
C       43.59790000      50.17150000      47.50450000
C       56.40220000      50.17070000      52.49540000
C       56.40200000      49.82690000      47.50450000
C       45.84350000      44.83290000      48.51900000
C       44.83220000      48.51700000      45.84500000
C       48.51640000      45.84310000      44.83390000
C       45.84540000      55.16870000      51.48110000
C       54.15460000      44.83220000      51.48430000
C       54.15650000      55.16620000      48.51560000
C       44.83290000      51.48500000      54.15520000
C       55.16720000      48.51760000      54.15590000
C       55.16770000      51.48040000      45.84390000
C       48.51820000      54.15740000      55.16620000
C       51.48200000      45.84580000      55.16870000
C       51.48340000      54.15370000      44.83120000
C       45.84410000      48.51650000      44.83310000
C       44.83170000      45.84500000      48.51870000
C       48.51630000      44.83150000      45.84610000
C       45.84480000      51.48510000      55.16700000
C       54.15580000      51.48030000      44.83200000
C       54.15530000      48.51810000      55.16790000
C       44.83340000      54.15700000      51.48150000
C       55.16820000      54.15410000      48.51590000
C       55.16670000      45.84390000      51.48390000
C       48.51830000      55.16900000      54.15400000
C       51.48360000      55.16590000      45.84280000
C       51.48180000      44.83360000      54.15710000
C       51.61630000      56.50370000      52.67730000
C       56.50370000      52.67860000      51.61410000
C       52.67970000      51.61660000      56.50260000
C       51.61380000      43.49570000      47.32270000
C       48.38620000      56.50260000      47.31870000
C       48.38380000      43.49800000      52.68140000
C       56.50260000      47.31890000      48.38570000
C       43.49730000      52.68000000      48.38420000
C       43.49640000      47.32240000      51.61600000
C       52.67890000      48.38240000      43.49730000
C       47.32090000      51.61350000      43.49640000
C       47.32050000      48.38750000      56.50370000
C       51.61560000      52.68110000      56.50230000
C       56.50350000      51.61460000      52.67870000
C       52.68060000      56.50310000      51.61300000
C       51.61440000      47.31830000      43.49770000
C       48.38450000      47.32300000      56.50400000
C       48.38540000      52.67760000      43.49600000
C       56.50280000      48.38290000      47.32110000
C       43.49660000      48.38700000      52.67990000
C       43.49710000      51.61540000      47.32030000
C       52.67810000      43.49580000      48.38700000
C       47.31950000      43.49790000      51.61710000
C       47.32190000      56.50310000      48.38300000
C       50.65220000      43.05730000      51.54440000
C       43.05730000      51.54370000      50.65310000
C       51.54220000      50.65100000      43.05680000
C       50.65480000      56.94240000      48.45560000
C       49.34520000      43.05660000      48.46000000
C       49.34790000      56.94360000      51.54000000
C       43.05670000      48.45890000      49.34710000
C       56.94330000      51.54070000      49.34600000
C       56.94270000      48.45670000      50.65390000
C       51.54220000      49.34840000      56.94320000
C       48.45800000      50.65590000      56.94280000
C       48.45760000      49.34460000      43.05720000
C       50.65370000      51.53990000      43.05650000
C       43.05710000      50.65530000      51.54210000
C       51.54090000      43.05690000      50.65560000
C       50.65330000      48.45980000      56.94350000
C       49.34610000      48.45580000      43.05750000
C       49.34690000      51.54450000      56.94260000
C       43.05680000      49.34740000      48.45810000
C       56.94290000      49.34570000      51.54230000
C       56.94310000      50.65170000      48.45750000
C       51.54350000      56.94250000      49.34430000
C       48.45910000      56.94350000      50.65130000
C       48.45650000      43.05710000      49.34870000
C       52.04300000      55.97080000      53.87180000
C       55.97080000      53.87320000      52.04050000
C       53.87420000      52.04290000      55.96930000
C       52.04060000      44.02840000      46.12820000
C       47.95930000      55.96920000      46.12450000
C       47.95710000      44.03160000      53.87560000
C       55.96920000      46.12460000      47.95930000
C       44.03070000      53.87420000      47.95710000
C       44.02930000      46.12810000      52.04310000
C       53.87320000      47.95560000      44.03060000
C       46.12660000      52.04070000      44.02940000
C       46.12600000      47.96080000      55.97070000
C       52.04260000      53.87520000      55.96880000
C       55.97040000      52.04190000      53.87300000
C       53.87480000      55.96990000      52.03990000
C       52.04100000      46.12410000      44.03120000
C       47.95760000      46.12860000      55.97120000
C       47.95890000      53.87220000      44.02880000
C       55.96960000      47.95590000      46.12690000
C       44.02970000      47.96060000      53.87440000
C       44.03030000      52.04170000      46.12580000
C       53.87250000      44.02860000      47.96000000
C       46.12520000      44.03140000      52.04370000
C       46.12740000      55.97010000      47.95640000
C       52.70210000      53.56830000      44.49580000
C       53.56950000      44.49710000      52.70320000
C       44.49750000      52.70360000      53.56970000
C       52.70090000      46.43070000      55.50410000
C       47.29930000      53.57270000      55.50200000
C       47.29780000      46.42830000      44.49810000
C       53.57150000      55.50150000      47.29670000
C       46.42840000      44.49680000      47.30030000
C       46.43060000      55.50460000      52.69980000
C       44.49640000      47.29840000      46.43040000
C       55.50350000      52.69930000      46.42860000
C       55.50260000      47.29860000      53.57130000
C       52.70050000      44.49750000      53.57220000
C       53.57100000      52.69910000      44.49600000
C       44.49770000      53.57240000      52.70050000
C       52.70250000      55.50140000      46.42770000
C       47.29960000      55.50470000      53.56880000
C       47.29740000      44.49630000      46.43120000
C       53.57010000      47.29950000      55.50390000
C       46.42890000      47.29750000      44.49780000
C       46.43010000      52.70390000      55.50230000
C       44.49620000      46.42970000      47.29970000
C       55.50240000      46.42930000      52.70250000
C       55.50370000      53.56860000      47.29730000
C       53.98100000      50.21980000      52.97960000
C       50.22020000      52.98090000      53.98000000
C       52.98040000      53.98040000      50.21830000
C       53.98080000      49.77870000      47.02030000
C       46.01910000      50.21940000      47.02030000
C       46.01910000      49.78210000      52.97980000
C       50.21900000      47.01900000      46.02000000
C       49.78090000      52.97850000      46.01820000
C       49.77990000      47.02160000      53.98190000
C       52.97890000      46.01840000      49.78160000
C       47.02110000      53.98140000      49.77920000
C       47.01960000      46.01970000      50.22090000
C       53.98150000      52.97900000      50.21860000
C       50.22040000      53.98180000      52.97840000
C       52.97980000      50.22030000      53.98080000
C       53.98040000      47.01950000      49.78130000
C       46.01850000      47.02110000      50.22060000
C       46.01960000      52.98040000      49.77950000
C       50.21880000      46.01810000      47.02160000
C       49.77970000      46.02010000      52.98090000
C       49.78110000      53.98000000      47.01910000
C       52.97960000      49.77860000      46.01910000
C       47.02030000      49.78220000      53.98100000
C       47.02030000      50.21890000      46.01910000
C       53.77550000      50.94420000      51.81440000
C       50.94470000      51.81580000      53.77470000
C       51.81550000      53.77530000      50.94310000
C       53.77510000      49.05440000      48.18550000
C       46.22480000      50.94450000      48.18500000
C       46.22450000      49.05690000      51.81510000
C       50.94390000      48.18390000      46.22520000
C       49.05600000      51.81380000      46.22410000
C       49.05540000      48.18660000      53.77590000
C       51.81400000      46.22400000      49.05680000
C       48.18590000      53.77540000      49.05450000
C       48.18450000      46.22530000      50.94550000
C       53.77570000      51.81430000      50.94370000
C       50.94510000      53.77570000      51.81360000
C       51.81500000      50.94520000      53.77500000
C       53.77500000      48.18420000      49.05620000
C       46.22430000      48.18620000      50.94500000
C       46.22500000      51.81520000      49.05520000
C       50.94360000      46.22390000      48.18640000
C       49.05500000      46.22540000      51.81600000
C       49.05640000      53.77490000      48.18410000
C       51.81450000      49.05410000      46.22490000
C       48.18510000      49.05720000      53.77560000
C       48.18540000      50.94350000      46.22440000
C       49.68860000      55.28110000      53.32870000
C       55.28070000      53.32920000      49.68650000
C       53.33030000      49.68860000      55.28010000
C       49.68650000      44.71900000      46.67140000
C       50.31340000      55.27890000      46.66800000
C       50.31150000      44.72090000      53.33200000
C       55.27940000      46.66880000      50.31340000
C       44.72060000      53.33140000      50.31140000
C       44.71930000      46.67060000      49.68870000
C       53.33030000      50.31010000      44.71980000
C       46.66960000      49.68660000      44.72010000
C       46.66980000      50.31470000      55.28000000
C       49.68830000      53.33200000      55.27900000
C       55.28000000      49.68760000      53.33030000
C       53.33130000      55.27930000      49.68590000
C       49.68690000      46.66810000      44.72100000
C       50.31190000      46.67130000      55.28110000
C       50.31300000      53.32860000      44.71890000
C       55.28010000      50.31040000      46.66950000
C       44.72010000      50.31450000      53.33030000
C       44.71990000      49.68750000      46.66990000
C       53.32930000      44.71940000      50.31400000
C       46.66870000      44.72050000      49.68930000
C       46.67070000      55.28080000      50.31080000
C       53.15070000      55.22890000      54.19170000
C       55.22900000      54.19340000      53.14830000
C       54.19410000      53.15050000      55.22710000
C       53.14860000      44.76990000      45.80820000
C       46.85130000      55.22740000      45.80500000
C       46.84940000      44.77370000      54.19510000
C       55.22730000      45.80460000      46.85160000
C       44.77260000      54.19340000      46.84910000
C       44.77110000      45.80860000      53.15110000
C       54.19270000      46.84790000      44.77280000
C       45.80710000      53.14880000      44.77090000
C       45.80610000      46.85280000      55.22920000
C       53.15050000      54.19440000      55.22680000
C       55.22880000      53.15000000      54.19230000
C       54.19440000      55.22840000      53.14800000
C       53.14880000      45.80440000      44.77310000
C       46.84960000      45.80880000      55.22950000
C       46.85100000      54.19240000      44.77060000
C       55.22750000      46.84800000      45.80750000
C       44.77130000      46.85260000      54.19450000
C       44.77240000      53.14930000      45.80570000
C       54.19240000      44.77010000      46.85190000
C       45.80570000      44.77360000      53.15140000
C       45.80750000      55.22800000      46.84870000
