240
Lattice="100.0 0.0 0.0 0.0 100.0 0.0 0.0 0.0 100.0" Properties=species:S:1:pos:R:3 name=C-2509655-3548-1035 pressure=0.00303820394453781 spacegroup=C1 times_found=1 energy=-1764.81858199883 pbc="T T T"
C       48.97440000      55.57530000      54.55640000
C       55.29090000      54.56850000      49.54310000
C       54.51920000      49.07460000      55.37270000
C       50.53290000      44.73830000      54.54010000
C       49.26840000      44.42900000      45.10010000
C       51.03760000      55.47690000      45.47040000
C       44.15360000      45.07460000      49.44150000
C       55.97220000      45.11290000      50.62580000
C       44.72550000      54.58700000      50.51050000
C       45.08740000      50.78800000      56.01430000
C       54.69330000      50.47260000      44.37170000
C       45.43470000      49.02960000      44.64420000
C       49.60900000      55.57640000      45.30080000
C       55.33630000      54.53740000      50.99110000
C       54.56030000      49.03550000      44.41630000
C       50.73170000      44.45170000      45.08980000
C       49.08120000      44.67230000      54.51740000
C       50.40410000      55.66120000      54.72360000
C       44.31970000      45.17530000      50.88350000
C       55.97870000      45.12380000      49.18500000
C       44.68830000      54.51570000      49.06210000
C       45.43450000      50.47860000      44.72860000
C       54.54670000      50.52380000      55.32390000
C       45.07980000      49.34760000      56.04300000
C       56.04050000      46.85660000      52.79690000
C       46.85990000      52.92730000      56.01240000
C       52.90940000      55.80970000      47.27870000
C       44.70070000      52.96230000      52.88850000
C       55.27950000      52.86360000      47.24260000
C       44.00440000      46.80440000      47.26440000
C       52.76830000      47.15750000      55.76810000
C       47.10100000      47.05500000      44.08370000
C       53.11120000      52.74460000      44.08950000
C       47.08450000      44.59560000      46.97660000
C       52.87390000      44.75160000      52.85220000
C       47.09530000      55.89170000      52.75130000
C       56.02360000      46.89620000      47.04440000
C       47.16610000      52.75170000      44.72900000
C       52.69340000      56.00210000      53.17080000
C       44.29580000      52.72430000      47.18600000
C       55.72800000      52.76930000      52.88920000
C       44.61250000      47.04350000      53.03370000
C       52.84840000      47.07350000      43.95860000
C       46.84130000      47.18900000      56.11530000
C       52.82110000      52.80840000      55.30680000
C       47.10910000      44.21750000      52.82990000
C       52.93550000      44.70390000      46.91080000
C       47.32130000      55.95640000      46.85120000
C       56.94100000      46.21300000      49.18000000
C       46.16910000      49.34400000      57.00420000
C       49.52160000      56.70220000      46.21980000
C       43.57630000      53.58880000      49.21520000
C       56.46110000      53.62220000      50.85970000
C       43.41930000      46.29410000      50.94020000
C       53.55850000      50.65360000      56.36030000
C       46.39290000      50.61650000      43.66670000
C       53.69090000      49.12170000      43.25000000
C       50.75940000      43.61710000      46.25870000
C       49.22390000      43.58550000      53.56300000
C       50.49900000      56.77330000      53.78790000
C       56.94690000      46.19120000      50.65000000
C       46.31310000      49.16890000      43.49510000
C       49.04390000      56.74070000      53.68150000
C       43.70410000      53.58900000      50.66880000
C       56.32530000      53.58010000      49.40620000
C       43.23140000      46.19120000      49.48030000
C       53.74240000      50.57690000      43.27290000
C       46.18200000      50.81420000      56.97170000
C       53.60190000      49.19890000      56.49520000
C       50.67320000      43.73890000      53.51810000
C       49.28580000      43.58520000      46.26230000
C       50.97590000      56.65910000      46.32490000
C       50.77540000      57.89330000      49.30690000
C       57.76220000      49.25130000      50.67300000
C       49.26390000      50.81440000      57.69600000
C       49.33580000      42.57480000      49.13240000
C       50.79670000      42.64750000      50.60220000
C       49.24770000      57.90990000      50.67810000
C       42.54500000      50.69700000      50.88010000
C       57.56790000      50.73380000      49.24010000
C       42.38010000      49.20380000      49.45060000
C       50.68780000      49.32710000      57.75420000
C       49.21220000      49.28940000      42.16050000
C       50.67780000      50.74510000      42.29660000
C       50.71600000      57.88380000      50.75780000
C       57.66140000      49.29160000      49.20510000
C       49.23530000      50.73880000      42.39800000
C       49.33160000      42.47740000      50.58700000
C       50.79900000      42.69410000      49.15390000
C       49.30710000      57.87200000      49.22800000
C       42.36440000      50.65710000      49.41780000
C       57.72130000      50.70470000      50.70460000
C       42.53460000      49.24800000      50.91040000
C       50.67380000      49.28830000      42.08660000
C       49.23520000      49.34650000      57.79760000
C       50.70700000      50.79170000      57.59830000
C       51.81180000      43.34560000      48.48660000
C       43.20350000      48.58280000      51.91800000
C       48.62460000      51.68210000      43.20060000
C       48.34670000      57.21150000      48.47600000
C       51.67430000      57.23540000      51.52330000
C       48.24600000      42.94010000      51.28870000
C       57.13960000      51.32880000      51.77870000
C       42.91400000      51.27830000      48.32440000
C       57.07410000      48.57810000      48.18190000
C       51.38210000      48.20380000      42.57350000
C       48.50250000      48.30990000      57.23380000
C       51.33700000      51.74120000      56.81470000
C       51.77570000      43.33440000      51.29760000
C       42.91400000      48.47240000      48.40080000
C       48.54150000      51.82660000      57.10190000
C       48.19110000      57.29900000      51.30440000
C       51.82770000      57.26360000      48.69210000
C       48.27380000      43.17930000      48.47450000
C       56.78480000      51.36910000      48.29490000
C       43.25490000      51.40520000      51.83160000
C       57.19350000      48.51280000      51.70240000
C       51.31650000      48.25700000      57.17160000
C       48.52570000      48.20300000      42.66560000
C       51.42750000      51.70380000      42.94330000
C       52.95110000      45.57820000      45.74800000
C       45.52660000      45.91350000      53.03770000
C       46.06110000      52.79320000      45.66840000
C       47.28560000      55.22190000      45.72900000
C       52.72490000      55.28340000      54.30400000
C       46.80920000      45.28730000      53.70490000
C       54.62430000      53.60500000      53.18180000
C       45.38940000      53.56340000      46.87380000
C       55.41500000      45.69800000      46.93730000
C       53.66490000      46.80940000      45.08420000
C       45.66400000      47.10610000      55.47280000
C       53.93930000      52.84170000      54.37990000
C       52.87180000      45.67180000      53.97680000
C       44.63440000      45.62320000      47.16810000
C       45.67300000      53.00700000      55.38010000
C       46.81510000      54.80100000      53.60530000
C       53.18040000      54.69460000      46.45350000
C       47.04180000      45.51120000      45.83990000
C       54.35750000      53.98500000      47.22030000
C       45.63130000      54.07920000      52.86510000
C       55.37450000      45.69110000      52.86140000
C       53.61450000      46.87000000      54.67180000
C       46.30810000      46.76330000      45.22120000
C       54.27340000      52.79210000      44.76490000
C       55.73500000      51.53140000      53.53890000
C       51.60170000      53.57440000      55.47840000
C       53.44810000      55.72970000      51.99030000
C       44.45280000      48.26550000      53.81690000
C       55.65640000      48.09690000      46.36400000
C       44.28380000      51.48500000      46.53860000
C       48.04530000      46.49470000      55.77920000
C       51.65050000      46.34880000      43.90070000
C       48.39320000      53.50160000      44.55740000
C       46.36060000      44.16820000      51.64380000
C       53.74120000      44.52800000      48.12290000
C       46.56620000      55.70530000      48.03680000
C       55.45430000      51.65280000      46.46160000
C       51.93180000      53.48210000      44.40610000
C       53.53300000      55.78880000      48.52700000
C       44.29520000      47.99980000      46.53610000
C       55.72430000      48.05830000      53.50260000
C       44.48270000      51.79340000      53.74010000
C       48.29650000      46.32880000      43.97000000
C       51.53440000      46.49990000      55.76510000
C       48.05950000      53.61390000      55.65480000
C       46.30880000      44.36460000      48.20240000
C       53.70240000      44.54090000      51.66450000
C       46.47290000      55.84060000      51.50360000
C       49.12040000      47.17720000      56.53260000
C       47.19900000      56.53270000      49.09110000
C       56.32450000      49.21190000      47.08450000
C       50.61210000      52.85800000      56.23770000
C       49.37080000      52.77830000      43.79020000
C       50.67490000      47.05380000      43.12530000
C       52.96920000      43.87060000      49.17080000
C       47.08160000      43.49440000      50.60070000
C       52.81850000      56.54010000      50.92140000
C       43.52050000      50.51110000      47.23430000
C       56.51790000      50.55950000      52.85370000
C       43.77210000      49.29300000      53.04620000
C       49.24800000      47.04610000      43.16380000
C       47.15570000      56.61440000      50.52540000
C       56.49470000      49.12700000      52.83770000
C       50.81500000      52.81470000      43.69480000
C       49.17000000      52.91990000      56.34400000
C       50.55460000      47.17630000      56.54800000
C       52.94770000      43.86930000      50.62210000
C       47.09520000      43.62530000      49.16840000
C       52.85930000      56.59130000      49.48600000
C       43.78890000      50.74450000      53.00890000
C       56.21260000      50.65430000      47.16740000
C       43.55730000      49.07950000      47.23540000
C       43.39730000      52.63180000      48.26140000
C       52.74110000      48.16300000      43.06660000
C       48.22840000      43.38180000      52.65720000
C       56.85800000      47.17730000      48.18460000
C       43.66290000      47.23130000      51.91900000
C       56.64180000      52.67800000      51.82680000
C       47.30970000      51.64180000      43.77440000
C       52.65480000      51.69100000      56.24880000
C       47.11360000      48.33170000      56.95850000
C       51.56420000      56.85830000      52.89670000
C       48.45660000      56.80910000      47.11000000
C       51.79320000      43.81140000      47.14340000
C       43.79640000      52.73280000      51.74680000
C       52.66670000      48.22220000      56.67720000
C       48.25440000      43.71470000      47.15670000
C       56.90160000      47.12740000      51.66770000
C       43.21290000      47.09440000      48.43460000
C       56.21710000      52.68510000      48.36050000
C       47.14170000      51.81050000      56.87620000
C       52.82160000      51.62140000      43.23890000
C       47.19910000      48.17250000      43.22490000
C       51.89120000      56.77560000      47.33240000
C       48.12490000      56.84440000      52.67490000
C       51.72710000      43.85160000      52.63620000
C       54.74020000      51.59300000      54.48690000
C       51.54200000      54.85320000      54.92210000
C       54.43390000      54.66630000      52.09270000
C       44.96600000      48.27890000      55.12490000
C       54.65940000      47.94420000      45.32540000
C       45.26170000      51.54380000      45.57500000
C       47.94530000      45.51690000      54.71080000
C       51.73620000      45.37450000      44.89210000
C       48.46410000      54.77830000      45.11270000
C       45.31960000      45.06780000      51.81930000
C       55.06010000      45.00960000      48.11880000
C       45.58290000      54.63730000      47.95370000
C       54.89510000      51.60340000      45.18460000
C       52.08760000      54.51380000      45.40970000
C       54.46020000      54.77360000      48.47370000
C       45.30470000      47.89480000      45.50220000
C       54.66150000      47.96440000      54.48330000
C       44.97450000      51.82540000      55.05920000
C       48.24000000      45.33660000      44.94530000
C       51.60530000      45.56240000      54.76000000
C       47.91210000      54.63020000      54.63960000
C       45.01230000      44.91050000      48.31570000
C       55.02840000      45.01160000      51.67730000
C       45.54210000      54.82860000      51.58240000
