240
Lattice="100.0 0.0 0.0 0.0 100.0 0.0 0.0 0.0 100.0" Properties=species:S:1:pos:R:3 name=C-2509655-3548-688 pressure=-0.00422152170720316 spacegroup=C1 times_found=1 energy=-1664.58029106908 pbc="T T T"
C       55.02530000      47.95920000      47.03860000
C       47.07330000      55.04470000      47.97020000
C       47.92920000      47.06150000      55.00240000
C       45.04270000      52.02990000      47.15940000
C       44.89710000      47.83810000      52.96330000
C       55.03040000      52.05960000      52.93930000
C       52.96260000      44.98490000      47.94850000
C       53.01800000      55.03480000      52.02420000
C       47.05180000      44.94520000      52.02190000
C       52.02370000      52.95380000      54.96020000
C       52.05140000      47.05030000      44.97630000
C       47.98440000      52.95190000      45.01470000
C       55.01080000      47.96340000      52.94030000
C       47.09360000      54.94060000      51.93410000
C       47.96080000      47.04520000      44.99580000
C       44.76250000      52.17970000      53.21180000
C       44.98280000      47.94110000      47.07700000
C       55.03700000      52.05200000      47.03880000
C       52.95890000      44.98060000      52.03510000
C       52.98250000      55.03590000      47.94250000
C       47.05040000      44.95910000      47.95130000
C       52.05700000      52.95900000      44.97740000
C       52.03040000      47.06120000      54.99510000
C       47.71960000      53.02560000      55.09380000
C       44.91450000      50.75450000      45.15610000
C       45.07600000      44.80850000      50.73180000
C       50.74600000      45.07700000      44.87040000
C       55.13310000      49.26340000      45.06730000
C       55.11110000      50.74420000      54.90760000
C       44.75540000      49.06210000      54.94910000
C       54.97640000      55.15000000      50.71880000
C       54.93460000      44.88040000      49.25260000
C       45.09320000      55.16450000      49.25920000
C       49.26750000      54.93060000      44.88250000
C       49.25680000      45.09010000      55.09830000
C       50.74100000      54.91500000      55.04830000
C       44.79020000      50.53170000      54.92480000
C       45.07740000      44.82370000      49.25310000
C       50.73180000      45.09120000      55.10460000
C       55.11020000      49.26800000      54.91030000
C       55.13560000      50.74310000      45.06730000
C       44.89710000      49.27900000      45.13030000
C       54.96620000      55.14480000      49.23700000
C       54.93310000      44.88020000      50.73300000
C       45.07880000      55.16300000      50.71830000
C       49.26800000      54.91780000      55.03160000
C       49.26590000      45.07420000      44.87420000
C       50.74950000      54.93170000      44.87440000
C       43.77450000      48.66430000      47.03860000
C       47.01310000      43.73400000      48.64280000
C       48.65640000      47.00320000      43.77260000
C       56.25340000      51.34680000      46.99030000
C       56.23170000      48.66090000      52.99150000
C       43.60720000      51.29890000      53.11660000
C       53.03540000      56.25870000      48.63680000
C       53.01210000      43.76010000      51.33590000
C       47.03080000      56.23170000      51.33080000
C       51.35040000      53.00560000      43.76090000
C       51.31870000      47.02100000      56.20860000
C       48.55020000      53.04260000      56.24060000
C       43.67400000      48.53750000      52.99650000
C       47.01440000      43.71830000      51.33060000
C       48.63470000      47.01320000      56.21490000
C       56.24280000      51.34800000      52.99140000
C       56.24540000      48.65840000      46.99210000
C       43.81370000      51.35180000      47.09160000
C       53.04920000      56.25720000      51.32710000
C       53.01320000      43.76380000      48.64650000
C       47.02310000      56.27400000      48.65030000
C       51.28270000      52.99000000      56.15530000
C       51.34640000      47.00480000      43.75950000
C       48.66200000      53.00090000      43.78210000
C       45.68250000      45.58830000      51.97580000
C       51.99610000      45.69670000      45.64970000
C       45.70700000      51.98110000      45.78620000
C       54.36500000      54.37010000      51.97390000
C       54.31470000      45.65980000      48.00310000
C       45.71750000      54.35310000      48.06010000
C       48.03150000      54.30900000      45.67870000
C       48.01290000      45.69450000      54.31680000
C       52.00380000      54.30640000      54.30440000
C       54.35200000      48.01450000      45.68520000
C       54.34210000      51.99450000      54.28790000
C       45.57490000      47.87510000      54.33640000
C       45.69010000      45.62500000      48.01080000
C       51.98260000      45.70370000      54.32790000
C       45.51200000      51.68960000      54.35140000
C       54.33640000      54.35820000      47.99440000
C       54.30870000      45.66020000      51.97980000
C       45.66730000      54.37240000      51.99160000
C       48.00140000      54.31290000      54.27340000
C       48.01450000      45.68910000      45.65940000
C       52.00470000      54.31370000      45.65120000
C       54.33270000      48.02140000      54.29260000
C       54.35770000      51.99350000      45.68600000
C       45.66550000      48.01480000      45.72830000
C       45.39010000      53.58660000      45.50840000
C       45.44600000      45.26820000      53.61930000
C       53.63970000      45.42330000      45.35260000
C       54.64780000      46.37000000      45.41190000
C       54.66410000      53.62890000      54.57570000
C       45.37630000      46.27490000      54.56620000
C       54.62510000      54.65070000      53.63920000
C       54.58750000      45.36270000      46.35990000
C       45.45560000      54.60330000      46.44880000
C       46.37710000      54.55390000      45.41850000
C       46.40650000      45.35220000      54.61780000
C       53.67110000      54.59330000      54.63600000
C       45.30600000      54.53630000      54.64000000
C       45.42490000      45.34850000      46.36660000
C       53.62820000      45.43150000      54.63140000
C       54.63250000      46.38250000      54.57040000
C       54.65320000      53.63490000      45.40760000
C       45.36410000      46.36450000      45.42910000
C       54.59730000      54.64470000      46.35290000
C       54.57800000      45.37050000      53.62670000
C       45.62700000      54.93370000      53.38230000
C       46.59160000      54.91120000      54.45010000
C       46.37390000      45.42010000      45.36070000
C       53.64590000      54.58260000      45.34900000
C       49.34250000      55.33570000      52.41370000
C       52.52320000      49.29160000      55.45860000
C       55.51190000      52.55390000      49.26540000
C       50.73240000      44.50850000      52.52650000
C       50.75110000      55.50030000      47.45780000
C       49.28570000      44.51660000      47.45740000
C       47.27210000      50.74940000      55.63530000
C       47.47420000      49.27580000      44.55180000
C       52.54950000      50.72790000      44.51380000
C       44.47910000      47.40290000      49.28790000
C       44.46480000      52.54910000      50.87070000
C       55.48260000      47.46560000      50.71450000
C       49.30460000      55.50430000      47.46180000
C       52.54630000      49.28010000      44.51380000
C       55.51540000      52.55610000      50.71260000
C       50.73300000      44.52330000      47.45680000
C       50.77980000      55.40550000      52.45030000
C       49.28540000      44.50640000      52.51960000
C       47.48610000      50.72230000      44.56370000
C       47.35200000      49.28770000      55.53020000
C       52.50740000      50.73920000      55.44320000
C       44.46530000      47.39070000      50.73290000
C       44.56310000      52.53650000      49.40660000
C       55.48620000      47.46530000      49.26770000
C       50.73240000      51.83770000      43.22460000
C       43.18380000      50.68560000      51.90610000
C       51.84890000      43.21300000      50.71880000
C       49.27070000      48.17030000      43.23140000
C       49.18800000      51.86490000      56.74850000
C       50.69330000      48.18730000      56.73800000
C       56.77990000      49.27440000      51.82680000
C       56.79360000      50.73060000      48.15730000
C       43.23830000      49.27470000      48.20950000
C       48.20070000      56.76690000      50.72280000
C       48.18380000      43.19740000      49.25620000
C       51.87120000      56.80400000      49.25580000
C       50.64810000      51.84020000      56.69470000
C       43.27400000      50.73100000      48.25090000
C       51.84810000      43.21800000      49.26060000
C       49.23710000      48.19220000      56.74500000
C       49.27460000      51.83420000      43.23700000
C       50.72890000      48.17260000      43.22300000
C       56.78750000      49.27330000      48.15880000
C       56.78790000      50.73170000      51.82630000
C       43.18070000      49.21720000      51.84930000
C       48.19710000      56.81260000      49.26340000
C       48.18600000      43.19010000      50.71420000
C       51.87730000      56.79660000      50.71510000
C       54.81300000      47.04180000      51.86810000
C       51.90240000      54.82940000      47.03080000
C       46.79050000      51.92550000      54.95590000
C       45.02390000      53.03640000      52.06400000
C       45.16740000      47.00040000      48.13620000
C       54.84280000      52.97600000      48.11020000
C       48.12500000      45.17540000      47.03660000
C       48.20210000      54.65560000      52.80780000
C       51.88210000      45.18340000      52.95070000
C       52.95150000      48.13310000      54.79730000
C       52.97560000      51.88370000      45.17880000
C       47.04510000      48.11970000      45.21370000
C       54.82200000      47.04030000      48.11180000
C       51.94030000      54.79910000      52.92220000
C       47.07970000      51.87260000      45.24530000
C       45.23460000      52.95570000      48.24140000
C       45.12980000      46.95170000      51.88180000
C       54.85270000      52.98680000      51.86790000
C       48.12950000      45.17460000      52.93380000
C       48.14840000      54.83160000      47.05240000
C       51.88770000      45.18880000      47.03080000
C       52.97120000      48.12390000      45.17760000
C       52.95180000      51.88850000      54.77950000
C       46.97060000      48.10880000      54.83820000
C       43.60770000      49.32650000      45.79760000
C       45.76050000      43.54240000      49.28300000
C       49.29960000      45.75060000      43.59080000
C       56.42300000      50.70270000      45.73670000
C       56.40120000      49.30220000      54.24650000
C       43.48410000      50.54020000      54.28960000
C       54.29270000      56.43010000      49.27590000
C       54.26660000      43.59150000      50.69330000
C       45.76860000      56.45370000      50.69840000
C       50.70340000      54.25840000      43.58930000
C       50.68630000      45.76510000      56.39080000
C       49.26770000      54.27460000      56.33330000
C       43.47960000      49.14330000      54.26430000
C       45.76230000      43.53000000      50.68620000
C       49.28430000      45.76190000      56.38600000
C       56.40370000      50.70450000      54.24640000
C       56.42010000      49.29970000      45.73770000
C       43.62730000      50.72910000      45.82530000
C       54.30020000      56.43400000      50.67920000
C       54.26710000      43.59230000      49.29010000
C       45.76880000      56.45640000      49.29130000
C       50.67070000      54.24810000      56.33360000
C       50.70310000      45.75140000      43.58570000
C       49.29990000      54.25600000      43.59740000
C       50.74380000      56.49550000      48.53280000
C       48.42970000      50.74100000      56.50940000
C       56.47070000      48.54570000      50.70550000
C       49.30210000      43.52170000      48.53040000
C       49.33290000      56.41800000      51.41660000
C       50.72760000      43.51660000      51.44970000
C       51.42150000      49.30250000      56.41970000
C       51.46460000      50.71800000      43.53130000
C       48.54290000      49.28860000      43.55140000
C       43.53040000      51.43950000      50.81480000
C       43.51760000      48.50620000      49.30590000
C       56.48910000      51.46340000      49.27740000
C       50.75580000      56.45720000      51.43260000
C       48.55020000      50.71380000      43.55870000
C       56.47400000      48.54540000      49.27970000
C       49.30270000      43.51110000      51.44520000
C       49.31840000      56.50130000      48.53250000
C       50.72720000      43.52960000      48.53210000
C       51.46050000      49.29260000      43.53190000
C       51.39390000      50.72780000      56.39630000
C       48.48830000      49.30860000      56.45400000
C       43.60110000      51.43450000      49.38810000
C       43.50710000      48.50060000      50.72980000
C       56.48980000      51.46390000      50.70310000
