240
Lattice="100.0 0.0 0.0 0.0 100.0 0.0 0.0 0.0 100.0" Properties=species:S:1:pos:R:3 name=C-2509655-3548-224 pressure=-10.7763559510823 energy=-1780.26181458407 spacegroup=C1 times_found=1 pbc="T T T"
C       46.83890000      56.11820000      51.32810000
C       56.10470000      51.31930000      46.84110000
C       51.33730000      46.84520000      56.14560000
C       53.16250000      56.12480000      48.67190000
C       53.20400000      43.85950000      51.37010000
C       46.84800000      43.79320000      48.59310000
C       43.88970000      51.32480000      53.20350000
C       43.99900000      48.49700000      46.81440000
C       56.13010000      48.68400000      53.17300000
C       48.63590000      46.88770000      43.78640000
C       48.68270000      53.17030000      56.13640000
C       51.31640000      53.17660000      43.85760000
C       46.84350000      43.89200000      51.32970000
C       56.09470000      48.66710000      46.84940000
C       51.33390000      53.17200000      56.13110000
C       53.20920000      43.84500000      48.70850000
C       53.16460000      56.12930000      51.32440000
C       46.84410000      56.10590000      48.67610000
C       43.88740000      48.66970000      53.20870000
C       43.97170000      51.25210000      46.86160000
C       56.12810000      51.33500000      53.16670000
C       48.66200000      53.19580000      43.84190000
C       48.68540000      46.84780000      56.13580000
C       51.27400000      46.85320000      43.91860000
C       53.49120000      55.37940000      47.46320000
C       55.39140000      47.47340000      53.50810000
C       47.47060000      53.49790000      55.39620000
C       46.51030000      55.38260000      52.54230000
C       46.44210000      44.28390000      47.29020000
C       53.52710000      44.60920000      52.57580000
C       44.74630000      47.23960000      46.29280000
C       44.62820000      52.53640000      53.52920000
C       55.36420000      52.53020000      46.50890000
C       52.52420000      53.49640000      44.60830000
C       52.54890000      46.51200000      55.40730000
C       47.37150000      46.61280000      44.36950000
C       53.52250000      44.58290000      47.49130000
C       55.38500000      52.54450000      53.49590000
C       47.47520000      46.51910000      55.39330000
C       46.51310000      44.62600000      52.53690000
C       46.52260000      55.36060000      47.46630000
C       53.49660000      55.38830000      52.53470000
C       44.68370000      52.47990000      46.53460000
C       44.62120000      47.45520000      53.53650000
C       55.35040000      47.45470000      46.52470000
C       52.48930000      46.51850000      44.65330000
C       52.54160000      53.50150000      55.38510000
C       47.45740000      53.52330000      44.59520000
C       51.81800000      50.77280000      43.65710000
C       50.78700000      43.67400000      51.86810000
C       43.73080000      51.79920000      50.78750000
C       48.17230000      50.77120000      56.34650000
C       48.11620000      49.29010000      43.53130000
C       51.84820000      49.24600000      56.33700000
C       49.29040000      43.58380000      48.29170000
C       49.23850000      56.32280000      51.83950000
C       50.76490000      56.32520000      48.16240000
C       56.31480000      51.83660000      49.23840000
C       56.32540000      48.16740000      50.77420000
C       43.67690000      48.17930000      49.26980000
C       51.81330000      49.24310000      43.66490000
C       50.76530000      56.32490000      51.83790000
C       43.71370000      48.18970000      50.81140000
C       48.17290000      49.24480000      56.34640000
C       48.13260000      50.81100000      43.58870000
C       51.84700000      50.77300000      56.33360000
C       49.23970000      56.32560000      48.16250000
C       49.25110000      43.68000000      51.85570000
C       50.81900000      43.65960000      48.25690000
C       56.31780000      48.16260000      49.24700000
C       56.31980000      51.84030000      50.76530000
C       43.75860000      51.76680000      49.25960000
C       46.57550000      45.28560000      46.25030000
C       45.29160000      45.99490000      46.64740000
C       46.40780000      47.52250000      44.26380000
C       52.55940000      44.61570000      53.52550000
C       52.53320000      55.37840000      46.50590000
C       47.46840000      55.38410000      53.49930000
C       55.39950000      46.51250000      52.55460000
C       55.37540000      53.49040000      47.46410000
C       44.63730000      53.48070000      52.55740000
C       53.50520000      47.47160000      55.40140000
C       53.47660000      52.53380000      44.61280000
C       46.51190000      52.54140000      55.41400000
C       47.47240000      55.38860000      46.50260000
C       44.68010000      53.43130000      47.49060000
C       46.49720000      52.56690000      44.59040000
C       52.53960000      55.38740000      53.49290000
C       52.54530000      44.61450000      46.55330000
C       47.47090000      44.62970000      53.49800000
C       55.38390000      53.49980000      52.53600000
C       55.38270000      46.49330000      47.48130000
C       44.62630000      46.50930000      52.56730000
C       53.49950000      52.54470000      55.38690000
C       53.45680000      47.46740000      44.62870000
C       46.51370000      47.47130000      55.41550000
C       51.83910000      56.32490000      50.76260000
C       56.32260000      50.76920000      51.84250000
C       50.77230000      51.84690000      56.33310000
C       48.16600000      56.31670000      49.23840000
C       48.16160000      43.67780000      50.77120000
C       51.89100000      43.65630000      49.29260000
C       43.79320000      50.66980000      48.16590000
C       43.71020000      49.23980000      51.88310000
C       56.30460000      49.23340000      48.17090000
C       49.21750000      51.87080000      43.62770000
C       49.24800000      48.17160000      56.33910000
C       50.73220000      48.18200000      43.66440000
C       51.88260000      43.66030000      50.81020000
C       56.32430000      49.24390000      51.84610000
C       50.77440000      48.17100000      56.33920000
C       48.15830000      43.62970000      49.28930000
C       48.16410000      56.31810000      50.76530000
C       51.83850000      56.32370000      49.23610000
C       43.79890000      49.15870000      48.12930000
C       43.71160000      50.75280000      51.88120000
C       56.30670000      50.75980000      48.16670000
C       49.20610000      48.20230000      43.58840000
C       49.24620000      51.84610000      56.33770000
C       50.74720000      51.85600000      43.64680000
C       45.19400000      54.80510000      52.45730000
C       54.79420000      52.44090000      45.18810000
C       52.46150000      45.18930000      54.84250000
C       54.81170000      54.81230000      47.55050000
C       54.84420000      45.18690000      52.47770000
C       45.06400000      44.82410000      47.42600000
C       45.18990000      52.45280000      54.85260000
C       45.14260000      47.56040000      44.92510000
C       54.82480000      47.56130000      54.82970000
C       47.35120000      45.40980000      45.12500000
C       47.55720000      54.81680000      54.82090000
C       52.44320000      54.81470000      45.18280000
C       45.19480000      45.19830000      52.44220000
C       54.77650000      47.54660000      45.20260000
C       52.45330000      54.82100000      54.81440000
C       54.84110000      45.16130000      47.57480000
C       54.81720000      54.82050000      52.44630000
C       45.21530000      54.76510000      47.56000000
C       45.18900000      47.54920000      54.86020000
C       45.19370000      52.44510000      45.19540000
C       54.81930000      52.45840000      54.81790000
C       47.55560000      54.83570000      45.17700000
C       47.56060000      45.20080000      54.81710000
C       52.40560000      45.20540000      45.24750000
C       55.39620000      51.32940000      44.58550000
C       51.34740000      44.58770000      55.44280000
C       44.58770000      55.39430000      51.34030000
C       44.58700000      51.34250000      55.45980000
C       44.52980000      48.70290000      44.45810000
C       55.42850000      48.67330000      55.43040000
C       48.52190000      44.72580000      44.80350000
C       48.66690000      55.42380000      55.42240000
C       51.34000000      55.42950000      44.57810000
C       55.41880000      55.41860000      48.65750000
C       55.45170000      44.58310000      51.36820000
C       44.51420000      44.54580000      48.62720000
C       55.38610000      48.65090000      44.59400000
C       51.34500000      55.42670000      55.41970000
C       44.60810000      44.63420000      51.29810000
C       44.58680000      48.66130000      55.46460000
C       44.56850000      51.34650000      44.59160000
C       55.42620000      51.35140000      55.42460000
C       48.66310000      55.44460000      44.57380000
C       48.66840000      44.59520000      55.42430000
C       51.24150000      44.62680000      44.70820000
C       55.45610000      44.56760000      48.68590000
C       55.42120000      55.42300000      51.33540000
C       44.59950000      55.36450000      48.66430000
C       56.24700000      45.56540000      49.34350000
C       45.57390000      49.32850000      56.26430000
C       49.32750000      56.24250000      45.56260000
C       43.82620000      45.62290000      50.64200000
C       43.80780000      54.37240000      49.33020000
C       56.22490000      54.43760000      50.67310000
C       54.40980000      49.31620000      43.78020000
C       54.44460000      50.68860000      56.23290000
C       45.52330000      50.74990000      43.71270000
C       50.68060000      56.23040000      54.43600000
C       50.57590000      43.86200000      45.69710000
C       49.33170000      43.78740000      54.44610000
C       56.22360000      54.43490000      49.32060000
C       45.57370000      50.68160000      56.26310000
C       49.18330000      43.89700000      45.76510000
C       43.79910000      54.39390000      50.68150000
C       43.77890000      45.63180000      49.26370000
C       56.24710000      45.57020000      50.69680000
C       54.41440000      50.66910000      43.77600000
C       54.44570000      49.33610000      56.23620000
C       45.49330000      49.40630000      43.62890000
C       50.68480000      43.78390000      54.45750000
C       50.68000000      56.23500000      45.56380000
C       49.32810000      56.22910000      54.43760000
C       56.12010000      53.16060000      48.67270000
C       53.17340000      48.68380000      56.14010000
C       48.67700000      56.12720000      53.16560000
C       43.90820000      53.13070000      51.34290000
C       43.63320000      46.90800000      48.77020000
C       56.13810000      46.84390000      51.34220000
C       46.76340000      48.74990000      43.61880000
C       46.84610000      51.33340000      56.15730000
C       53.14400000      51.32670000      43.86660000
C       51.32770000      56.12750000      46.83710000
C       51.34550000      43.87590000      53.19100000
C       48.76270000      43.64620000      47.03950000
C       56.12960000      46.83490000      48.68690000
C       53.17090000      51.33670000      56.13330000
C       48.68350000      43.88550000      53.16950000
C       43.91190000      46.86720000      51.34100000
C       43.94130000      53.09090000      48.69800000
C       56.12490000      53.16620000      51.32590000
C       46.81100000      51.38150000      43.80940000
C       46.84700000      48.68000000      56.15790000
C       53.13340000      48.67140000      43.87580000
C       51.31440000      43.90090000      46.91970000
C       51.32940000      56.12940000      53.16240000
C       48.67710000      56.13610000      46.83580000
C       43.78500000      49.32260000      54.47820000
C       49.32170000      54.46550000      43.75940000
C       54.47970000      43.75930000      49.35820000
C       56.19320000      49.31330000      45.57460000
C       56.23080000      50.68800000      54.44130000
C       43.83130000      50.61760000      45.59780000
C       50.68390000      54.44510000      56.22870000
C       50.59890000      45.58770000      43.87830000
C       49.33170000      45.57470000      56.23460000
C       45.58650000      43.81720000      50.64990000
C       45.56890000      56.19120000      49.32270000
C       54.43730000      56.22790000      50.67280000
C       43.78530000      50.67620000      54.47620000
C       49.25220000      45.60420000      43.91590000
C       54.43620000      56.22530000      49.32030000
C       56.19930000      50.66570000      45.56980000
C       56.23150000      49.33570000      54.44440000
C       43.85170000      49.25270000      45.57880000
C       50.68410000      45.57300000      56.24360000
C       50.67430000      54.45550000      43.76330000
C       49.33160000      54.44400000      56.23030000
C       45.56600000      56.20330000      50.67470000
C       45.57920000      43.82810000      49.29590000
C       54.47560000      43.76640000      50.71270000
