240
Lattice="100.0 0.0 0.0 0.0 100.0 0.0 0.0 0.0 100.0" Properties=species:S:1:pos:R:3 name=C-2509655-3548-332 pressure=0.0200151624519378 energy=-1865.40672576744 spacegroup=Oh times_found=1 pbc="T T T"
C       51.74840000      50.69970000      56.82420000
C       56.82430000      51.74810000      50.69880000
C       50.69940000      56.82440000      51.74760000
C       48.25140000      50.69990000      43.17590000
C       51.74650000      49.30060000      43.17530000
C       48.25370000      49.29980000      56.82460000
C       43.17530000      51.74680000      49.30130000
C       56.82450000      48.25320000      49.29910000
C       43.17590000      48.25190000      50.70080000
C       49.29920000      56.82440000      48.25290000
C       50.70020000      43.17570000      48.25220000
C       49.30110000      43.17550000      51.74730000
C       51.74860000      49.30010000      56.82410000
C       56.82470000      48.25320000      50.69870000
C       50.70080000      43.17560000      51.74710000
C       48.25160000      49.30030000      43.17580000
C       51.74630000      50.70020000      43.17540000
C       48.25350000      50.69940000      56.82470000
C       43.17570000      48.25190000      49.30120000
C       56.82410000      51.74810000      49.29920000
C       43.17550000      51.74680000      50.70090000
C       49.30060000      43.17560000      48.25240000
C       50.69890000      56.82450000      48.25270000
C       49.29980000      56.82430000      51.74780000
C       54.07890000      50.71500000      55.80410000
C       55.80440000      54.07860000      50.71400000
C       50.71490000      55.80460000      54.07810000
C       45.92100000      50.71460000      44.19590000
C       54.07720000      49.28580000      44.19460000
C       45.92300000      49.28460000      55.80530000
C       44.19480000      54.07750000      49.28620000
C       55.80500000      45.92260000      49.28410000
C       44.19580000      45.92140000      50.71560000
C       49.28400000      55.80480000      45.92230000
C       50.71470000      44.19550000      45.92170000
C       49.28640000      44.19510000      54.07790000
C       54.07900000      49.28540000      55.80410000
C       55.80520000      45.92250000      50.71380000
C       50.71600000      44.19520000      54.07770000
C       45.92110000      49.28500000      44.19590000
C       54.07700000      50.71540000      44.19470000
C       45.92280000      50.71420000      55.80540000
C       44.19560000      45.92140000      49.28600000
C       55.80420000      54.07860000      49.28440000
C       44.19500000      54.07740000      50.71590000
C       49.28510000      44.19540000      45.92190000
C       50.71360000      55.80490000      45.92210000
C       49.28530000      55.80450000      54.07830000
C       44.80040000      53.45730000      53.45890000
C       53.45900000      44.80040000      53.45720000
C       53.45680000      53.45840000      44.79980000
C       55.19890000      53.45860000      46.54140000
C       44.80000000      46.54170000      46.54280000
C       55.20060000      46.54250000      53.45700000
C       46.54200000      44.80000000      46.54240000
C       53.45690000      55.20020000      46.54170000
C       46.54210000      55.19930000      53.45870000
C       46.54260000      53.45740000      55.20040000
C       53.45910000      46.54220000      55.19910000
C       46.54160000      46.54190000      44.80060000
C       44.80110000      46.54140000      53.45860000
C       53.45800000      55.20000000      53.45760000
C       53.45740000      46.54260000      44.79960000
C       55.19960000      46.54270000      46.54110000
C       44.79940000      53.45750000      46.54300000
C       55.20000000      53.45830000      53.45720000
C       46.54100000      55.19960000      46.54280000
C       53.45790000      44.80070000      46.54130000
C       46.54310000      44.79980000      53.45830000
C       46.54320000      46.54160000      55.20020000
C       53.45840000      53.45810000      55.19940000
C       46.54090000      53.45780000      44.80090000
C       51.34830000      47.03200000      56.39030000
C       56.39000000      51.34770000      47.03120000
C       47.03170000      56.39030000      51.34770000
C       48.65230000      47.03220000      43.60950000
C       51.34570000      52.96820000      43.60930000
C       48.65370000      52.96750000      56.39090000
C       43.60970000      51.34630000      52.96890000
C       56.39120000      48.65350000      52.96680000
C       43.60910000      48.65250000      47.03310000
C       52.96700000      56.39090000      48.65280000
C       47.03250000      43.60920000      48.65320000
C       52.96870000      43.60960000      51.34630000
C       51.34770000      52.96780000      56.39050000
C       56.39030000      48.65370000      47.03110000
C       47.03300000      43.60910000      51.34720000
C       48.65170000      52.96800000      43.60970000
C       51.34630000      47.03250000      43.60910000
C       48.65430000      47.03180000      56.39070000
C       43.61000000      48.65230000      52.96880000
C       56.39090000      51.34750000      52.96690000
C       43.60880000      51.34650000      47.03320000
C       52.96830000      43.60970000      48.65230000
C       47.03130000      56.39040000      48.65370000
C       52.96750000      56.39080000      51.34680000
C       45.08470000      45.08400000      48.53570000
C       48.53480000      45.08450000      45.08450000
C       45.08380000      48.53480000      45.08510000
C       54.91630000      45.08490000      51.46400000
C       45.08420000      54.91500000      51.46590000
C       54.91490000      54.91610000      48.53450000
C       51.46620000      45.08440000      54.91520000
C       48.53540000      54.91520000      54.91600000
C       51.46370000      54.91590000      45.08440000
C       54.91650000      48.53540000      54.91470000
C       45.08510000      51.46430000      54.91640000
C       54.91470000      51.46560000      45.08370000
C       45.08370000      54.91510000      48.53600000
C       48.53380000      54.91560000      45.08480000
C       45.08350000      51.46460000      45.08530000
C       54.91530000      54.91600000      51.46430000
C       45.08510000      45.08390000      51.46550000
C       54.91580000      45.08500000      48.53410000
C       51.46520000      54.91550000      54.91550000
C       48.53630000      45.08410000      54.91560000
C       51.46460000      45.08480000      45.08400000
C       54.91620000      51.46520000      54.91490000
C       45.08530000      48.53440000      54.91630000
C       54.91490000      48.53570000      45.08360000
C       54.60610000      52.83840000      45.39230000
C       45.39290000      54.60660000      52.83870000
C       52.83900000      45.39300000      54.60650000
C       45.39330000      52.83720000      54.60790000
C       54.60810000      47.16250000      54.60630000
C       45.39240000      47.16190000      45.39350000
C       54.60620000      54.60770000      47.16170000
C       45.39290000      45.39250000      47.16280000
C       54.60800000      45.39320000      52.83690000
C       47.16190000      45.39280000      45.39320000
C       52.83660000      54.60760000      45.39260000
C       47.16250000      54.60670000      54.60770000
C       54.60670000      47.16280000      45.39210000
C       45.39380000      45.39230000      52.83830000
C       52.83810000      54.60720000      54.60680000
C       45.39390000      47.16160000      54.60770000
C       54.60760000      52.83810000      54.60650000
C       45.39190000      52.83750000      45.39370000
C       54.60710000      45.39340000      47.16130000
C       45.39200000      54.60680000      47.16310000
C       54.60710000      54.60750000      52.83720000
C       47.16100000      54.60700000      45.39350000
C       52.83750000      45.39330000      45.39230000
C       47.16340000      45.39240000      54.60740000
C       43.87850000      47.28890000      47.29020000
C       47.28960000      43.87850000      47.28960000
C       47.28870000      47.28930000      43.87900000
C       56.12200000      47.28990000      52.70960000
C       43.87880000      52.70990000      52.71170000
C       56.12070000      52.71130000      47.28850000
C       52.71160000      43.87880000      52.71000000
C       47.28920000      56.12100000      52.71130000
C       52.70960000      56.12170000      47.28920000
C       52.71180000      47.28940000      56.12080000
C       47.29010000      52.71010000      56.12190000
C       52.70940000      52.71110000      43.87830000
C       43.87800000      52.71010000      47.29040000
C       47.28840000      56.12120000      47.29000000
C       47.28820000      52.71060000      43.87920000
C       56.12150000      52.71110000      52.70980000
C       43.87930000      47.28870000      52.71150000
C       56.12120000      47.29010000      47.28830000
C       52.71040000      56.12150000      52.71040000
C       47.29040000      43.87830000      52.71080000
C       52.71080000      43.87900000      47.28870000
C       52.71130000      52.71070000      56.12100000
C       47.29060000      47.28890000      56.12170000
C       52.70990000      47.28990000      43.87810000
C       50.71610000      45.92180000      55.80450000
C       55.80400000      50.71550000      45.92110000
C       45.92150000      55.80430000      50.71570000
C       49.28470000      45.92210000      44.19520000
C       50.71350000      54.07830000      44.19530000
C       49.28570000      54.07770000      55.80500000
C       44.19580000      50.71410000      54.07900000
C       55.80540000      49.28560000      54.07710000
C       44.19470000      49.28480000      45.92290000
C       54.07730000      55.80510000      49.28480000
C       45.92240000      44.19490000      49.28560000
C       54.07870000      44.19570000      50.71400000
C       50.71530000      54.07790000      55.80480000
C       55.80420000      49.28590000      45.92100000
C       45.92270000      44.19490000      50.71520000
C       49.28390000      54.07820000      44.19550000
C       50.71430000      45.92230000      44.19500000
C       49.28650000      45.92170000      55.80470000
C       44.19600000      49.28450000      54.07890000
C       55.80530000      50.71520000      54.07710000
C       44.19460000      50.71440000      45.92290000
C       54.07850000      44.19570000      49.28430000
C       45.92130000      55.80430000      49.28600000
C       54.07760000      55.80510000      50.71440000
C       51.34680000      56.39060000      52.96790000
C       52.96870000      51.34710000      56.39020000
C       56.39050000      52.96850000      51.34610000
C       48.65190000      56.39060000      47.03260000
C       51.34720000      43.60960000      47.03170000
C       48.65410000      43.60920000      52.96790000
C       47.03100000      51.34690000      43.60990000
C       52.96700000      48.65350000      43.60890000
C       47.03330000      48.65250000      56.39100000
C       43.60890000      52.96730000      48.65410000
C       56.39070000      47.03280000      48.65190000
C       43.60990000      47.03150000      51.34790000
C       51.34810000      43.60940000      52.96740000
C       52.96900000      48.65310000      56.39010000
C       56.39110000      47.03270000      51.34590000
C       48.65320000      43.60940000      47.03210000
C       51.34590000      56.39080000      47.03210000
C       48.65280000      56.39040000      52.96830000
C       47.03130000      48.65290000      43.60980000
C       52.96670000      51.34750000      43.60900000
C       47.03300000      51.34650000      56.39110000
C       43.60950000      47.03150000      48.65390000
C       56.39010000      52.96850000      48.65210000
C       43.60930000      52.96720000      51.34810000
C       43.17580000      50.69910000      51.74850000
C       51.74820000      43.17570000      50.69930000
C       50.69860000      51.74780000      43.17560000
C       56.82410000      50.70060000      48.25150000
C       43.17540000      49.29960000      48.25360000
C       56.82470000      49.30080000      51.74640000
C       48.25310000      43.17550000      49.30020000
C       51.74670000      56.82460000      49.30020000
C       48.25200000      56.82420000      50.70030000
C       49.30110000      51.74710000      56.82460000
C       50.70110000      48.25240000      56.82420000
C       49.29930000      48.25270000      43.17560000
C       43.17590000      49.29940000      51.74850000
C       51.74690000      56.82450000      50.69980000
C       50.69890000      48.25290000      43.17540000
C       56.82420000      49.30090000      48.25150000
C       43.17530000      50.69920000      48.25360000
C       56.82460000      50.70040000      51.74640000
C       48.25180000      56.82430000      49.30070000
C       51.74800000      43.17580000      49.29970000
C       48.25330000      43.17540000      50.69980000
C       49.30140000      48.25220000      56.82440000
C       50.70070000      51.74730000      56.82440000
C       49.29890000      51.74760000      43.17580000
