240
Lattice="100.0 0.0 0.0 0.0 100.0 0.0 0.0 0.0 100.0" Properties=species:S:1:pos:R:3 name=C-2509655-3548-452 pressure=17.4712774087793 spacegroup=Th times_found=1 energy=-1766.39446592847 pbc="T T T"
C       53.87360000      46.18150000      44.49330000
C       46.18150000      44.49320000      53.87360000
C       44.49320000      53.87350000      46.18150000
C       46.12640000      53.81850000      44.49330000
C       53.87350000      53.81860000      55.50680000
C       46.12640000      46.18140000      55.50670000
C       53.81850000      55.50680000      53.87360000
C       46.18140000      55.50670000      46.12640000
C       53.81860000      44.49330000      46.12640000
C       55.50680000      46.12650000      46.18150000
C       44.49330000      46.12630000      53.81850000
C       55.50670000      53.87360000      53.81860000
C       53.87360000      46.18150000      55.50670000
C       46.18150000      44.49320000      46.12640000
C       44.49320000      53.87350000      53.81850000
C       46.12640000      53.81850000      55.50670000
C       53.87360000      53.81860000      44.49330000
C       46.12650000      46.18140000      44.49320000
C       53.81850000      55.50680000      46.12640000
C       46.18140000      55.50670000      53.87360000
C       53.81860000      44.49330000      53.87360000
C       55.50680000      46.12650000      53.81850000
C       44.49330000      46.12640000      46.18140000
C       55.50670000      53.87370000      46.18150000
C       51.56870000      44.27310000      53.69390000
C       44.27310000      53.69380000      51.56870000
C       53.69390000      51.56870000      44.27310000
C       48.43130000      55.72690000      53.69390000
C       51.56860000      55.72690000      46.30620000
C       48.43140000      44.27310000      46.30610000
C       55.72690000      46.30620000      51.56870000
C       44.27320000      46.30610000      48.43130000
C       55.72690000      53.69390000      48.43140000
C       46.30620000      48.43130000      44.27310000
C       53.69390000      48.43140000      55.72690000
C       46.30610000      51.56860000      55.72690000
C       51.56870000      44.27310000      46.30610000
C       44.27310000      53.69380000      48.43130000
C       53.69380000      51.56870000      55.72690000
C       48.43130000      55.72690000      46.30610000
C       51.56860000      55.72690000      53.69390000
C       48.43140000      44.27310000      53.69380000
C       55.72690000      46.30620000      48.43130000
C       44.27310000      46.30610000      51.56860000
C       55.72680000      53.69390000      51.56870000
C       46.30610000      48.43130000      55.72690000
C       53.69390000      48.43140000      44.27310000
C       46.30610000      51.56860000      44.27310000
C       53.87330000      55.54720000      50.78690000
C       55.54710000      50.78690000      53.87340000
C       50.78680000      53.87340000      55.54710000
C       46.12670000      44.45280000      50.78680000
C       53.87350000      44.45290000      49.21310000
C       46.12650000      55.54710000      49.21310000
C       44.45290000      49.21310000      53.87340000
C       55.54710000      49.21320000      46.12660000
C       44.45290000      50.78680000      46.12660000
C       49.21320000      46.12660000      55.54710000
C       50.78690000      46.12660000      44.45290000
C       49.21310000      53.87340000      44.45290000
C       53.87330000      55.54720000      49.21320000
C       55.54710000      50.78690000      46.12660000
C       50.78680000      53.87340000      44.45290000
C       46.12670000      44.45280000      49.21310000
C       53.87350000      44.45290000      50.78690000
C       46.12650000      55.54710000      50.78690000
C       44.45290000      49.21310000      46.12660000
C       55.54710000      49.21320000      53.87340000
C       44.45290000      50.78680000      53.87340000
C       49.21320000      46.12660000      44.45290000
C       50.78690000      46.12660000      55.54710000
C       49.21310000      53.87340000      55.54710000
C       53.16690000      54.88410000      55.00050000
C       54.88400000      55.00050000      53.16700000
C       55.00040000      53.16700000      54.88410000
C       46.83310000      45.11590000      55.00040000
C       53.16700000      45.11600000      44.99950000
C       46.83300000      54.88410000      44.99960000
C       45.11600000      44.99950000      53.16690000
C       54.88420000      44.99960000      46.83300000
C       45.11590000      55.00040000      46.83310000
C       44.99960000      46.83300000      54.88410000
C       55.00050000      46.83310000      45.11590000
C       44.99950000      53.16690000      45.11590000
C       53.16690000      54.88410000      44.99960000
C       54.88400000      55.00050000      46.83310000
C       55.00040000      53.16700000      45.11590000
C       46.83310000      45.11590000      44.99950000
C       53.16700000      45.11590000      55.00040000
C       46.83300000      54.88400000      55.00050000
C       45.11600000      44.99950000      46.83300000
C       54.88410000      44.99960000      53.16690000
C       45.11580000      55.00040000      53.16700000
C       44.99960000      46.83300000      45.11590000
C       55.00050000      46.83310000      54.88410000
C       44.99950000      53.16690000      54.88410000
C       52.75640000      50.68810000      43.74310000
C       50.68820000      43.74310000      52.75640000
C       43.74300000      52.75630000      50.68810000
C       47.24360000      49.31190000      43.74310000
C       52.75640000      49.31190000      56.25690000
C       47.24360000      50.68800000      56.25690000
C       49.31180000      56.25690000      52.75640000
C       50.68800000      56.25690000      47.24360000
C       49.31200000      43.74310000      47.24360000
C       56.25700000      47.24370000      50.68810000
C       43.74310000      47.24360000      49.31190000
C       56.25690000      52.75650000      49.31190000
C       52.75640000      50.68810000      56.25690000
C       50.68820000      43.74310000      47.24360000
C       43.74300000      52.75630000      49.31190000
C       47.24360000      49.31190000      56.25690000
C       52.75640000      49.31200000      43.74310000
C       47.24360000      50.68810000      43.74310000
C       49.31180000      56.25690000      47.24360000
C       50.68800000      56.25690000      52.75640000
C       49.31200000      43.74310000      52.75640000
C       56.25700000      47.24370000      49.31190000
C       43.74310000      47.24350000      50.68810000
C       56.25690000      52.75650000      50.68810000
C       50.73980000      42.57700000      50.71120000
C       42.57700000      50.71120000      50.73970000
C       50.71130000      50.73970000      42.57700000
C       49.26020000      57.42300000      50.71130000
C       50.73960000      57.42300000      49.28880000
C       49.26040000      42.57700000      49.28870000
C       57.42300000      49.28880000      50.73970000
C       42.57700000      49.28870000      49.26030000
C       57.42300000      50.71130000      49.26030000
C       49.28880000      49.26030000      42.57700000
C       50.71120000      49.26030000      57.42300000
C       49.28870000      50.73970000      57.42300000
C       50.73980000      42.57700000      49.28870000
C       42.57700000      50.71120000      49.26030000
C       50.71120000      50.73970000      57.42300000
C       49.26020000      57.42300000      49.28880000
C       50.73960000      57.42300000      50.71130000
C       49.26040000      42.57700000      50.71120000
C       57.42300000      49.28880000      49.26030000
C       42.57700000      49.28870000      50.73970000
C       57.42300000      50.71130000      50.73970000
C       49.28870000      49.26030000      57.42300000
C       50.71130000      49.26030000      42.57700000
C       49.28880000      50.73970000      42.57700000
C       48.31250000      45.12050000      54.85500000
C       45.12040000      54.85490000      48.31250000
C       54.85500000      48.31250000      45.12050000
C       51.68750000      54.87950000      54.85500000
C       48.31240000      54.87950000      45.14500000
C       51.68760000      45.12050000      45.14500000
C       54.87960000      45.14510000      48.31250000
C       45.12060000      45.14490000      51.68750000
C       54.87940000      54.85500000      51.68760000
C       45.14500000      51.68750000      45.12050000
C       54.85500000      51.68760000      54.87950000
C       45.14500000      48.31240000      54.87950000
C       48.31250000      45.12050000      45.14500000
C       45.12040000      54.85490000      51.68760000
C       54.85500000      48.31250000      54.87950000
C       51.68750000      54.87950000      45.14500000
C       48.31240000      54.87950000      54.85500000
C       51.68760000      45.12050000      54.85500000
C       54.87960000      45.14510000      51.68750000
C       45.12060000      45.14500000      48.31240000
C       54.87940000      54.85510000      48.31250000
C       45.14500000      51.68750000      54.87950000
C       54.85500000      51.68760000      45.12050000
C       45.14500000      48.31240000      45.12050000
C       44.03050000      46.93970000      52.83590000
C       46.93980000      52.83590000      44.03050000
C       52.83600000      44.03050000      46.93980000
C       55.96950000      53.06030000      52.83590000
C       44.03040000      53.06010000      47.16410000
C       55.96960000      46.93990000      47.16410000
C       53.06020000      47.16410000      44.03050000
C       46.93980000      47.16400000      55.96950000
C       53.06020000      52.83590000      55.96950000
C       47.16400000      55.96950000      46.93980000
C       52.83580000      55.96960000      53.06020000
C       47.16410000      44.03040000      53.06020000
C       44.03050000      46.93970000      47.16410000
C       46.93980000      52.83590000      55.96950000
C       52.83600000      44.03050000      53.06020000
C       55.96950000      53.06030000      47.16410000
C       44.03040000      53.06010000      52.83590000
C       55.96960000      46.93990000      52.83590000
C       53.06020000      47.16410000      55.96950000
C       46.93980000      47.16410000      44.03050000
C       53.06020000      52.83600000      44.03050000
C       47.16400000      55.96950000      53.06020000
C       52.83590000      55.96960000      46.93980000
C       47.16420000      44.03040000      46.93980000
C       51.58690000      51.46350000      43.31220000
C       51.46350000      43.31220000      51.58690000
C       43.31220000      51.58680000      51.46340000
C       48.41310000      48.53660000      43.31220000
C       51.58690000      48.53660000      56.68780000
C       48.41300000      51.46340000      56.68780000
C       48.53650000      56.68780000      51.58690000
C       51.46340000      56.68780000      48.41310000
C       48.53670000      43.31220000      48.41310000
C       56.68780000      48.41320000      51.46340000
C       43.31220000      48.41300000      48.53660000
C       56.68780000      51.58700000      48.53660000
C       51.58690000      51.46340000      56.68780000
C       51.46350000      43.31220000      48.41310000
C       43.31220000      51.58690000      48.53660000
C       48.41310000      48.53650000      56.68780000
C       51.58690000      48.53660000      43.31220000
C       48.41310000      51.46340000      43.31220000
C       48.53650000      56.68780000      48.41310000
C       51.46330000      56.68780000      51.58690000
C       48.53670000      43.31220000      51.58690000
C       56.68780000      48.41320000      48.53660000
C       43.31220000      48.41300000      51.46340000
C       56.68780000      51.58700000      51.46340000
C       47.16360000      56.16610000      51.65720000
C       56.16620000      51.65730000      47.16370000
C       51.65720000      47.16370000      56.16620000
C       52.83640000      43.83380000      51.65720000
C       47.16380000      43.83380000      48.34280000
C       52.83620000      56.16620000      48.34280000
C       43.83380000      48.34270000      47.16370000
C       56.16620000      48.34290000      52.83630000
C       43.83380000      51.65710000      52.83630000
C       48.34270000      52.83630000      56.16620000
C       51.65720000      52.83630000      43.83380000
C       48.34280000      47.16370000      43.83380000
C       47.16360000      56.16620000      48.34280000
C       56.16620000      51.65730000      52.83630000
C       51.65730000      47.16370000      43.83380000
C       52.83640000      43.83390000      48.34280000
C       47.16380000      43.83380000      51.65720000
C       52.83620000      56.16620000      51.65720000
C       43.83380000      48.34270000      52.83630000
C       56.16620000      48.34290000      47.16370000
C       43.83380000      51.65710000      47.16370000
C       48.34280000      52.83630000      43.83380000
C       51.65720000      52.83630000      56.16620000
C       48.34280000      47.16370000      56.16620000
