240
Lattice="100.0 0.0 0.0 0.0 100.0 0.0 0.0 0.0 100.0" Properties=species:S:1:pos:R:3 name=C-2509655-3548-1484 pressure=-0.0294445500655301 spacegroup=C1 times_found=1 energy=-1719.4850329046 pbc="T T T"
C       54.52530000      54.13700000      46.90430000
C       53.21040000      46.75630000      54.77940000
C       45.90370000      54.17510000      53.49270000
C       44.13270000      46.22060000      46.95180000
C       56.45380000      46.43570000      52.33510000
C       44.76460000      53.58020000      52.86570000
C       46.34640000      53.53910000      54.71420000
C       53.59710000      52.32510000      43.52150000
C       46.43410000      47.17900000      44.77920000
C       52.83720000      45.61340000      53.79950000
C       46.92950000      44.80160000      46.33860000
C       53.31400000      55.00440000      46.66330000
C       56.44410000      53.39640000      52.29850000
C       54.40050000      46.78120000      45.66430000
C       46.94770000      54.23470000      46.32730000
C       45.96170000      46.68080000      53.87200000
C       55.45380000      46.59320000      46.69750000
C       43.70140000      53.72560000      46.99090000
C       46.47840000      53.15540000      45.42590000
C       53.37910000      53.05490000      55.15010000
C       46.46550000      47.43950000      55.02110000
C       53.09350000      44.58540000      46.21870000
C       46.69310000      45.42800000      53.49110000
C       53.26600000      54.19990000      54.19010000
C       48.31570000      54.61020000      45.77330000
C       55.60280000      45.70020000      47.83040000
C       45.81340000      48.72470000      55.15360000
C       51.78200000      44.50340000      45.58960000
C       47.95550000      45.10960000      54.26050000
C       51.94620000      54.91790000      54.45210000
C       43.97190000      54.33730000      48.17030000
C       55.73680000      54.44260000      51.58820000
C       43.91610000      45.02690000      51.43110000
C       54.22730000      51.86290000      55.04520000
C       45.59390000      51.99780000      45.18330000
C       54.55450000      48.12630000      45.06390000
C       49.05860000      55.73620000      54.92840000
C       55.71090000      45.50040000      51.51360000
C       45.66360000      48.33380000      44.75400000
C       51.58760000      45.03840000      54.38560000
C       48.15720000      44.83810000      45.67690000
C       52.09160000      54.95750000      45.82130000
C       44.43850000      54.24000000      51.63260000
C       55.09530000      54.49720000      48.18510000
C       44.03930000      45.39700000      48.07380000
C       54.58190000      51.55610000      44.25980000
C       45.78780000      52.21620000      55.12420000
C       54.08560000      47.94650000      54.80500000
C       51.54390000      53.19440000      42.87530000
C       52.29470000      44.04360000      51.98600000
C       43.33640000      51.74630000      52.38030000
C       48.02620000      47.92440000      43.29400000
C       51.31700000      47.03790000      56.82180000
C       47.98650000      53.11410000      56.52940000
C       47.57590000      55.91320000      52.18330000
C       52.40240000      56.87220000      47.94170000
C       46.87060000      43.51990000      48.62270000
C       56.96970000      48.62740000      53.05680000
C       42.96380000      48.57170000      46.83760000
C       56.18980000      52.29490000      47.12840000
C       51.38490000      52.92410000      57.07770000
C       53.07970000      43.55130000      48.67090000
C       42.75600000      51.27600000      46.83460000
C       48.54030000      47.20490000      56.84250000
C       51.43490000      47.60640000      43.49810000
C       49.13190000      53.45840000      42.28330000
C       47.46430000      55.68790000      48.17130000
C       52.70640000      56.65230000      51.48570000
C       46.84740000      43.63880000      51.38400000
C       57.30510000      47.98010000      47.50610000
C       43.87430000      47.81090000      52.25660000
C       56.92420000      51.21960000      52.98380000
C       46.52520000      51.29200000      55.98180000
C       50.82930000      55.66010000      46.37680000
C       56.53840000      45.89160000      50.32700000
C       53.76840000      49.12550000      55.64080000
C       46.28130000      49.59110000      44.12840000
C       54.02470000      50.27720000      43.75240000
C       49.17490000      43.90520000      46.05070000
C       50.52650000      44.31790000      53.74400000
C       49.75690000      56.00950000      53.81620000
C       43.48690000      53.67770000      50.72880000
C       56.03770000      53.74870000      48.95440000
C       43.08360000      45.84630000      49.11500000
C       46.32910000      51.02100000      44.32320000
C       51.19850000      55.80410000      53.59510000
C       56.53600000      46.07970000      48.92230000
C       53.76070000      48.91220000      44.11570000
C       46.33880000      49.78990000      56.01140000
C       53.91160000      50.61750000      55.76320000
C       49.02290000      44.21290000      53.79610000
C       50.64390000      43.83590000      45.95580000
C       49.32760000      55.40510000      46.42330000
C       43.16970000      53.82680000      49.29500000
C       56.32180000      53.96960000      50.31710000
C       43.27230000      45.84500000      50.57560000
C       46.30220000      44.51830000      52.45840000
C       43.46140000      52.55490000      46.49830000
C       53.39150000      45.83120000      45.47560000
C       54.06860000      54.54910000      53.20390000
C       46.44300000      54.95360000      47.54040000
C       53.55860000      44.13470000      47.42160000
C       56.28560000      47.74020000      46.60910000
C       44.79850000      47.57490000      53.32240000
C       56.23710000      52.48910000      53.28690000
C       47.46440000      53.02500000      44.39720000
C       52.35100000      53.27820000      56.07150000
C       47.46960000      46.94690000      55.84690000
C       46.36270000      44.28760000      47.43420000
C       44.15000000      52.38420000      53.31750000
C       52.34250000      46.58530000      55.89630000
C       53.39440000      55.95770000      47.70970000
C       46.39660000      55.21770000      52.53280000
C       53.25020000      44.95150000      52.55530000
C       56.22960000      47.37100000      53.29150000
C       43.86490000      47.39250000      46.44800000
C       55.20050000      53.04410000      46.35470000
C       47.33130000      53.96540000      55.59770000
C       52.74010000      53.37670000      43.68670000
C       47.67710000      46.91580000      44.23150000
C       49.75300000      51.43470000      57.96950000
C       51.72550000      57.42200000      49.14740000
C       57.45970000      49.18120000      51.86940000
C       50.71800000      48.24700000      57.26010000
C       49.17790000      48.61530000      42.65260000
C       50.96440000      51.98890000      42.42600000
C       48.07900000      43.22770000      49.30410000
C       51.69940000      43.42370000      50.73790000
C       48.07560000      56.40730000      50.81250000
C       43.02600000      50.46810000      51.65680000
C       57.65310000      50.40950000      48.48070000
C       42.51860000      49.16790000      48.03430000
C       49.51610000      52.11710000      42.34850000
C       51.80180000      57.27620000      50.51220000
C       57.82920000      49.12120000      48.34780000
C       50.55290000      48.51170000      42.78630000
C       49.26970000      48.33270000      57.27690000
C       51.04840000      51.73400000      57.77360000
C       48.02800000      43.25160000      50.72530000
C       51.85760000      43.31530000      49.33980000
C       47.98330000      56.36740000      49.43250000
C       42.41320000      50.60250000      48.02640000
C       57.36340000      50.65070000      51.77370000
C       43.24380000      49.10490000      51.62240000
C       51.62120000      56.44730000      52.42190000
C       57.01210000      52.92130000      51.04850000
C       53.20020000      50.55660000      56.99940000
C       48.69810000      43.24180000      52.94580000
C       50.67240000      42.93910000      47.09600000
C       48.69530000      55.98990000      47.50710000
C       43.21540000      47.09610000      51.16520000
C       57.42690000      47.11170000      48.62050000
C       42.19930000      52.90860000      48.89610000
C       47.17770000      49.26350000      56.92190000
C       52.52770000      48.54870000      43.45480000
C       47.42160000      51.76530000      43.72130000
C       51.16010000      56.64730000      47.28200000
C       56.59240000      52.53520000      48.42810000
C       53.12910000      51.07770000      42.97340000
C       49.21010000      42.95830000      47.12430000
C       51.08130000      43.71960000      52.65680000
C       48.88740000      56.27280000      52.74400000
C       42.26120000      46.87270000      48.76180000
C       57.23040000      46.83730000      51.17820000
C       42.92630000      52.49430000      51.23200000
C       47.31180000      49.15690000      43.30440000
C       53.01390000      49.11050000      56.83650000
C       47.67650000      51.76350000      56.71820000
C       45.60620000      43.65080000      50.68680000
C       43.42910000      50.65860000      45.72330000
C       51.09700000      46.43430000      44.19360000
C       53.93460000      56.03190000      51.20440000
C       45.08110000      56.06030000      49.20450000
C       54.32220000      43.95990000      49.32750000
C       56.25130000      49.91120000      45.91770000
C       43.73680000      49.64630000      54.39020000
C       56.21740000      50.59920000      54.08670000
C       49.46070000      54.14840000      43.51150000
C       50.47920000      53.96760000      56.62040000
C       49.14750000      45.92640000      56.49550000
C       45.62300000      43.71810000      49.30710000
C       43.74540000      50.76580000      54.94830000
C       50.51870000      45.84590000      56.59160000
C       54.35280000      56.09530000      49.92710000
C       45.36540000      56.13670000      50.40420000
C       54.42600000      44.06350000      50.61700000
C       56.19300000      49.25260000      54.10630000
C       43.48880000      49.30440000      45.71570000
C       56.16080000      51.19270000      46.16120000
C       49.09490000      54.05080000      56.67420000
C       50.85590000      54.21170000      43.62280000
C       49.84270000      45.93800000      44.40050000
C       49.17850000      56.79000000      48.58560000
C       57.90830000      48.14580000      49.48080000
C       48.41720000      49.49550000      57.36340000
C       50.71460000      43.00010000      48.51800000
C       49.09980000      43.04900000      51.62460000
C       50.69820000      57.04540000      51.44620000
C       42.23860000      51.50710000      49.15290000
C       57.34750000      51.63230000      50.65610000
C       42.73820000      48.27360000      50.52430000
C       51.93830000      50.63080000      57.62800000
C       48.44720000      51.24000000      42.82790000
C       51.65510000      49.45870000      42.70990000
C       49.35330000      56.79370000      51.50200000
C       57.68380000      48.13540000      50.85710000
C       48.38460000      49.86590000      42.69450000
C       50.48920000      43.13030000      51.50980000
C       49.25500000      42.98890000      48.55050000
C       50.44620000      57.22830000      48.41690000
C       42.48610000      51.33860000      50.52610000
C       57.30190000      51.51280000      49.19300000
C       42.38500000      48.22320000      49.14450000
C       51.83720000      50.82970000      42.53980000
C       48.62980000      50.92400000      57.45980000
C       51.71420000      49.22910000      57.39900000
C       45.09250000      44.49500000      48.20010000
C       44.43970000      48.28690000      45.40750000
C       48.56180000      45.85240000      44.72720000
C       54.39600000      55.63230000      48.69540000
C       45.37480000      55.30490000      51.50630000
C       54.46260000      44.89310000      51.70740000
C       55.23560000      52.00360000      45.35060000
C       44.54590000      51.84340000      54.56110000
C       55.32810000      48.06610000      54.21880000
C       51.98080000      54.31870000      44.57030000
C       48.39350000      54.97470000      55.73260000
C       51.53070000      45.41410000      55.69720000
C       44.99320000      44.40760000      51.78130000
C       44.72710000      48.68310000      54.26720000
C       48.14040000      45.72980000      55.45400000
C       54.58780000      55.07310000      52.06090000
C       45.14160000      55.13940000      48.18310000
C       54.75570000      44.63300000      48.07530000
C       55.40470000      51.79310000      54.31380000
C       44.27860000      51.80730000      45.53710000
C       55.71550000      48.69810000      45.70040000
C       51.48570000      54.36360000      55.63490000
C       48.46210000      54.01080000      44.50840000
C       52.06940000      45.68540000      44.86040000
