240
Lattice="100.0 0.0 0.0 0.0 100.0 0.0 0.0 0.0 100.0" Properties=species:S:1:pos:R:3 name=C-2509655-3548-733 pressure=-0.000261335467035254 energy=-1755.39734165034 spacegroup=C1 times_found=1 pbc="T T T"
C       49.33680000      51.52760000      42.29260000
C       43.09650000      49.26540000      51.54220000
C       51.19780000      42.22480000      49.48460000
C       50.62380000      51.45140000      57.64120000
C       49.27010000      48.19420000      56.86170000
C       50.59300000      48.17710000      43.17320000
C       57.00130000      49.42900000      48.68260000
C       43.15160000      50.64060000      48.15630000
C       57.82170000      50.58730000      51.23570000
C       48.59990000      42.88030000      50.50790000
C       51.77930000      56.75840000      50.59570000
C       48.40900000      57.56670000      49.41580000
C       49.36450000      48.59340000      42.99690000
C       43.26300000      50.55310000      51.72640000
C       51.36880000      56.90150000      49.36160000
C       50.67070000      48.20090000      56.90160000
C       49.40210000      51.42250000      57.58660000
C       50.52950000      51.25660000      42.18980000
C       56.81840000      50.62770000      48.18520000
C       43.02980000      49.36260000      48.41940000
C       57.78550000      49.41190000      51.58830000
C       48.66380000      57.60690000      50.60760000
C       51.52470000      42.31180000      50.66820000
C       48.13030000      43.00010000      49.28530000
C       44.32250000      49.28270000      45.47710000
C       45.79640000      44.32880000      49.24300000
C       49.01820000      45.69350000      44.65930000
C       55.54420000      48.96850000      54.74660000
C       44.65860000      50.49440000      53.92310000
C       55.31240000      50.57750000      45.97080000
C       54.85770000      44.28650000      50.91660000
C       45.53540000      55.38360000      50.70920000
C       54.23470000      55.29720000      49.01800000
C       50.73780000      46.07650000      55.44690000
C       49.51050000      54.57710000      55.51680000
C       50.56210000      54.82330000      44.26000000
C       44.42390000      50.73810000      45.86000000
C       45.43370000      55.42180000      49.13090000
C       49.10600000      54.90410000      44.25950000
C       55.60240000      50.45230000      54.68570000
C       44.60790000      48.98620000      54.23820000
C       55.27410000      49.07710000      45.75720000
C       53.98680000      55.28950000      50.51150000
C       45.44000000      44.24550000      50.70410000
C       54.77090000      44.30700000      49.46090000
C       50.99310000      54.51270000      55.43320000
C       49.25470000      46.06910000      55.42860000
C       50.52980000      45.96240000      44.66480000
C       48.61450000      43.02680000      47.04930000
C       47.08920000      48.73890000      43.29210000
C       43.42720000      47.14080000      48.53680000
C       51.46550000      43.58120000      52.74790000
C       48.73460000      56.96900000      52.86190000
C       51.29850000      56.90270000      47.09250000
C       52.90480000      48.57060000      57.19350000
C       47.31140000      51.35910000      56.47950000
C       52.61930000      51.37470000      43.34690000
C       56.99590000      47.12500000      51.61970000
C       43.06280000      52.78290000      51.34370000
C       56.86550000      52.88180000      48.57600000
C       48.44100000      57.02070000      47.09660000
C       47.22700000      51.55700000      43.46050000
C       42.92160000      52.84710000      48.64230000
C       51.52900000      56.98860000      52.84470000
C       48.68310000      43.61190000      52.69800000
C       51.36200000      43.35410000      47.36990000
C       52.90320000      51.34610000      56.99450000
C       47.02520000      48.68710000      56.91650000
C       52.83630000      48.60520000      43.15510000
C       56.58480000      52.61260000      51.32200000
C       43.22730000      46.97830000      51.28960000
C       56.85330000      47.15860000      48.73830000
C       52.55640000      52.63400000      44.00380000
C       43.92160000      52.64090000      52.48320000
C       52.78570000      44.08540000      52.86260000
C       47.44620000      52.52590000      55.71810000
C       52.81130000      47.37030000      56.42390000
C       46.85800000      47.41570000      43.84910000
C       56.09150000      52.69500000      47.38270000
C       44.00220000      47.11150000      47.26880000
C       56.32950000      46.89170000      52.91740000
C       47.36860000      43.71710000      47.18250000
C       52.54030000      56.15490000      46.89990000
C       47.49350000      56.17320000      52.94140000
C       52.65570000      47.41190000      43.93050000
C       43.81700000      46.75960000      52.59120000
C       52.65850000      56.11720000      52.65320000
C       47.13730000      47.43770000      56.23840000
C       53.04540000      52.56810000      56.18180000
C       47.16530000      52.83600000      44.05950000
C       56.10900000      46.97200000      47.49240000
C       43.67040000      52.77440000      47.41910000
C       55.84080000      52.46950000      52.51790000
C       47.16110000      56.32400000      46.92710000
C       52.59480000      44.05150000      47.46040000
C       47.35970000      44.06590000      52.77690000
C       55.95730000      44.98080000      48.88010000
C       48.56630000      56.13130000      44.92390000
C       45.26640000      48.64220000      55.44060000
C       44.20010000      44.84100000      51.14180000
C       54.92300000      54.39450000      51.28620000
C       44.26320000      54.71800000      48.66120000
C       51.51200000      55.64950000      54.68670000
C       48.56370000      45.12170000      54.55740000
C       51.32210000      45.01650000      45.56190000
C       54.56480000      48.65990000      44.61200000
C       45.33500000      51.52040000      44.96840000
C       55.02260000      51.10090000      55.91280000
C       55.39730000      54.60440000      48.61590000
C       48.64410000      44.51950000      45.34500000
C       45.54130000      51.29080000      54.83090000
C       44.43180000      54.64250000      51.26960000
C       56.08710000      44.94980000      51.45170000
C       44.87040000      45.21730000      48.46880000
C       51.47070000      45.14530000      54.58060000
C       48.92140000      55.84580000      54.95190000
C       51.14790000      56.01420000      44.91810000
C       54.43750000      51.35950000      44.99260000
C       44.94420000      48.87680000      44.24340000
C       54.81150000      48.51660000      55.92040000
C       46.35590000      53.74690000      54.08480000
C       54.81590000      44.89540000      53.16460000
C       52.76830000      54.60640000      44.94440000
C       53.74560000      53.86990000      45.57910000
C       44.82480000      46.99170000      45.25450000
C       54.61680000      46.74190000      54.61730000
C       45.45390000      45.93850000      45.91290000
C       54.20010000      54.40840000      46.77490000
C       45.86010000      54.36070000      52.93570000
C       47.32470000      54.45730000      54.74320000
C       54.07680000      45.54870000      54.13240000
C       46.70590000      45.57520000      45.41430000
C       45.41640000      46.68940000      54.38940000
C       54.23300000      53.61900000      53.74210000
C       53.81380000      45.65250000      46.29370000
C       54.36090000      46.84200000      45.83600000
C       45.93470000      54.06330000      45.60710000
C       54.86540000      52.63920000      54.46080000
C       45.49800000      54.57400000      46.83500000
C       54.55400000      45.01650000      47.26440000
C       45.28570000      44.77210000      52.99210000
C       45.95540000      45.45460000      54.00300000
C       53.12180000      54.17570000      54.35920000
C       46.88540000      54.81640000      44.95030000
C       47.26610000      44.93260000      53.97150000
C       53.83490000      47.44890000      44.73710000
C       44.41540000      54.00470000      47.44750000
C       52.56860000      45.01640000      46.28390000
C       47.28810000      55.98620000      45.49740000
C       52.63040000      55.35400000      53.87340000
C       45.95580000      47.39990000      55.43840000
C       54.42060000      52.34900000      55.70220000
C       45.97510000      52.80880000      44.96890000
C       54.87680000      53.63890000      52.50110000
C       44.16670000      45.33610000      52.46720000
C       55.74380000      45.55780000      47.62300000
C       47.67150000      55.69000000      54.32020000
C       53.74180000      52.61790000      44.95540000
C       44.85250000      45.90150000      47.19310000
C       52.40830000      55.79620000      45.48630000
C       47.38370000      44.53200000      45.99660000
C       52.78970000      44.98470000      54.04270000
C       46.29820000      52.50890000      54.74530000
C       54.05480000      47.34280000      55.71660000
C       45.42780000      47.54730000      44.17350000
C       55.97680000      45.46540000      52.75230000
C       44.70310000      53.85470000      52.41450000
C       55.29010000      53.87860000      47.40060000
C       56.86660000      45.92280000      50.83540000
C       50.56120000      56.86820000      45.86740000
C       46.10790000      50.72970000      56.03080000
C       43.81480000      45.93750000      49.15190000
C       56.38410000      53.98190000      49.35950000
C       43.31080000      54.01980000      50.68680000
C       49.49960000      56.77250000      54.08970000
C       50.72280000      44.22290000      53.80540000
C       49.40510000      43.55440000      45.98260000
C       53.80240000      50.72320000      43.85740000
C       45.93830000      49.56420000      43.58370000
C       54.12660000      49.22220000      56.92660000
C       56.09680000      53.80720000      50.68420000
C       50.71980000      43.85250000      46.17550000
C       45.91980000      49.43040000      56.38640000
C       43.22800000      54.05330000      49.33310000
C       56.80410000      45.93050000      49.47130000
C       43.49560000      45.81700000      50.46610000
C       49.36420000      44.21480000      53.79940000
C       50.86910000      56.72950000      54.06390000
C       49.19540000      56.92750000      45.87270000
C       53.94340000      49.38740000      43.61570000
C       46.07110000      50.87580000      43.91700000
C       54.13960000      50.58360000      56.86260000
C       49.11980000      57.33590000      48.24790000
C       48.26470000      49.23440000      57.23530000
C       57.17060000      48.33040000      49.44790000
C       50.87900000      57.28200000      51.66330000
C       49.36680000      43.00990000      51.62380000
C       50.59190000      42.61500000      48.33170000
C       51.64960000      49.16010000      42.74820000
C       48.23750000      50.86260000      42.80090000
C       51.74830000      50.67900000      57.42910000
C       42.96460000      48.21080000      50.70060000
C       57.35520000      51.67500000      50.57110000
C       42.76030000      51.59430000      49.25380000
C       49.15080000      42.64250000      48.25530000
C       48.29510000      50.68320000      57.23160000
C       57.26560000      51.69080000      49.13270000
C       50.82140000      42.87650000      51.73470000
C       49.42750000      57.39790000      51.72050000
C       50.59750000      57.15610000      48.28100000
C       51.63880000      50.60410000      42.63960000
C       48.26910000      49.38520000      42.93130000
C       51.68130000      49.20430000      57.38370000
C       42.82190000      51.56130000      50.69580000
C       57.37820000      48.26190000      50.93480000
C       42.97970000      48.27420000      49.22800000
C       46.95100000      43.69930000      48.59270000
C       47.59090000      46.36420000      44.49260000
C       44.12570000      47.93160000      46.11550000
C       54.04640000      44.16170000      52.16850000
C       46.48400000      55.46870000      52.14310000
C       53.51420000      55.42840000      47.63910000
C       51.39590000      47.08780000      56.24050000
C       48.25440000      53.71660000      55.55510000
C       51.79900000      53.88670000      44.15140000
C       55.65120000      47.60950000      53.95840000
C       44.00220000      51.21570000      52.83010000
C       56.03470000      51.26930000      47.04070000
C       46.19040000      55.59280000      47.70150000
C       47.86660000      54.07700000      44.17340000
C       43.77750000      51.37690000      47.00930000
C       52.92770000      55.99730000      51.22460000
C       46.14130000      44.09250000      52.02590000
C       53.84120000      44.20560000      48.22280000
C       52.29710000      53.59780000      55.47900000
C       48.56220000      47.09420000      56.17670000
C       51.23330000      47.04410000      43.96240000
C       55.66840000      51.68220000      53.74440000
C       44.46840000      47.53830000      53.59800000
C       55.39020000      47.70610000      46.50600000
