240
Lattice="100.0 0.0 0.0 0.0 100.0 0.0 0.0 0.0 100.0" Properties=species:S:1:pos:R:3 name=C-2509655-3548-1481 pressure=-0.0153925326443255 spacegroup=C1 times_found=1 energy=-1730.85382547349 pbc="T T T"
C       42.75290000      51.61050000      49.35330000
C       51.57190000      49.12850000      43.10900000
C       49.14370000      42.96890000      51.61700000
C       42.85830000      48.54910000      50.73910000
C       57.00570000      51.55400000      50.58090000
C       57.16940000      48.39150000      49.24060000
C       51.60710000      50.61170000      56.95520000
C       48.39880000      49.34010000      56.96840000
C       48.39080000      50.66200000      42.86530000
C       49.24130000      56.84880000      48.45330000
C       50.53360000      43.15740000      48.61220000
C       50.83810000      56.92130000      51.58140000
C       56.95000000      51.57570000      49.14460000
C       48.38010000      49.24660000      42.89990000
C       50.55950000      42.90480000      51.56470000
C       57.19550000      48.40120000      50.65640000
C       42.74010000      51.61840000      50.76200000
C       42.89450000      48.58730000      49.31490000
C       48.39020000      50.76910000      56.90350000
C       51.61410000      49.18430000      56.86660000
C       51.55140000      50.56340000      43.04370000
C       50.66730000      56.96130000      48.42010000
C       49.10050000      43.19010000      48.55840000
C       49.41190000      56.97570000      51.56810000
C       55.90820000      47.25040000      53.70630000
C       46.78020000      53.79340000      55.33360000
C       53.82080000      55.89570000      47.20590000
C       55.40350000      53.22290000      46.11770000
C       44.25630000      47.03530000      46.30590000
C       44.06550000      52.74650000      53.80970000
C       47.21580000      46.25600000      44.19400000
C       53.15200000      53.66430000      44.30040000
C       53.21360000      46.18840000      55.25550000
C       53.64860000      44.39250000      52.95610000
C       46.34070000      55.57970000      53.01040000
C       46.09830000      44.70750000      46.89410000
C       44.23600000      46.84360000      53.70170000
C       52.78420000      53.77230000      55.88120000
C       46.23280000      55.22960000      46.94540000
C       44.36800000      52.98960000      46.40430000
C       55.90570000      47.20450000      46.24880000
C       55.72050000      53.15290000      53.67530000
C       53.21250000      46.11630000      44.70870000
C       47.25510000      53.73270000      44.19000000
C       47.22510000      46.18630000      55.81650000
C       46.14160000      44.67000000      53.08550000
C       53.87450000      55.37760000      53.21830000
C       53.64880000      44.35120000      47.02740000
C       54.71760000      45.26410000      47.29270000
C       45.18240000      47.13350000      54.73680000
C       47.66940000      54.89750000      44.93230000
C       55.07670000      54.81350000      52.70460000
C       44.92480000      45.22540000      52.61350000
C       45.03880000      54.65460000      47.45220000
C       45.29380000      52.71470000      45.35240000
C       55.20540000      47.57140000      45.04420000
C       54.79110000      52.83730000      54.71890000
C       47.63100000      45.03670000      55.05390000
C       52.38330000      54.96140000      55.17610000
C       52.67670000      44.95620000      45.33150000
C       44.89300000      45.26410000      47.38610000
C       55.20200000      47.64410000      54.90250000
C       52.84570000      54.70730000      45.23350000
C       45.28790000      54.65410000      52.75200000
C       54.70640000      45.31420000      52.68130000
C       55.02370000      55.20240000      47.58950000
C       54.82460000      52.69890000      44.92750000
C       45.21960000      47.29360000      45.28620000
C       44.77900000      52.35040000      55.00110000
C       52.68670000      45.02040000      54.63970000
C       47.30420000      54.96300000      54.72030000
C       47.58840000      45.07570000      44.92900000
C       49.44550000      51.41260000      57.59290000
C       51.29570000      57.85490000      49.33850000
C       58.09300000      49.36860000      51.25670000
C       49.34840000      48.54240000      42.10610000
C       50.56140000      51.14570000      42.25860000
C       50.56970000      48.52710000      57.56060000
C       51.17120000      41.83700000      50.72450000
C       48.74760000      57.88160000      50.66820000
C       48.48560000      42.41310000      49.53390000
C       57.69120000      50.56270000      48.50890000
C       42.12320000      49.58050000      48.72790000
C       41.76050000      50.72780000      51.39840000
C       50.65160000      51.25390000      57.79340000
C       48.62300000      57.59700000      49.46920000
C       42.06060000      49.52710000      51.33730000
C       50.54970000      48.48920000      42.38280000
C       49.36390000      51.24880000      41.96900000
C       49.36740000      48.68770000      57.78160000
C       48.43940000      42.04960000      50.72290000
C       51.47450000      57.65510000      50.54340000
C       51.05150000      42.36400000      49.59920000
C       41.75720000      50.76690000      48.67370000
C       57.97340000      49.36170000      48.54780000
C       57.79570000      50.56530000      51.16100000
C       52.87930000      55.87180000      48.22010000
C       55.89650000      48.25760000      52.76320000
C       47.82300000      52.83260000      55.61560000
C       52.76150000      44.29240000      51.83820000
C       47.23130000      55.64670000      51.89500000
C       47.02970000      44.46730000      47.97700000
C       55.68470000      52.16940000      47.06540000
C       44.18810000      48.13880000      47.19890000
C       44.05140000      51.72960000      52.87640000
C       48.22660000      47.19470000      44.21720000
C       52.05440000      52.75860000      44.21390000
C       52.17140000      47.14470000      55.54120000
C       47.19050000      55.46070000      48.00040000
C       44.09810000      47.97460000      52.85070000
C       51.79130000      52.80910000      55.85180000
C       47.06340000      44.42570000      51.99560000
C       52.93630000      55.65880000      52.15540000
C       52.75420000      44.31780000      48.14010000
C       44.24520000      51.86290000      47.26500000
C       55.87930000      48.23300000      47.16960000
C       55.82410000      52.05180000      52.77410000
C       52.16960000      47.07060000      44.40450000
C       48.24500000      52.77040000      44.16650000
C       48.20460000      47.16450000      55.81570000
C       47.71540000      48.52570000      56.06770000
C       48.55910000      55.87580000      47.68000000
C       56.13640000      47.78110000      48.54400000
C       47.77880000      51.40300000      43.87690000
C       52.44790000      48.43310000      43.98840000
C       52.27320000      51.43740000      56.05370000
C       48.43610000      43.99130000      52.30950000
C       51.55350000      56.02160000      52.42350000
C       51.37260000      44.00200000      47.84150000
C       56.16460000      52.35150000      51.40200000
C       43.73810000      47.72480000      51.48020000
C       43.81190000      52.20030000      48.63760000
C       52.46020000      48.51510000      55.94920000
C       51.49360000      56.05140000      47.76790000
C       43.80380000      47.81420000      48.55980000
C       52.35610000      51.38710000      43.87370000
C       47.76110000      48.55870000      43.93250000
C       47.53200000      51.45610000      56.00890000
C       51.38260000      43.89110000      52.17570000
C       48.60150000      56.04330000      52.24690000
C       48.40470000      44.08790000      47.71000000
C       43.78360000      52.17200000      51.50650000
C       56.17050000      47.80560000      51.38800000
C       56.06950000      52.44300000      48.44110000
C       53.50810000      44.94250000      50.69760000
C       44.64760000      50.53370000      53.61010000
C       50.89040000      53.47800000      44.82490000
C       53.63160000      55.30810000      49.44110000
C       46.29670000      44.92750000      49.25810000
C       46.49240000      54.99950000      50.73910000
C       44.85150000      49.29010000      46.47660000
C       55.24690000      50.88500000      46.36040000
C       55.30020000      49.46260000      53.50370000
C       50.88060000      46.45910000      55.07860000
C       49.11660000      53.53170000      55.16370000
C       49.44340000      46.45630000      44.80140000
C       46.31540000      44.91390000      50.72280000
C       55.23350000      50.88300000      53.50250000
C       49.46870000      53.47830000      44.77730000
C       46.46900000      54.97880000      49.29420000
C       53.51540000      44.93960000      49.28050000
C       53.65800000      55.23120000      50.87820000
C       55.32090000      49.44570000      46.40520000
C       44.87890000      50.71220000      46.50560000
C       44.70480000      49.11800000      53.59450000
C       49.44220000      46.47900000      55.17620000
C       50.55580000      53.52860000      55.26470000
C       50.88120000      46.40140000      44.87350000
C       51.49080000      54.57680000      45.62060000
C       54.61110000      45.70610000      51.31960000
C       45.31680000      51.09550000      54.77850000
C       51.35160000      45.30890000      54.30170000
C       48.64270000      54.68610000      54.39820000
C       48.82390000      45.30030000      45.48590000
C       54.81730000      54.66020000      48.83470000
C       45.11730000      45.62220000      48.72680000
C       45.38400000      54.24450000      51.40100000
C       45.62160000      48.66330000      45.39170000
C       54.51520000      51.34890000      45.18370000
C       54.65110000      48.89270000      54.68230000
C       48.91310000      54.63630000      45.46930000
C       45.13630000      45.60400000      51.27270000
C       54.43600000      51.47320000      54.60280000
C       48.84070000      45.32700000      54.47840000
C       51.15270000      54.71870000      54.61490000
C       51.33660000      45.25030000      45.64710000
C       45.29260000      54.27790000      48.79180000
C       54.62190000      45.67660000      48.65160000
C       54.83480000      54.50160000      51.35240000
C       54.67000000      48.82470000      45.22820000
C       45.66480000      51.34000000      45.42310000
C       45.52360000      48.50820000      54.66330000
C       53.64940000      55.11590000      54.56670000
C       56.17660000      54.43190000      53.44030000
C       54.08440000      53.87080000      55.30450000
C       53.39010000      43.86300000      45.76370000
C       46.42070000      55.01620000      45.57550000
C       46.36800000      44.88340000      54.44520000
C       55.30100000      45.91370000      46.21950000
C       43.95990000      54.27800000      46.69620000
C       43.84040000      45.56320000      53.38980000
C       54.56960000      46.31280000      44.95470000
C       45.97270000      53.78960000      44.80240000
C       45.92050000      46.08590000      55.25180000
C       46.58250000      56.04900000      54.28500000
C       44.68890000      54.02330000      53.83580000
C       45.42120000      53.60290000      55.09650000
C       46.32080000      44.96510000      45.53890000
C       53.89100000      55.30410000      45.91190000
C       53.40680000      43.92410000      54.23110000
C       43.87090000      45.74820000      46.61260000
C       55.14860000      54.57580000      46.32890000
C       55.30050000      45.96460000      53.75200000
C       45.91180000      46.21070000      44.76740000
C       54.42610000      53.42820000      43.82980000
C       54.57160000      46.38590000      55.01170000
C       50.68050000      44.58690000      46.71930000
C       44.37270000      46.67050000      50.71210000
C       46.69110000      50.71760000      44.62770000
C       50.70560000      55.42480000      53.46060000
C       49.28430000      44.61860000      53.32800000
C       49.41700000      55.31470000      46.61140000
C       44.52960000      53.23940000      49.39480000
C       55.40780000      46.71220000      49.25400000
C       55.55510000      53.45680000      50.70210000
C       46.56840000      49.16000000      55.41220000
C       53.40430000      50.81360000      55.36250000
C       53.52410000      49.27680000      44.51130000
C       49.26530000      44.61600000      46.65100000
C       55.41270000      46.72840000      50.69990000
C       53.46750000      50.69170000      44.47640000
C       49.29200000      55.40910000      53.35440000
C       50.70290000      44.58780000      53.25400000
C       50.84990000      55.32730000      46.67000000
C       55.53180000      53.51270000      49.28650000
C       44.38310000      46.69950000      49.29810000
C       44.55700000      53.22040000      50.82380000
C       53.51120000      49.38490000      55.37910000
C       46.46620000      50.59270000      55.44970000
C       46.67510000      49.27030000      44.63560000
