240
Lattice="100.0 0.0 0.0 0.0 100.0 0.0 0.0 0.0 100.0" Properties=species:S:1:pos:R:3 name=C-2509655-3548-630 pressure=11.7032444855128 spacegroup=C1 times_found=1 energy=-1790.78257234665 pbc="T T T"
C       44.43370000      51.52460000      53.18870000
C       53.17190000      44.45290000      51.56150000
C       52.01570000      53.22170000      44.40120000
C       55.77110000      51.75880000      46.72320000
C       44.22260000      48.05490000      46.90330000
C       55.57940000      48.11450000      53.11390000
C       46.63560000      44.37460000      48.30490000
C       53.28450000      56.15270000      48.50200000
C       46.79610000      55.82370000      51.43540000
C       48.20730000      53.00710000      55.46550000
C       51.58290000      46.69300000      56.08610000
C       48.32890000      46.83200000      44.26180000
C       44.25960000      48.03060000      53.31460000
C       53.16370000      56.04900000      51.47000000
C       51.78690000      46.74770000      44.27950000
C       55.88380000      48.37630000      46.71450000
C       44.19080000      51.49420000      46.81950000
C       55.51730000      51.58750000      53.17040000
C       46.94290000      55.68770000      48.05990000
C       53.15730000      44.37640000      48.03050000
C       46.67190000      44.41750000      51.86150000
C       48.28710000      46.78220000      56.03850000
C       51.75670000      53.03800000      55.45700000
C       48.52840000      53.19860000      44.46000000
C       51.42400000      48.55970000      42.63460000
C       42.65590000      51.28640000      48.65200000
C       48.52450000      42.87700000      51.43520000
C       48.56460000      48.56230000      57.68590000
C       51.36240000      51.44550000      57.31040000
C       48.74560000      51.48690000      42.84140000
C       57.12290000      51.39260000      51.42660000
C       42.52400000      48.55020000      51.59080000
C       57.49070000      48.70620000      48.49400000
C       51.37210000      42.71410000      48.59290000
C       48.58350000      57.54470000      48.47010000
C       51.33920000      57.70140000      51.37080000
C       51.50970000      51.48480000      42.67950000
C       42.46280000      48.53820000      48.65140000
C       48.50860000      57.48210000      51.24350000
C       48.59810000      51.46400000      57.34720000
C       51.35750000      48.55250000      57.64040000
C       48.65320000      48.62020000      42.68770000
C       57.33130000      48.62370000      51.42110000
C       42.80040000      51.29870000      51.49400000
C       57.27620000      51.49400000      48.58930000
C       51.45460000      57.80800000      48.57580000
C       48.44180000      42.76890000      48.70890000
C       51.39920000      42.89530000      51.33890000
C       55.34580000      53.06450000      47.25930000
C       47.38050000      55.37290000      52.67310000
C       52.84090000      47.23340000      55.60580000
C       44.85180000      52.83020000      52.60380000
C       55.58910000      46.86350000      52.43010000
C       44.10490000      46.72910000      47.44690000
C       52.84170000      55.68360000      47.20550000
C       47.27920000      44.72240000      47.03860000
C       52.67360000      44.80780000      52.92140000
C       47.04880000      47.39910000      44.47150000
C       53.29510000      52.60130000      44.33690000
C       46.91090000      52.40920000      55.53040000
C       55.68570000      47.08130000      47.26490000
C       47.33350000      44.79940000      53.10810000
C       53.04040000      52.42570000      55.52330000
C       44.13190000      46.70910000      52.75960000
C       55.13380000      52.91740000      52.66260000
C       44.62940000      52.76490000      47.33140000
C       52.57190000      44.25930000      46.72060000
C       47.61290000      55.66460000      46.80500000
C       52.61610000      55.50260000      52.69530000
C       47.18890000      52.65520000      44.84210000
C       53.07430000      47.35520000      44.61020000
C       46.97820000      47.30600000      55.84990000
C       50.69780000      49.38690000      58.54720000
C       58.27650000      50.85740000      49.31960000
C       49.14840000      58.55530000      50.63900000
C       49.32020000      49.34970000      41.71790000
C       50.75920000      50.79620000      41.73790000
C       49.27850000      50.85340000      58.38920000
C       41.70400000      50.73170000      50.85500000
C       58.28350000      49.39460000      50.76200000
C       41.55300000      49.29200000      49.40190000
C       50.63840000      58.71710000      49.25190000
C       49.18080000      41.79190000      49.37870000
C       50.67570000      41.85560000      50.76750000
C       50.69950000      50.84680000      58.36780000
C       58.37040000      49.43370000      49.29290000
C       49.21090000      41.85150000      50.79780000
C       49.33670000      50.81350000      41.77710000
C       50.74200000      49.32420000      41.68160000
C       49.27540000      49.38920000      58.56150000
C       41.60280000      49.31310000      50.88080000
C       58.20250000      50.81900000      50.77500000
C       41.63520000      50.71150000      49.39410000
C       50.65460000      41.79430000      49.34980000
C       49.18080000      58.57180000      49.20350000
C       50.59950000      58.67500000      50.69380000
C       43.53640000      50.60150000      52.54410000
C       52.45520000      43.61740000      50.62890000
C       50.96680000      52.54780000      43.53710000
C       56.63200000      50.84850000      47.45600000
C       43.32790000      49.08770000      47.57990000
C       56.45580000      49.16480000      52.47320000
C       47.36860000      43.56010000      49.31990000
C       52.50470000      57.12080000      49.25970000
C       47.51620000      56.71150000      50.52850000
C       49.22470000      52.41670000      56.39710000
C       50.69450000      47.46850000      56.96690000
C       49.30530000      47.51390000      43.41840000
C       43.42540000      49.09220000      52.62530000
C       52.44190000      57.06610000      50.72500000
C       50.81510000      47.48970000      43.42030000
C       56.72140000      49.34470000      47.41620000
C       43.34890000      50.58030000      47.59440000
C       56.38690000      50.67600000      52.47050000
C       47.54130000      56.67490000      49.04260000
C       52.46980000      43.55400000      49.11300000
C       47.39820000      43.59990000      50.84350000
C       49.21020000      47.46680000      56.95060000
C       50.73600000      52.42080000      56.38400000
C       49.45440000      52.51680000      43.59700000
C       53.58590000      45.83690000      53.50960000
C       54.29390000      52.77730000      45.29040000
C       45.92850000      53.40160000      53.47020000
C       47.08440000      45.79420000      46.03900000
C       53.19210000      54.54960000      46.34430000
C       47.06400000      54.26070000      53.50380000
C       45.93740000      52.55130000      54.55590000
C       53.66200000      46.91060000      54.45060000
C       46.28360000      46.94350000      45.59040000
C       54.30440000      53.64840000      46.36650000
C       44.90020000      45.63480000      47.18620000
C       54.61810000      45.88730000      52.58960000
C       52.93880000      54.36100000      53.53500000
C       54.07440000      47.15560000      45.69140000
C       44.92320000      45.60990000      53.01080000
C       47.48500000      54.65160000      45.86680000
C       52.84010000      45.00290000      45.58780000
C       47.11370000      45.80890000      54.16650000
C       46.26430000      46.89080000      54.67480000
C       54.03110000      52.59100000      54.57310000
C       46.60190000      53.58270000      45.85840000
C       54.53090000      46.34850000      46.84000000
C       45.70280000      53.64840000      46.95660000
C       54.06670000      53.48240000      53.52180000
C       45.30690000      48.07910000      45.88730000
C       45.33880000      44.98400000      48.35210000
C       48.28910000      45.77790000      45.20420000
C       54.60890000      48.06670000      54.21940000
C       45.12000000      51.41090000      54.40770000
C       55.09990000      51.62320000      45.47850000
C       54.39070000      45.13560000      51.41240000
C       45.65450000      55.23270000      51.14750000
C       54.27940000      55.57190000      49.27930000
C       51.26800000      45.54800000      55.49510000
C       48.23690000      54.01770000      54.42260000
C       52.04290000      54.31410000      45.39470000
C       44.75850000      51.19970000      45.66760000
C       45.91090000      54.63450000      48.09740000
C       48.66700000      54.43030000      45.12700000
C       54.82470000      51.43380000      54.38380000
C       45.27870000      48.00580000      54.38120000
C       54.92260000      48.34980000      45.66670000
C       54.22170000      55.52590000      50.73220000
C       45.35550000      44.97660000      51.83320000
C       54.23850000      45.37830000      47.97490000
C       51.75040000      54.07880000      54.42570000
C       48.33620000      45.80740000      54.99190000
C       51.67480000      45.47980000      44.95510000
C       50.65040000      56.96900000      52.39400000
C       52.50260000      50.61840000      56.97110000
C       56.57320000      52.51810000      50.73530000
C       49.43160000      57.13070000      47.37020000
C       50.58040000      43.09770000      47.46400000
C       49.29070000      43.41390000      52.51220000
C       47.61050000      50.79940000      43.38040000
C       52.59360000      49.23410000      43.07420000
C       47.40300000      49.23330000      57.19030000
C       43.27630000      52.38870000      49.32560000
C       57.05110000      47.51720000      49.16480000
C       42.82870000      47.36930000      50.83620000
C       50.74360000      43.44570000      52.48020000
C       52.49320000      49.17830000      57.04920000
C       56.99690000      47.48010000      50.60340000
C       49.13620000      43.19650000      47.54230000
C       50.87160000      57.18070000      47.43920000
C       49.22680000      56.89650000      52.35180000
C       47.54870000      49.36920000      43.23280000
C       52.65940000      50.69110000      43.01630000
C       47.42450000      50.66800000      57.05670000
C       42.81370000      47.36930000      49.39410000
C       56.64600000      52.56990000      49.28560000
C       43.37990000      52.38750000      50.76120000
C       46.69210000      48.67270000      44.07460000
C       43.62720000      46.46080000      48.77400000
C       48.53610000      44.13240000      46.72160000
C       53.25170000      48.48630000      56.09110000
C       46.55300000      51.18850000      56.14890000
C       53.58910000      51.31780000      43.79430000
C       56.11810000      46.58450000      51.14380000
C       44.36720000      53.21130000      51.34540000
C       55.76260000      53.44100000      48.55120000
C       51.42100000      44.34220000      53.34150000
C       48.64060000      55.85140000      53.05780000
C       51.58950000      56.17960000      46.75390000
C       46.78990000      51.38960000      44.37230000
C       44.19080000      53.15360000      48.60600000
C       48.89500000      56.20990000      46.51820000
C       53.37210000      51.16920000      56.08880000
C       46.55520000      48.54000000      56.31850000
C       53.41030000      48.60250000      44.00180000
C       55.63950000      53.35530000      51.43130000
C       43.64270000      46.45190000      51.43670000
C       56.16210000      46.67060000      48.49620000
C       51.31530000      55.93150000      53.06910000
C       48.64400000      44.29660000      53.35530000
C       51.21170000      43.85540000      46.51810000
C       54.48510000      49.25690000      44.68260000
C       44.98820000      54.19210000      49.13350000
C       49.29030000      44.93850000      54.42760000
C       45.60840000      49.05920000      55.36560000
C       54.35560000      50.45610000      55.29490000
C       45.68020000      50.60160000      44.94670000
C       55.19790000      54.46680000      50.72370000
C       44.43450000      45.44850000      50.79280000
C       55.23100000      45.71090000      49.02130000
C       50.59260000      44.65950000      45.52030000
C       49.63730000      55.36570000      45.59700000
C       50.69640000      54.99310000      53.99420000
C       54.60760000      50.64990000      44.56590000
C       44.42760000      45.45350000      49.40190000
C       49.28070000      54.95950000      53.99900000
C       45.55270000      50.46270000      55.36890000
C       54.25390000      49.06010000      55.22550000
C       45.73340000      49.16790000      44.97340000
C       55.29110000      45.61680000      50.42480000
C       44.93570000      54.30470000      50.55160000
C       55.25350000      54.50830000      49.28690000
C       51.03420000      55.30450000      45.74640000
C       49.20720000      44.81250000      45.65190000
C       50.71090000      44.86320000      54.50670000
