240
Lattice="100.0 0.0 0.0 0.0 100.0 0.0 0.0 0.0 100.0" Properties=species:S:1:pos:R:3 name=C-2509655-3548-64 pressure=-3.33805309370908 spacegroup=Td times_found=1 energy=-1720.07037396359 pbc="T T T"
C       51.20060000      54.84040000      47.04160000
C       47.04140000      51.20030000      54.84040000
C       54.84020000      47.04110000      51.20030000
C       48.80000000      54.84040000      52.95860000
C       51.19990000      45.15940000      52.95850000
C       48.79950000      45.15970000      47.04130000
C       52.95870000      51.20020000      45.15970000
C       47.04150000      48.80000000      45.15950000
C       52.95840000      48.79940000      54.84050000
C       45.15940000      47.04180000      48.79960000
C       54.84060000      52.95830000      48.79990000
C       45.15970000      52.95880000      51.20020000
C       47.04170000      54.84060000      51.20030000
C       54.84060000      51.20000000      47.04160000
C       51.20000000      47.04130000      54.84040000
C       52.95890000      54.84030000      48.79990000
C       52.95820000      45.15940000      51.20020000
C       47.04120000      45.15980000      48.79960000
C       45.15960000      51.20050000      52.95850000
C       45.15960000      48.80010000      47.04130000
C       54.84030000      48.79940000      52.95860000
C       48.79960000      47.04160000      45.15950000
C       48.79980000      52.95850000      54.84050000
C       51.20050000      52.95860000      45.15970000
C       44.28500000      45.24880000      51.97160000
C       51.97150000      44.28530000      45.24840000
C       45.24870000      51.97220000      44.28530000
C       55.71440000      45.24820000      48.02820000
C       44.28560000      54.75190000      48.02820000
C       55.71490000      54.75110000      51.97200000
C       48.02780000      44.28530000      54.75130000
C       51.97200000      55.71450000      54.75160000
C       48.02860000      55.71490000      45.24860000
C       54.75150000      51.97140000      55.71480000
C       45.24830000      48.02840000      55.71460000
C       54.75150000      48.02800000      44.28540000
C       51.97160000      45.24850000      44.28520000
C       45.24810000      44.28560000      51.97160000
C       44.28550000      51.97220000      45.24840000
C       48.02780000      45.24850000      55.71460000
C       48.02860000      54.75170000      44.28540000
C       51.97200000      54.75120000      55.71480000
C       54.75120000      44.28510000      48.02820000
C       54.75180000      55.71440000      51.97200000
C       45.24890000      55.71500000      48.02820000
C       55.71470000      51.97140000      54.75160000
C       55.71470000      48.02800000      45.24860000
C       44.28510000      48.02840000      54.75130000
C       43.55820000      48.82980000      52.93720000
C       52.93700000      43.55820000      48.82940000
C       48.82980000      52.93760000      43.55840000
C       56.44160000      48.82910000      47.06270000
C       43.55850000      51.17100000      47.06250000
C       56.44170000      51.17010000      52.93760000
C       47.06220000      43.55850000      51.17030000
C       52.93780000      56.44140000      51.17070000
C       47.06300000      56.44180000      48.82950000
C       51.17060000      52.93720000      56.44170000
C       48.82920000      47.06250000      56.44160000
C       51.17050000      47.06270000      43.55830000
C       52.93750000      48.82940000      43.55840000
C       48.82900000      43.55840000      52.93720000
C       43.55860000      52.93780000      48.82940000
C       47.06240000      48.82950000      56.44160000
C       47.06280000      51.17090000      43.55830000
C       52.93730000      51.17020000      56.44170000
C       51.17020000      43.55830000      47.06250000
C       51.17090000      56.44150000      52.93760000
C       48.82990000      56.44180000      47.06270000
C       56.44180000      52.93700000      51.17070000
C       56.44150000      47.06220000      48.82950000
C       43.55820000      47.06300000      51.17030000
C       52.36160000      48.66070000      53.35150000
C       53.35160000      52.36150000      48.66100000
C       48.66100000      53.35150000      52.36180000
C       47.63830000      48.66110000      46.64850000
C       52.36190000      51.33900000      46.64860000
C       47.63830000      51.33920000      53.35140000
C       46.64870000      52.36190000      51.33910000
C       53.35130000      47.63810000      51.33910000
C       46.64840000      47.63850000      48.66080000
C       51.33940000      53.35140000      47.63840000
C       48.66070000      46.64870000      47.63820000
C       51.33890000      46.64840000      52.36170000
C       53.35130000      48.66060000      52.36180000
C       48.66100000      52.36170000      53.35150000
C       52.36190000      53.35130000      48.66100000
C       46.64850000      48.66110000      47.63820000
C       46.64860000      51.33930000      52.36170000
C       53.35160000      51.33900000      47.63840000
C       51.33930000      52.36170000      46.64860000
C       51.33890000      47.63810000      53.35140000
C       48.66080000      47.63840000      46.64850000
C       47.63850000      53.35160000      51.33910000
C       47.63810000      46.64870000      48.66080000
C       52.36150000      46.64840000      51.33910000
C       55.10550000      50.40380000      45.87080000
C       45.87100000      55.10560000      50.40400000
C       50.40370000      45.87050000      55.10530000
C       44.89460000      50.40420000      54.12930000
C       55.10530000      49.59560000      54.12940000
C       44.89470000      49.59640000      45.87050000
C       54.12970000      55.10520000      49.59620000
C       45.87040000      44.89490000      49.59580000
C       54.12900000      44.89440000      50.40400000
C       49.59580000      45.87080000      44.89450000
C       50.40440000      54.12940000      44.89470000
C       49.59610000      54.12930000      55.10550000
C       45.87060000      50.40410000      55.10530000
C       50.40440000      55.10550000      45.87080000
C       55.10510000      45.87030000      50.40400000
C       54.12950000      50.40390000      44.89470000
C       54.12920000      49.59560000      55.10550000
C       45.87070000      49.59640000      44.89450000
C       49.59620000      55.10530000      54.12940000
C       49.59580000      44.89470000      45.87050000
C       50.40360000      44.89450000      54.12920000
C       44.89440000      45.87100000      49.59580000
C       44.89480000      54.12960000      50.40400000
C       55.10560000      54.12900000      49.59620000
C       48.26400000      50.75540000      55.67500000
C       55.67490000      48.26370000      50.75550000
C       50.75580000      55.67510000      48.26420000
C       51.73610000      50.75550000      44.32500000
C       48.26410000      49.24480000      44.32490000
C       51.73580000      49.24430000      55.67510000
C       44.32480000      48.26440000      49.24440000
C       55.67520000      51.73560000      49.24470000
C       44.32500000      51.73630000      50.75540000
C       49.24490000      55.67510000      51.73610000
C       50.75510000      44.32490000      51.73590000
C       49.24420000      44.32500000      48.26390000
C       55.67510000      50.75510000      48.26420000
C       50.75520000      48.26390000      55.67500000
C       48.26440000      55.67520000      50.75550000
C       44.32490000      50.75580000      51.73590000
C       44.32490000      49.24490000      48.26390000
C       55.67500000      49.24420000      51.73610000
C       49.24460000      48.26420000      44.32490000
C       49.24450000      51.73590000      55.67510000
C       50.75570000      51.73600000      44.32500000
C       51.73630000      55.67500000      49.24470000
C       51.73560000      44.32480000      50.75540000
C       48.26370000      44.32510000      49.24440000
C       50.63320000      45.84390000      43.99530000
C       43.99550000      50.63380000      45.84370000
C       45.84350000      43.99560000      50.63310000
C       49.36630000      45.84370000      56.00450000
C       50.63350000      54.15600000      56.00470000
C       49.36700000      54.15630000      43.99540000
C       56.00460000      50.63290000      54.15630000
C       43.99520000      49.36690000      54.15600000
C       56.00470000      49.36640000      45.84390000
C       54.15580000      43.99510000      49.36660000
C       45.84420000      56.00490000      49.36670000
C       54.15650000      56.00440000      50.63360000
C       43.99510000      45.84420000      50.63310000
C       45.84400000      50.63370000      43.99530000
C       50.63310000      43.99540000      45.84370000
C       56.00440000      45.84350000      49.36670000
C       56.00490000      54.15580000      50.63360000
C       43.99560000      54.15650000      49.36660000
C       54.15610000      50.63300000      56.00470000
C       54.15630000      49.36650000      43.99540000
C       45.84370000      49.36680000      56.00460000
C       49.36620000      43.99530000      54.15600000
C       49.36710000      56.00480000      45.84390000
C       50.63360000      56.00450000      54.15630000
C       54.61800000      53.58760000      47.38940000
C       47.38940000      54.61780000      53.58790000
C       53.58760000      47.38890000      54.61770000
C       45.38250000      53.58800000      52.61080000
C       54.61740000      46.41190000      52.61080000
C       45.38210000      46.41250000      47.38900000
C       52.61120000      54.61760000      46.41230000
C       47.38900000      45.38250000      46.41200000
C       52.61050000      45.38210000      53.58780000
C       46.41210000      47.38950000      45.38220000
C       53.58810000      52.61070000      45.38240000
C       46.41230000      52.61090000      54.61770000
C       47.38930000      53.58790000      54.61770000
C       53.58810000      54.61750000      47.38940000
C       54.61750000      47.38880000      53.58780000
C       52.61110000      53.58770000      45.38240000
C       52.61050000      46.41190000      54.61770000
C       47.38910000      46.41250000      45.38220000
C       46.41240000      54.61790000      52.61080000
C       46.41200000      45.38260000      47.38900000
C       53.58750000      45.38200000      52.61080000
C       45.38220000      47.38950000      46.41200000
C       45.38240000      52.61100000      53.58780000
C       54.61790000      52.61060000      46.41230000
C       49.36910000      48.32850000      56.18960000
C       56.18960000      49.36900000      48.32870000
C       48.32900000      56.18970000      49.36940000
C       50.63070000      48.32870000      43.81040000
C       49.36950000      51.67160000      43.81040000
C       50.63070000      51.67130000      56.18960000
C       43.81030000      49.36970000      51.67130000
C       56.18960000      50.63030000      51.67160000
C       43.81050000      50.63110000      48.32850000
C       51.67180000      56.18950000      50.63090000
C       48.32820000      43.81050000      50.63050000
C       51.67110000      43.81030000      49.36920000
C       56.18950000      48.32820000      49.36940000
C       48.32840000      49.36930000      56.18960000
C       49.36970000      56.18970000      48.32870000
C       43.81030000      48.32890000      50.63050000
C       43.81050000      51.67180000      49.36920000
C       56.18970000      51.67100000      50.63080000
C       51.67150000      49.36930000      43.81040000
C       51.67130000      50.63050000      56.18960000
C       48.32870000      50.63090000      43.81040000
C       50.63100000      56.18950000      51.67160000
C       50.63030000      43.81040000      48.32850000
C       49.36890000      43.81040000      51.67130000
C       47.45180000      46.50370000      56.24960000
C       56.24960000      47.45180000      46.50380000
C       46.50410000      56.25000000      47.45220000
C       52.54780000      46.50370000      43.75030000
C       47.45240000      53.49660000      43.75030000
C       52.54800000      53.49600000      56.24980000
C       43.75010000      47.45240000      53.49610000
C       56.24980000      52.54750000      53.49650000
C       43.75050000      52.54840000      46.50360000
C       53.49660000      56.24940000      52.54810000
C       46.50330000      43.75040000      52.54770000
C       53.49600000      43.75010000      47.45200000
C       56.24960000      46.50340000      47.45210000
C       46.50340000      47.45220000      56.24960000
C       47.45250000      56.24990000      46.50380000
C       43.75000000      46.50400000      52.54770000
C       43.75050000      53.49670000      47.45200000
C       56.24990000      53.49590000      52.54810000
C       53.49630000      47.45200000      43.75030000
C       53.49630000      52.54760000      56.24980000
C       46.50400000      52.54830000      43.75030000
C       52.54820000      56.24950000      53.49650000
C       52.54760000      43.75020000      46.50360000
C       47.45160000      43.75040000      53.49610000
