240
Lattice="100.0 0.0 0.0 0.0 100.0 0.0 0.0 0.0 100.0" Properties=species:S:1:pos:R:3 name=C-53965-5632-145 pressure=-2.4882799475496 energy=-1813.34119628492 spacegroup=Oh times_found=1 pbc="T T T"
C       50.72650000      44.35160000      45.36300000
C       45.36280000      50.72580000      44.35160000
C       44.35190000      45.36260000      50.72640000
C       50.72590000      55.64860000      54.63690000
C       49.27320000      55.64840000      45.36300000
C       49.27430000      44.35150000      54.63700000
C       45.36320000      49.27350000      55.64860000
C       54.63690000      49.27410000      44.35140000
C       54.63710000      50.72660000      55.64830000
C       44.35120000      54.63660000      49.27390000
C       55.64810000      54.63740000      50.72600000
C       55.64880000      45.36340000      49.27370000
C       50.72640000      45.36300000      44.35150000
C       45.36350000      44.35120000      50.72640000
C       44.35130000      50.72580000      45.36320000
C       50.72600000      54.63710000      55.64840000
C       49.27430000      45.36300000      55.64850000
C       49.27330000      54.63690000      44.35150000
C       45.36260000      55.64810000      49.27390000
C       54.63740000      44.35190000      49.27370000
C       54.63660000      55.64880000      50.72610000
C       44.35170000      49.27340000      54.63710000
C       55.64850000      50.72670000      54.63680000
C       55.64840000      49.27420000      45.36290000
C       45.36260000      55.64810000      50.72630000
C       50.72670000      45.36310000      55.64850000
C       55.64830000      50.72660000      45.36290000
C       45.36340000      44.35120000      49.27390000
C       54.63740000      44.35190000      50.72610000
C       54.63650000      55.64880000      49.27360000
C       50.72570000      54.63700000      44.35150000
C       49.27360000      54.63700000      55.64850000
C       49.27400000      45.36290000      44.35160000
C       55.64870000      49.27420000      54.63680000
C       44.35150000      49.27330000      45.36320000
C       44.35160000      50.72580000      54.63710000
C       45.36310000      50.72590000      55.64860000
C       50.72570000      55.64850000      45.36300000
C       55.64880000      45.36340000      50.72610000
C       45.36290000      49.27340000      44.35170000
C       54.63680000      50.72650000      44.35140000
C       54.63720000      49.27420000      55.64840000
C       50.72680000      44.35160000      54.63700000
C       49.27350000      55.64840000      54.63700000
C       49.27410000      44.35140000      45.36310000
C       55.64810000      54.63740000      49.27360000
C       44.35190000      45.36260000      49.27400000
C       44.35120000      54.63660000      50.72630000
C       51.02020000      50.00010000      57.80350000
C       57.80340000      51.02050000      49.99980000
C       49.99940000      57.80350000      51.01990000
C       51.01970000      50.00000000      42.19650000
C       48.98030000      50.00000000      57.80350000
C       48.97980000      49.99990000      42.19650000
C       57.80360000      48.98060000      49.99980000
C       42.19660000      48.97950000      50.00020000
C       42.19640000      51.01940000      50.00020000
C       50.00060000      42.19650000      48.98010000
C       50.00060000      42.19650000      51.02000000
C       49.99940000      57.80350000      48.98000000
C       51.01940000      57.80360000      49.99990000
C       57.80350000      50.00060000      51.01970000
C       50.00010000      51.02000000      57.80350000
C       51.02050000      42.19660000      50.00000000
C       48.97950000      57.80340000      50.00000000
C       48.98060000      42.19640000      50.00010000
C       57.80350000      50.00060000      48.97980000
C       42.19650000      49.99940000      48.98030000
C       42.19650000      49.99940000      51.02020000
C       49.99990000      48.98000000      42.19650000
C       49.99970000      51.01990000      42.19650000
C       50.00030000      48.98010000      57.80350000
C       52.36920000      51.34710000      56.36790000
C       56.36780000      52.36960000      51.34670000
C       51.34650000      56.36810000      52.36910000
C       52.36910000      48.65330000      43.63200000
C       47.63110000      48.65300000      56.36800000
C       47.63060000      51.34670000      43.63210000
C       56.36810000      47.63130000      48.65300000
C       43.63230000      47.63040000      51.34710000
C       43.63180000      52.36870000      48.65330000
C       51.34730000      43.63210000      47.63090000
C       48.65370000      43.63200000      52.36920000
C       48.65260000      56.36780000      47.63090000
C       52.36870000      56.36810000      51.34680000
C       56.36790000      51.34740000      52.36900000
C       51.34690000      52.36930000      56.36790000
C       52.36960000      43.63220000      48.65310000
C       47.63030000      56.36780000      48.65310000
C       47.63140000      43.63190000      51.34700000
C       56.36800000      48.65360000      47.63070000
C       43.63190000      51.34640000      47.63100000
C       43.63220000      48.65270000      52.36930000
C       51.34690000      47.63090000      43.63200000
C       48.65280000      52.36900000      43.63210000
C       48.65350000      47.63080000      56.36800000
C       47.63130000      43.63190000      48.65320000
C       48.65310000      47.63070000      43.63210000
C       43.63210000      48.65260000      47.63100000
C       47.63040000      56.36780000      51.34690000
C       52.36860000      56.36810000      48.65300000
C       52.36970000      43.63220000      51.34690000
C       48.65310000      52.36910000      56.36800000
C       51.34650000      52.36920000      43.63200000
C       51.34720000      47.63100000      56.36790000
C       43.63200000      51.34640000      52.36930000
C       56.36780000      51.34730000      47.63070000
C       56.36810000      48.65360000      52.36900000
C       47.63080000      48.65290000      43.63210000
C       48.65350000      43.63190000      47.63090000
C       43.63220000      47.63040000      48.65330000
C       47.63090000      51.34670000      56.36800000
C       52.36940000      48.65330000      56.36790000
C       52.36890000      51.34700000      43.63200000
C       48.65270000      56.36790000      52.36910000
C       51.34740000      43.63220000      52.36910000
C       51.34630000      56.36800000      47.63080000
C       43.63190000      52.36870000      51.34700000
C       56.36820000      47.63130000      51.34670000
C       56.36770000      52.36960000      48.65290000
C       51.63590000      44.33370000      53.58680000
C       53.58650000      51.63570000      44.33340000
C       44.33330000      53.58640000      51.63560000
C       51.63490000      55.66660000      46.41310000
C       48.36420000      55.66640000      53.58680000
C       48.36490000      44.33340000      46.41330000
C       53.58710000      48.36490000      55.66640000
C       46.41320000      48.36430000      44.33360000
C       46.41320000      51.63520000      55.66660000
C       44.33370000      46.41280000      48.36480000
C       55.66680000      46.41360000      51.63530000
C       55.66620000      53.58720000      48.36440000
C       51.63500000      53.58690000      44.33340000
C       53.58730000      44.33380000      51.63540000
C       44.33350000      51.63500000      53.58690000
C       51.63580000      46.41340000      55.66650000
C       48.36450000      53.58670000      55.66650000
C       48.36470000      46.41300000      44.33360000
C       53.58630000      55.66680000      48.36440000
C       46.41360000      44.33320000      48.36470000
C       46.41280000      55.66620000      51.63550000
C       44.33350000      48.36410000      46.41340000
C       55.66630000      51.63580000      46.41300000
C       55.66670000      48.36500000      53.58670000
C       52.75260000      46.25210000      45.22960000
C       45.22940000      52.75210000      46.25200000
C       46.25240000      45.22940000      52.75260000
C       52.75230000      53.74830000      54.77020000
C       47.24710000      53.74780000      45.22970000
C       47.24800000      46.25180000      54.77040000
C       45.23000000      47.24720000      53.74820000
C       54.77040000      47.24790000      46.25180000
C       54.77020000      52.75280000      53.74790000
C       46.25150000      54.77000000      47.24760000
C       53.74780000      54.77060000      52.75230000
C       53.74840000      45.22990000      47.24750000
C       52.75270000      45.22990000      46.25190000
C       45.23000000      46.25160000      52.75260000
C       46.25160000      52.75210000      45.22980000
C       52.75220000      54.77050000      53.74800000
C       47.24800000      45.22950000      53.74820000
C       47.24710000      54.77010000      46.25200000
C       45.22930000      53.74770000      47.24770000
C       54.77050000      46.25230000      47.24740000
C       54.77010000      53.74840000      52.75230000
C       46.25230000      47.24730000      54.77040000
C       53.74800000      52.75280000      54.77020000
C       53.74820000      47.24780000      45.22960000
C       48.36500000      46.41310000      55.66660000
C       55.66650000      48.36500000      46.41310000
C       46.41270000      55.66620000      48.36460000
C       48.36420000      53.58670000      44.33350000
C       51.63530000      53.58700000      55.66640000
C       51.63550000      46.41330000      44.33350000
C       55.66650000      51.63590000      53.58660000
C       44.33330000      51.63500000      46.41330000
C       44.33370000      48.36420000      53.58700000
C       46.41370000      44.33320000      51.63560000
C       53.58720000      44.33380000      48.36450000
C       53.58640000      55.66680000      51.63530000
C       48.36410000      55.66630000      46.41320000
C       55.66670000      46.41360000      48.36440000
C       46.41350000      48.36430000      55.66660000
C       48.36510000      44.33340000      53.58690000
C       51.63510000      55.66660000      53.58670000
C       51.63580000      44.33360000      46.41320000
C       55.66630000      53.58720000      51.63520000
C       44.33380000      46.41280000      51.63560000
C       44.33320000      53.58640000      48.36470000
C       46.41290000      51.63510000      44.33360000
C       53.58680000      48.36480000      44.33340000
C       53.58680000      51.63570000      55.66640000
C       46.25160000      54.77010000      52.75250000
C       52.75290000      46.25220000      54.77030000
C       54.77000000      52.75280000      46.25180000
C       46.25220000      45.22940000      47.24770000
C       53.74850000      45.23000000      52.75240000
C       53.74760000      54.77060000      47.24740000
C       52.75200000      53.74820000      45.22960000
C       47.24740000      53.74790000      54.77040000
C       47.24770000      46.25170000      45.22980000
C       54.77060000      47.24790000      53.74800000
C       45.22980000      47.24720000      46.25210000
C       45.22960000      52.75210000      53.74820000
C       46.25180000      52.75220000      54.77040000
C       52.75200000      54.77050000      46.25180000
C       54.77070000      46.25230000      52.75230000
C       46.25200000      47.24720000      45.22980000
C       53.74770000      52.75270000      45.22960000
C       53.74840000      47.24790000      54.77020000
C       52.75290000      45.22990000      53.74800000
C       47.24730000      54.77010000      53.74810000
C       47.24780000      45.22950000      46.25200000
C       54.77000000      53.74840000      47.24740000
C       45.22990000      46.25160000      47.24770000
C       45.22950000      53.74770000      52.75260000
C       43.09690000      49.99950000      52.07270000
C       52.07300000      43.09700000      50.00000000
C       49.99970000      52.07250000      43.09680000
C       43.09670000      49.99950000      47.92770000
C       56.90330000      50.00050000      52.07230000
C       56.90310000      50.00050000      47.92730000
C       52.07200000      56.90340000      49.99990000
C       47.92700000      56.90300000      50.00000000
C       47.92800000      43.09660000      50.00010000
C       50.00030000      47.92750000      56.90320000
C       50.00000000      47.92740000      43.09680000
C       50.00000000      52.07260000      56.90320000
C       43.09660000      52.07200000      50.00020000
C       52.07230000      50.00010000      43.09670000
C       50.00060000      43.09680000      52.07260000
C       43.09700000      47.92700000      50.00020000
C       56.90300000      52.07300000      49.99980000
C       56.90340000      47.92800000      49.99980000
C       52.07270000      50.00020000      56.90310000
C       47.92770000      49.99990000      56.90330000
C       47.92730000      49.99980000      43.09690000
C       49.99940000      56.90320000      47.92740000
C       50.00050000      43.09680000      47.92750000
C       49.99950000      56.90320000      52.07250000
