240
Lattice="100.0 0.0 0.0 0.0 100.0 0.0 0.0 0.0 100.0" Properties=species:S:1:pos:R:3 name=C-53965-5632-1498 pressure=26.5924209711364 spacegroup=C1 times_found=1 energy=-1729.04992286327 pbc="T T T"
C       45.61200000      47.06420000      44.69720000
C       44.06630000      45.67850000      47.74400000
C       47.56190000      43.83220000      45.65170000
C       45.26790000      52.51590000      55.96020000
C       53.79050000      51.21900000      44.13990000
C       54.98160000      47.50960000      55.97560000
C       44.88220000      54.03060000      52.91490000
C       56.11650000      54.37170000      48.04330000
C       55.41480000      45.98310000      52.32410000
C       46.87120000      56.16680000      54.57740000
C       52.94020000      55.37330000      45.83380000
C       51.06530000      44.69640000      53.05650000
C       54.30100000      47.76180000      44.62010000
C       55.49920000      45.72190000      47.36190000
C       52.60230000      44.15870000      45.89300000
C       53.65240000      52.24230000      55.27850000
C       45.45270000      52.48940000      44.52820000
C       45.86490000      47.07640000      55.40840000
C       55.12260000      54.23010000      52.54770000
C       44.80570000      54.05350000      47.57050000
C       44.43620000      45.75640000      52.49640000
C       51.93190000      55.82260000      53.60250000
C       47.47790000      55.83100000      46.05370000
C       47.76230000      44.20640000      54.55580000
C       46.65250000      44.38570000      44.64680000
C       44.81580000      46.21610000      45.59820000
C       44.87620000      45.19540000      46.59660000
C       46.01190000      55.09990000      55.03450000
C       53.71530000      54.21600000      45.40320000
C       54.23540000      45.90330000      54.50030000
C       44.47170000      53.34380000      55.09040000
C       54.98770000      54.03100000      45.98660000
C       55.41300000      46.54870000      55.01400000
C       44.98340000      54.42500000      54.34640000
C       55.45470000      54.98750000      46.89020000
C       54.28690000      45.50540000      53.15670000
C       53.48520000      45.24970000      45.56770000
C       55.04700000      46.84840000      45.38110000
C       54.66800000      45.71960000      46.11020000
C       52.90090000      54.82230000      54.10500000
C       46.49290000      54.84960000      45.67570000
C       46.91740000      45.00800000      55.31810000
C       54.44650000      53.19020000      54.53620000
C       44.73460000      53.38220000      45.37830000
C       45.78900000      45.72720000      54.77950000
C       54.12880000      54.28630000      53.71430000
C       45.29100000      54.36780000      46.21470000
C       45.33720000      45.23660000      53.53180000
C       48.94890000      43.44620000      48.51390000
C       48.89970000      49.07400000      44.03990000
C       43.59030000      49.13750000      49.35930000
C       49.77410000      56.69330000      50.29710000
C       51.26040000      56.74490000      48.78880000
C       50.86190000      43.50410000      49.86650000
C       48.74530000      51.07990000      56.30140000
C       50.35200000      50.64660000      43.93540000
C       50.41120000      49.73720000      56.12240000
C       43.84720000      50.61790000      50.90170000
C       56.48350000      50.72160000      49.38080000
C       56.44890000      49.18560000      50.86140000
C       51.21500000      43.33440000      48.45120000
C       50.44070000      49.16930000      44.02810000
C       56.47080000      49.19240000      49.34400000
C       51.20000000      56.85600000      50.26040000
C       49.62360000      56.66310000      48.85850000
C       49.38040000      43.53380000      49.91360000
C       50.24470000      51.16970000      56.24440000
C       48.86800000      50.67610000      43.97490000
C       48.93920000      49.50550000      56.14370000
C       56.39530000      50.72150000      50.85970000
C       43.76020000      50.64510000      49.36620000
C       43.66670000      49.09630000      50.85740000
C       52.52160000      43.11060000      48.05580000
C       48.22260000      51.98000000      44.07220000
C       43.62040000      48.31770000      52.04530000
C       52.25010000      56.91380000      51.17110000
C       48.27460000      56.58080000      48.43690000
C       48.39600000      43.70330000      50.97630000
C       48.47990000      48.17220000      55.94560000
C       51.36310000      48.08290000      44.23880000
C       51.00430000      52.32030000      56.01080000
C       43.79100000      51.40880000      48.14690000
C       56.18230000      51.51160000      52.02800000
C       56.38820000      48.48520000      48.11210000
C       47.60700000      43.47460000      48.17910000
C       51.20130000      51.77320000      44.01950000
C       56.44120000      48.47220000      52.08500000
C       48.82120000      56.44300000      51.32240000
C       52.56300000      56.60340000      48.23390000
C       51.95910000      43.81010000      50.73490000
C       51.48830000      48.80640000      55.88970000
C       48.26120000      47.76130000      44.15360000
C       48.00240000      52.31020000      56.29930000
C       56.41840000      51.53830000      48.22650000
C       43.97460000      51.32950000      52.14220000
C       43.52970000      48.39310000      48.13600000
C       56.29140000      48.59950000      54.48460000
C       54.90330000      56.20960000      48.68530000
C       48.10330000      54.67170000      55.79170000
C       55.69960000      51.60220000      45.94140000
C       43.91880000      51.17340000      54.58660000
C       43.92560000      48.41260000      45.70190000
C       54.16180000      44.53090000      51.08620000
C       45.44110000      44.09960000      48.54310000
C       46.48400000      55.75380000      51.82530000
C       48.69720000      45.43180000      44.57350000
C       51.77230000      46.42980000      54.93300000
C       51.56410000      54.02760000      44.56360000
C       43.80790000      48.14550000      54.44610000
C       46.04270000      55.90970000      48.70950000
C       50.90030000      54.53980000      55.20720000
C       43.74850000      51.34550000      45.68820000
C       55.61630000      51.26800000      54.40530000
C       56.21890000      48.74870000      45.62490000
C       45.93250000      44.28910000      51.44910000
C       54.81810000      43.48060000      48.02360000
C       54.49020000      56.42880000      51.64660000
C       51.37260000      45.75200000      44.84720000
C       49.08730000      45.85940000      55.46800000
C       48.46930000      54.35050000      44.55390000
C       45.07770000      50.39510000      43.64380000
C       43.94790000      45.45830000      50.14220000
C       50.06640000      43.51110000      47.59260000
C       45.07440000      48.99410000      56.40150000
C       55.60950000      49.37810000      43.10390000
C       54.16660000      49.69900000      55.70110000
C       45.56760000      53.78260000      49.73970000
C       56.29290000      54.98600000      50.50310000
C       56.70210000      44.63360000      49.11420000
C       49.31420000      56.00640000      53.90510000
C       49.64680000      56.49220000      45.30350000
C       48.61600000      43.85830000      52.40050000
C       54.86570000      50.26300000      43.86600000
C       56.42910000      45.21210000      50.18880000
C       50.06500000      44.05340000      46.24370000
C       52.97650000      48.83810000      55.99870000
C       45.31300000      49.16710000      43.63900000
C       45.17910000      50.20830000      56.64410000
C       57.45770000      54.27490000      50.65380000
C       45.94300000      53.55640000      50.88680000
C       42.93810000      46.44240000      50.10060000
C       49.03050000      56.37930000      52.65960000
C       50.88420000      56.40460000      45.21980000
C       49.67940000      44.36830000      53.25950000
C       47.43010000      43.83190000      53.24970000
C       52.89020000      47.54170000      44.44980000
C       44.01090000      52.81670000      47.53930000
C       47.39830000      56.62390000      47.20670000
C       52.44560000      56.72330000      52.64320000
C       53.05270000      43.12970000      46.70970000
C       52.37060000      52.72240000      55.56500000
C       46.84360000      52.67420000      44.32280000
C       47.23400000      47.25720000      55.96620000
C       43.55940000      46.85690000      52.62970000
C       56.17500000      47.08900000      47.42140000
C       55.80720000      52.91000000      52.63950000
C       52.06720000      44.37480000      52.07470000
C       46.93030000      46.89510000      44.21460000
C       56.21710000      52.96890000      47.77640000
C       53.28180000      56.16040000      46.96110000
C       46.43590000      57.37910000      53.91220000
C       46.97520000      43.62560000      46.88920000
C       46.59440000      52.93230000      56.24530000
C       52.63420000      52.00800000      44.21100000
C       53.56780000      47.52100000      56.05340000
C       56.18950000      47.09460000      52.69950000
C       43.54830000      46.98310000      47.56500000
C       44.11470000      52.74520000      52.81240000
C       48.83910000      53.50050000      56.06600000
C       56.42320000      49.32350000      53.26300000
C       53.67180000      56.63300000      49.24260000
C       49.24620000      46.72320000      44.37310000
C       50.93160000      47.52230000      55.50270000
C       50.56300000      53.06160000      44.17470000
C       56.25970000      50.77320000      46.99900000
C       43.90200000      50.42890000      53.34550000
C       43.66480000      49.21510000      46.90300000
C       53.32810000      43.84500000      50.17180000
C       46.64220000      43.71100000      49.19770000
C       47.49780000      56.08080000      50.80920000
C       50.19510000      53.49550000      55.85640000
C       43.77350000      49.06170000      53.28330000
C       47.29070000      56.18320000      49.45480000
C       50.61190000      46.86830000      44.46150000
C       49.58570000      47.22840000      55.60390000
C       49.16900000      53.15830000      44.17870000
C       43.66440000      50.57910000      46.91430000
C       56.17380000      50.66360000      53.23580000
C       56.37660000      49.41160000      46.90600000
C       46.97120000      43.83800000      50.55450000
C       53.62090000      43.37470000      48.89650000
C       53.52470000      56.77230000      50.60730000
C       50.65740000      55.55850000      54.25090000
C       54.42020000      50.98550000      55.25480000
C       55.32810000      55.24880000      51.61950000
C       51.26390000      44.55980000      45.62580000
C       49.10660000      44.72100000      54.54850000
C       48.61830000      55.60580000      45.25840000
C       55.33950000      48.78590000      44.36680000
C       44.85080000      48.04360000      55.45690000
C       44.63440000      51.32720000      44.49750000
C       55.75560000      44.57000000      48.09630000
C       44.73580000      45.10470000      51.29480000
C       45.39060000      54.62910000      48.68280000
C       48.21260000      55.74800000      54.84960000
C       44.72270000      51.22160000      55.83770000
C       45.78420000      54.48650000      51.94380000
C       48.89980000      44.34370000      45.46170000
C       51.42980000      45.48970000      54.07400000
C       51.71190000      55.33140000      45.15080000
C       44.91250000      48.29380000      44.61520000
C       55.37860000      48.79280000      55.59580000
C       55.01500000      51.36720000      44.76330000
C       44.37550000      44.95310000      48.87860000
C       55.40370000      45.25010000      51.11860000
C       55.90370000      55.25670000      49.13780000
C       53.89250000      56.93960000      52.83100000
C       52.20480000      54.06020000      55.07530000
C       55.55870000      52.57950000      53.99010000
C       54.47150000      42.94210000      46.78190000
C       46.18610000      44.27400000      52.82390000
C       46.00770000      56.76750000      47.60100000
C       52.69130000      46.18320000      44.82700000
C       47.76730000      45.95380000      55.94220000
C       47.13940000      53.99950000      44.72040000
C       56.10490000      47.46080000      46.04840000
C       43.24550000      46.95140000      54.04560000
C       43.80220000      52.65080000      46.14880000
C       46.49740000      56.67510000      52.83380000
C       46.75850000      54.31470000      55.95430000
C       43.79950000      52.50020000      54.17450000
C       45.67310000      44.14700000      47.13140000
C       53.42550000      44.78410000      52.26760000
C       54.66110000      56.04920000      47.30740000
C       47.32180000      45.53390000      44.26880000
C       53.12540000      46.44430000      55.26160000
C       52.79840000      53.36780000      44.66260000
C       43.83840000      47.11300000      46.15990000
C       56.28400000      47.23000000      54.11850000
C       55.67060000      52.87120000      46.44260000
