240
Lattice="100.0 0.0 0.0 0.0 100.0 0.0 0.0 0.0 100.0" Properties=species:S:1:pos:R:3 name=C-53965-5632-438 pressure=-0.0208870838547517 spacegroup=C2 times_found=1 energy=-1764.5840253521 pbc="T T T"
C       50.62740000      56.17870000      47.15080000
C       47.14530000      50.80660000      56.32140000
C       56.54650000      47.20440000      50.54290000
C       49.21550000      43.57000000      47.10630000
C       49.37170000      56.17870000      52.84890000
C       50.78550000      43.57020000      52.89400000
C       52.84040000      49.00610000      56.51240000
C       52.85460000      50.80670000      43.67860000
C       47.15970000      49.00540000      43.48760000
C       43.40090000      53.02220000      50.55560000
C       43.45390000      47.20340000      49.45730000
C       56.59860000      53.02310000      49.44420000
C       50.81630000      56.23200000      52.89050000
C       47.14430000      50.43560000      43.40970000
C       56.51380000      47.25500000      49.10810000
C       49.35140000      43.45710000      52.95050000
C       49.18280000      56.23170000      47.10920000
C       50.64950000      43.45710000      47.04980000
C       52.86070000      49.36000000      43.75230000
C       52.85570000      50.43640000      56.59020000
C       47.13940000      49.35990000      56.24770000
C       43.53440000      52.94580000      49.12300000
C       43.48660000      47.25410000      50.89210000
C       56.46510000      52.94680000      50.87690000
C       48.33950000      44.17900000      53.66930000
C       53.61010000      48.38790000      44.49950000
C       44.33850000      53.65590000      48.14900000
C       51.93480000      55.53890000      53.58100000
C       51.66130000      44.17910000      46.33100000
C       48.06440000      55.53850000      46.41880000
C       46.44910000      51.41790000      44.16230000
C       46.39010000      48.38760000      55.50060000
C       53.55070000      51.41880000      55.83760000
C       55.74540000      46.60200000      48.02330000
C       55.66090000      53.65680000      51.85080000
C       44.25510000      46.60130000      51.97690000
C       48.24570000      44.33720000      46.35690000
C       53.50420000      47.94660000      55.71820000
C       44.13890000      53.73000000      51.56070000
C       51.63410000      55.46600000      46.41510000
C       51.75520000      44.33760000      53.64340000
C       48.36510000      55.46590000      53.58460000
C       46.49710000      51.94720000      55.61850000
C       46.49610000      47.94580000      44.28190000
C       53.50260000      51.94750000      44.38140000
C       55.77340000      46.49290000      51.50530000
C       55.86050000      53.73080000      48.43910000
C       44.22710000      46.49190000      48.49490000
C       56.72670000      49.59210000      46.25070000
C       46.26350000      56.73140000      49.31030000
C       49.11600000      46.27440000      56.61720000
C       43.60360000      50.58740000      46.32220000
C       43.27330000      49.59130000      53.74930000
C       56.39630000      50.58860000      53.67780000
C       53.65580000      43.56930000      49.13600000
C       53.73550000      56.73200000      50.68940000
C       46.34520000      43.56890000      50.86430000
C       50.93520000      53.56560000      56.69300000
C       50.88460000      46.27420000      43.38300000
C       49.06420000      53.56510000      43.30680000
C       56.51270000      49.13160000      53.65780000
C       46.35960000      56.58340000      50.77690000
C       49.42450000      46.13110000      43.20770000
C       43.33300000      51.04340000      53.65560000
C       43.48750000      49.13050000      46.34220000
C       56.66680000      51.04420000      46.34440000
C       53.63340000      43.67080000      50.59030000
C       53.63950000      56.58390000      49.22270000
C       46.36750000      43.67020000      49.41000000
C       50.51980000      53.66220000      43.29060000
C       50.57610000      46.13150000      56.79250000
C       49.47970000      53.66250000      56.70920000
C       49.33630000      49.11460000      42.25590000
C       42.23880000      49.34060000      49.25690000
C       49.24380000      42.41920000      49.28580000
C       50.76250000      50.61790000      42.30620000
C       50.66380000      49.11510000      57.74410000
C       49.23740000      50.61820000      57.69380000
C       57.78360000      50.87320000      49.37580000
C       57.76130000      49.34180000      50.74310000
C       42.21620000      50.87210000      50.62420000
C       50.72320000      57.49400000      49.26450000
C       50.75730000      42.41930000      50.71460000
C       49.27570000      57.49400000      50.73510000
C       49.20170000      49.17540000      57.61410000
C       42.20730000      49.40420000      50.70700000
C       49.30100000      42.36850000      50.75220000
C       50.70720000      50.56570000      57.81790000
C       50.79840000      49.17520000      42.38600000
C       49.29270000      50.56530000      42.18210000
C       57.67940000      50.80640000      50.82720000
C       57.79280000      49.40530000      49.29310000
C       42.32050000      50.80520000      49.17280000
C       50.72160000      57.52060000      50.73900000
C       50.70010000      42.36850000      49.24820000
C       49.27730000      57.52050000      49.26060000
C       45.20720000      45.52820000      48.44170000
C       48.31990000      44.88210000      45.05400000
C       45.50320000      47.86580000      45.32970000
C       54.90490000      54.72620000      48.30530000
C       54.79350000      45.52900000      51.55850000
C       45.09440000      54.72560000      51.69440000
C       51.56040000      54.87660000      45.15330000
C       51.68090000      44.88260000      54.94620000
C       48.43880000      54.87660000      54.84640000
C       54.53940000      52.14040000      45.37790000
C       54.49710000      47.86670000      54.67040000
C       45.46030000      52.14000000      54.62200000
C       45.29270000      45.58860000      52.09610000
C       48.20210000      45.09720000      54.69690000
C       45.13270000      48.49610000      54.91220000
C       55.06010000      54.93660000      51.78900000
C       54.70790000      45.58920000      47.90410000
C       44.93920000      54.93580000      48.21080000
C       52.09140000      54.54270000      54.61020000
C       51.79860000      45.09720000      45.30330000
C       47.90800000      54.54220000      45.38950000
C       54.51100000      51.50080000      54.85340000
C       54.86750000      48.49660000      45.08780000
C       45.48870000      51.49990000      45.14650000
C       45.12150000      55.83850000      49.29860000
C       49.14180000      45.17260000      55.69420000
C       55.62340000      49.66290000      45.30500000
C       54.56230000      44.70030000      49.01390000
C       54.87760000      55.83930000      50.70120000
C       45.43850000      44.69960000      50.98640000
C       51.01740000      54.45990000      55.54550000
C       50.85890000      45.17250000      44.30600000
C       48.98190000      54.45940000      44.45430000
C       44.65800000      50.42850000      45.35890000
C       44.37660000      49.66230000      54.69500000
C       55.34200000      50.42960000      54.64110000
C       45.22040000      55.70740000      50.74310000
C       49.41910000      45.03640000      44.15750000
C       55.38510000      48.98130000      54.56380000
C       54.60140000      44.72350000      50.46610000
C       54.77880000      55.70810000      49.25660000
C       45.39930000      44.72280000      49.53420000
C       50.41370000      54.62880000      44.37430000
C       50.58160000      45.03670000      55.84270000
C       49.58570000      54.62900000      55.62550000
C       44.49650000      51.09300000      54.53400000
C       44.61510000      48.98020000      45.43630000
C       55.50340000      51.09360000      45.46590000
C       48.56460000      56.94310000      48.23310000
C       48.20400000      48.58900000      56.86080000
C       57.18390000      48.42590000      48.52080000
C       51.37740000      42.88720000      48.17690000
C       51.43440000      56.94340000      51.76660000
C       48.62370000      42.88710000      51.82340000
C       51.78730000      51.19940000      57.24720000
C       51.79620000      48.58890000      43.13930000
C       48.21250000      51.19880000      42.75270000
C       43.03630000      51.76230000      48.46190000
C       42.81630000      48.42490000      51.47930000
C       56.96340000      51.76340000      51.53800000
C       48.64900000      56.78410000      51.74440000
C       48.30990000      48.38710000      42.83370000
C       57.17090000      48.25920000      51.33810000
C       51.46060000      43.09730000      51.70570000
C       51.35000000      56.78420000      48.25530000
C       48.54040000      43.09700000      48.29470000
C       51.71330000      51.38700000      42.94500000
C       51.69030000      48.38780000      57.16640000
C       48.28650000      51.38710000      57.05500000
C       42.76930000      51.93210000      51.29790000
C       42.82930000      48.25810000      48.66200000
C       57.23040000      51.93310000      48.70200000
C       43.17100000      48.52700000      52.85800000
C       52.73340000      43.37110000      48.15380000
C       48.13760000      52.56890000      43.19720000
C       56.34630000      51.67570000      52.83350000
C       56.82920000      48.52780000      47.14200000
C       43.65340000      51.67460000      47.16640000
C       47.17650000      56.69180000      48.27130000
C       47.26760000      43.37080000      51.84650000
C       52.82250000      56.69230000      51.72840000
C       51.82720000      47.25010000      43.63020000
C       51.86200000      52.56950000      56.80270000
C       48.17320000      47.25020000      56.37000000
C       43.31750000      48.18400000      47.31150000
C       52.76540000      43.70120000      51.65960000
C       48.40630000      52.77600000      56.75650000
C       56.77640000      51.97850000      47.33100000
C       56.68280000      48.18510000      52.68860000
C       43.22330000      51.97760000      52.66890000
C       47.29990000      56.32630000      51.75090000
C       47.23550000      43.70070000      48.34080000
C       52.69910000      56.32660000      48.24880000
C       51.63360000      47.02010000      56.82270000
C       51.59330000      52.77590000      43.24330000
C       48.36680000      47.01950000      43.17740000
C       47.24560000      54.27510000      55.27720000
C       54.69350000      46.78450000      53.60300000
C       54.04840000      54.50370000      47.10210000
C       52.83500000      45.59220000      55.30300000
C       52.75370000      54.27530000      44.72260000
C       47.16570000      45.59150000      44.69720000
C       45.26970000      53.27390000      53.60840000
C       45.30690000      46.78360000      46.39720000
C       54.72980000      53.27440000      46.39150000
C       45.98140000      45.57620000      47.16650000
C       45.95090000      54.50320000      52.89770000
C       54.01920000      45.57700000      52.83370000
C       46.78680000      53.51690000      45.20570000
C       55.32850000      47.32170000      45.70130000
C       54.31710000      55.24670000      52.93570000
C       52.98300000      45.98200000      45.51240000
C       53.21270000      53.51760000      54.79410000
C       47.01760000      45.98180000      54.48780000
C       45.56450000      52.78200000      45.90090000
C       44.67190000      47.32110000      54.29880000
C       54.43510000      52.78290000      54.09890000
C       46.30900000      45.35400000      53.22500000
C       45.68210000      55.24590000      47.06410000
C       53.69170000      45.35440000      46.77520000
C       43.98130000      47.36900000      53.15000000
C       52.85800000      44.24770000      47.06010000
C       47.08420000      52.66000000      44.12530000
C       55.41440000      52.81460000      53.02000000
C       56.01910000      47.36970000      46.85010000
C       44.58520000      52.81360000      46.97990000
C       46.87350000      55.86540000      47.13830000
C       47.14280000      44.24740000      52.94020000
C       53.12560000      55.86600000      52.86150000
C       52.91780000      47.11910000      44.61070000
C       52.91540000      52.66070000      55.87460000
C       47.08260000      47.11890000      55.38940000
C       44.22260000      47.11150000      47.24140000
C       52.93810000      44.60120000      52.82540000
C       47.27370000      53.10240000      55.93340000
C       55.84110000      53.02490000      47.22900000
C       55.77780000      47.11250000      52.75880000
C       44.15840000      53.02410000      52.77080000
C       47.11330000      55.37130000      52.85600000
C       47.06270000      44.60060000      47.17490000
C       52.88590000      55.37150000      47.14380000
C       52.77390000      46.74690000      55.98510000
C       52.72590000      53.10250000      44.06640000
C       47.22660000      46.74620000      44.01510000
