240
Lattice="100.0 0.0 0.0 0.0 100.0 0.0 0.0 0.0 100.0" Properties=species:S:1:pos:R:3 name=C-53965-5632-281 pressure=57.2468236962624 energy=-1720.8540960264 spacegroup=C1 times_found=1 pbc="T T T"
C       44.74300000      48.07370000      44.62380000
C       45.16470000      45.46610000      47.77620000
C       47.85700000      44.57480000      45.21210000
C       54.75600000      51.67360000      45.10920000
C       55.06590000      48.13390000      55.27000000
C       44.73690000      51.82790000      56.09590000
C       55.04120000      54.58500000      48.17290000
C       55.01820000      45.49550000      51.93840000
C       44.65810000      55.15130000      51.87360000
C       51.47560000      55.64410000      45.28490000
C       51.86650000      44.84030000      54.22640000
C       47.78710000      55.08090000      54.59500000
C       45.11720000      48.40150000      55.19550000
C       45.39960000      45.85490000      51.78070000
C       48.23520000      44.97750000      54.36980000
C       54.34020000      51.74140000      55.17730000
C       54.36870000      47.88890000      45.19540000
C       45.40810000      51.90320000      45.24420000
C       55.17550000      55.00530000      51.90740000
C       55.09040000      45.41220000      48.11200000
C       45.01050000      54.37730000      48.34110000
C       51.76320000      54.74340000      54.39580000
C       51.55710000      44.76760000      45.18030000
C       48.06320000      55.26900000      44.86250000
C       55.00850000      52.79990000      45.98770000
C       45.39780000      55.46960000      53.07620000
C       53.14300000      45.63280000      54.19620000
C       44.05390000      46.86350000      45.09810000
C       45.35530000      54.42080000      54.05310000
C       55.52050000      47.06340000      54.44640000
C       53.98290000      45.09130000      53.01340000
C       54.06940000      54.80530000      47.00080000
C       45.91580000      44.91970000      46.58390000
C       46.51990000      54.35580000      54.94290000
C       46.63040000      45.40700000      45.35720000
C       53.99670000      53.80560000      45.92220000
C       54.20450000      53.00810000      54.36820000
C       45.77050000      54.21460000      47.05160000
C       52.61040000      45.60300000      44.80320000
C       44.84270000      47.38000000      54.29370000
C       45.14090000      53.00700000      46.30450000
C       54.73480000      46.62220000      46.04620000
C       54.15390000      45.44440000      46.93300000
C       54.35640000      55.38940000      52.99740000
C       46.26130000      45.46330000      53.04850000
C       46.97080000      54.41200000      44.54640000
C       47.06520000      45.96750000      54.30420000
C       52.89350000      53.73660000      54.83200000
C       55.33910000      50.80280000      54.97660000
C       55.06220000      55.67320000      50.67620000
C       50.51280000      54.59730000      55.10750000
C       44.20760000      49.50150000      55.10950000
C       44.54080000      50.75030000      45.33880000
C       55.25620000      48.98220000      45.38020000
C       45.68330000      45.14750000      50.56250000
C       45.34940000      55.30870000      49.29510000
C       54.95950000      44.72690000      49.30410000
C       49.36700000      45.09540000      55.14340000
C       49.24260000      55.10220000      44.08560000
C       50.38000000      44.89820000      44.37440000
C       55.35590000      50.43850000      45.28460000
C       54.96130000      55.51410000      49.23130000
C       50.67210000      55.13680000      44.39670000
C       44.34640000      49.30770000      45.14790000
C       44.14620000      50.93150000      55.34140000
C       55.68900000      49.39740000      55.14190000
C       45.59550000      45.01350000      49.06340000
C       45.16430000      55.65320000      50.68120000
C       54.94380000      44.67600000      50.76860000
C       48.93140000      44.93420000      44.43810000
C       49.00940000      54.66680000      55.14820000
C       50.82010000      45.12440000      55.07140000
C       46.43310000      56.37940000      53.02620000
C       53.13450000      46.59560000      55.21040000
C       55.94540000      52.69310000      46.98770000
C       53.24420000      43.93400000      52.69710000
C       53.15050000      55.89220000      47.13580000
C       46.62050000      43.75540000      46.86130000
C       46.65430000      53.44690000      55.96670000
C       46.63470000      46.45660000      44.44190000
C       53.14610000      53.35220000      44.81570000
C       43.63880000      46.89920000      46.34820000
C       44.31970000      53.53930000      53.56160000
C       56.14000000      47.23790000      53.28120000
C       46.80500000      55.15330000      46.98530000
C       52.54730000      46.73540000      44.09560000
C       55.23250000      53.07490000      53.43240000
C       53.16450000      44.40330000      47.02580000
C       53.22070000      56.05690000      52.84620000
C       46.87050000      44.24880000      52.81750000
C       47.12780000      53.19880000      44.01550000
C       47.13670000      46.97900000      55.33530000
C       52.55270000      52.91880000      55.91370000
C       44.16320000      47.48000000      53.15520000
C       44.05900000      52.73660000      47.15430000
C       55.99870000      46.78330000      46.60080000
C       48.48750000      56.36230000      47.35570000
C       48.38860000      48.19180000      56.89960000
C       56.91520000      47.29670000      48.38780000
C       52.09030000      42.63290000      48.12350000
C       51.85110000      57.37090000      51.68940000
C       48.57960000      43.22060000      52.29680000
C       51.30640000      51.58650000      57.28630000
C       51.31190000      48.24570000      42.99840000
C       48.39550000      51.66870000      42.98740000
C       42.64870000      51.54120000      48.46320000
C       42.85410000      48.59360000      51.74850000
C       56.50510000      52.70590000      51.80740000
C       48.39100000      56.56520000      52.46460000
C       47.12980000      48.24440000      43.50770000
C       57.19070000      48.59730000      51.83640000
C       52.10560000      42.32160000      51.56000000
C       51.90920000      57.50000000      48.28300000
C       48.49640000      43.08960000      47.35660000
C       52.51110000      51.69800000      43.67680000
C       52.65190000      48.19630000      56.47990000
C       47.17270000      51.69620000      56.90780000
C       43.27820000      52.77680000      51.92170000
C       43.45480000      47.45350000      48.30720000
C       57.21870000      51.48620000      48.38150000
C       46.54250000      56.14370000      49.22370000
C       49.38860000      46.14520000      56.11650000
C       56.44090000      49.00120000      46.27060000
C       54.13440000      43.54870000      49.20100000
C       54.12570000      56.78640000      50.66510000
C       46.60970000      43.99670000      50.55770000
C       50.42170000      53.74380000      56.27990000
C       50.34780000      45.98620000      43.41720000
C       49.42170000      53.88490000      43.34490000
C       43.42410000      50.68570000      46.25410000
C       43.39240000      49.66220000      53.93470000
C       56.34500000      50.93380000      53.91440000
C       46.39830000      56.48600000      50.64390000
C       48.88970000      46.09740000      43.53670000
C       56.67610000      49.51080000      54.09060000
C       54.20780000      43.42030000      50.64790000
C       54.10510000      56.68590000      49.20740000
C       46.55590000      43.89520000      49.13170000
C       50.84850000      53.85630000      43.68270000
C       50.84960000      46.20210000      56.05790000
C       48.98420000      53.70270000      56.25220000
C       43.44040000      51.11710000      54.05430000
C       43.33200000      49.25150000      46.23010000
C       56.48500000      50.44390000      46.21050000
C       47.27190000      50.93790000      43.51330000
C       43.49410000      47.57120000      50.95880000
C       51.12920000      43.15800000      47.21500000
C       52.42460000      48.99150000      43.54650000
C       52.43740000      50.79160000      56.84720000
C       47.25890000      49.01870000      56.62060000
C       56.97930000      52.27560000      50.57370000
C       57.10960000      47.82200000      49.65660000
C       43.14470000      52.60740000      49.30620000
C       49.66100000      56.92480000      47.86850000
C       49.80150000      42.76610000      51.83350000
C       51.01740000      56.58590000      52.55730000
C       47.62830000      50.39590000      57.10210000
C       43.15480000      47.91680000      49.57100000
C       51.14910000      42.93740000      52.43540000
C       52.10620000      49.36130000      57.01730000
C       52.04940000      50.43790000      43.28020000
C       47.61590000      49.51000000      43.21750000
C       56.71710000      52.61770000      49.14990000
C       56.73380000      47.46490000      51.06250000
C       42.84400000      52.21530000      50.71330000
C       49.65590000      56.72690000      51.98320000
C       49.78610000      42.84430000      47.79130000
C       51.03470000      56.90550000      47.35930000
C       55.96510000      46.60880000      51.97610000
C       51.86010000      56.10700000      46.46310000
C       45.92960000      52.27890000      56.41040000
C       43.95670000      53.99280000      52.21800000
C       44.11950000      46.37070000      47.61220000
C       55.91150000      53.42640000      48.21810000
C       47.86800000      43.56480000      46.16160000
C       47.69690000      56.07180000      53.63850000
C       51.91310000      43.83940000      53.23780000
C       53.80810000      47.77780000      55.72250000
C       53.65310000      52.06340000      44.41080000
C       45.97190000      47.69990000      44.14380000
C       56.17480000      46.19560000      47.88780000
C       51.88970000      55.76990000      53.37760000
C       46.47110000      51.90920000      44.26380000
C       44.00010000      53.38990000      48.44480000
C       44.36640000      46.84090000      51.85220000
C       55.68230000      53.77800000      52.25870000
C       48.12390000      43.95930000      53.45080000
C       47.92900000      55.65530000      46.19940000
C       51.85200000      44.08390000      46.39360000
C       53.24200000      48.00260000      44.28690000
C       53.25010000      51.66260000      56.06670000
C       46.40850000      48.23110000      55.76940000
C       42.22260000      49.57710000      51.01230000
C       51.44370000      41.87630000      49.09880000
C       49.44390000      50.88150000      42.53810000
C       57.62000000      50.99510000      50.56610000
C       57.65640000      49.13370000      49.69070000
C       42.17060000      50.47050000      49.21060000
C       49.76310000      57.47300000      49.22380000
C       49.99850000      42.19830000      50.52510000
C       51.10710000      57.98970000      50.69940000
C       50.25600000      49.03690000      42.56150000
C       50.27570000      50.75090000      57.73070000
C       49.44130000      48.89220000      57.50130000
C       42.35550000      49.12080000      49.62850000
C       51.43190000      41.75220000      50.49450000
C       48.94530000      50.27110000      57.62100000
C       57.72780000      50.46710000      49.19320000
C       57.64850000      49.66280000      51.05990000
C       42.21210000      50.93950000      50.62850000
C       49.76900000      57.38930000      50.67770000
C       50.01580000      42.27220000      49.08920000
C       51.13540000      58.05180000      49.30170000
C       50.78410000      49.35220000      57.55140000
C       50.77970000      50.41230000      42.64340000
C       48.91680000      49.51750000      42.61620000
C       43.12030000      48.11650000      47.01560000
C       47.18720000      43.27680000      48.08960000
C       47.79760000      46.91680000      43.64430000
C       56.73340000      51.49760000      47.06340000
C       56.83770000      48.49750000      53.17050000
C       43.57490000      52.28840000      53.31740000
C       53.19100000      56.85090000      48.20360000
C       53.36590000      43.00830000      51.64230000
C       47.08360000      56.81390000      51.78480000
C       51.96080000      53.08000000      43.95280000
C       51.98990000      46.94250000      56.08290000
C       47.87620000      52.95810000      56.57590000
C       43.30970000      48.62240000      53.04090000
C       47.26810000      43.52270000      51.64400000
C       48.32230000      46.98730000      56.19940000
C       56.21060000      52.00520000      53.08480000
C       56.79880000      47.91610000      47.01550000
C       43.17390000      51.64960000      47.16120000
C       53.18840000      56.94760000      51.70020000
C       53.27200000      43.41900000      48.12540000
C       47.27110000      56.01120000      48.09150000
C       51.38570000      52.89220000      56.70170000
C       51.36680000      46.89370000      43.31120000
C       48.35920000      53.00420000      43.29250000
