240
Lattice="100.0 0.0 0.0 0.0 100.0 0.0 0.0 0.0 100.0" Properties=species:S:1:pos:R:3 name=C-53965-5632-328 pressure=-6.10219691206826 energy=-1689.01900673099 spacegroup=Td times_found=1 pbc="T T T"
C       51.64580000      56.33680000      49.36250000
C       49.36300000      51.64620000      56.33680000
C       56.33690000      49.36300000      51.64570000
C       48.35390000      56.33680000      50.63710000
C       51.64620000      43.66330000      50.63740000
C       48.35420000      43.66310000      49.36300000
C       50.63690000      51.64580000      43.66310000
C       49.36250000      48.35380000      43.66330000
C       50.63760000      48.35420000      56.33680000
C       43.66310000      49.36250000      48.35430000
C       56.33670000      50.63740000      48.35370000
C       43.66320000      50.63710000      51.64620000
C       49.36260000      56.33680000      51.64580000
C       56.33670000      51.64620000      49.36240000
C       51.64630000      49.36300000      56.33680000
C       50.63700000      56.33680000      48.35380000
C       50.63750000      43.66330000      51.64620000
C       49.36290000      43.66310000      48.35420000
C       43.66320000      51.64580000      50.63750000
C       43.66320000      48.35380000      49.36310000
C       56.33690000      48.35420000      50.63700000
C       48.35380000      49.36250000      43.66330000
C       48.35430000      50.63740000      56.33690000
C       51.64570000      50.63710000      43.66310000
C       54.24990000      55.25940000      46.74740000
C       46.74780000      54.25030000      55.25930000
C       55.25960000      46.74800000      54.25010000
C       45.74980000      55.25930000      53.25230000
C       54.25050000      44.74090000      53.25220000
C       45.74980000      44.74040000      46.74810000
C       53.25190000      54.25010000      44.74040000
C       46.74760000      45.74950000      44.74090000
C       53.25260000      45.75010000      55.25930000
C       44.74060000      46.74740000      45.75010000
C       55.25910000      53.25230000      45.74950000
C       44.74070000      53.25220000      54.25030000
C       46.74780000      55.25940000      54.25020000
C       55.25910000      54.25030000      46.74740000
C       54.25050000      46.74800000      55.25930000
C       53.25190000      55.25930000      45.74950000
C       53.25260000      44.74090000      54.25020000
C       46.74770000      44.74040000      45.75010000
C       44.74070000      54.25010000      53.25240000
C       44.74060000      45.74950000      46.74810000
C       55.25960000      45.75010000      53.25220000
C       45.74970000      46.74740000      44.74090000
C       45.74990000      53.25230000      55.25940000
C       54.24990000      53.25220000      44.74040000
C       54.24940000      50.36330000      55.21470000
C       55.21480000      54.24930000      50.36260000
C       50.36300000      55.21500000      54.24900000
C       45.75060000      50.36270000      44.78530000
C       54.24890000      49.63700000      44.78490000
C       45.75110000      49.63700000      55.21510000
C       44.78500000      54.24900000      49.63710000
C       55.21500000      45.75100000      49.63690000
C       44.78520000      45.75070000      50.36340000
C       49.63670000      55.21480000      45.75070000
C       50.36300000      44.78500000      45.75100000
C       49.63730000      44.78520000      54.24930000
C       55.21510000      50.36330000      54.24890000
C       50.36310000      54.24930000      55.21470000
C       54.24900000      55.21500000      50.36260000
C       44.78490000      50.36270000      45.75110000
C       44.78530000      49.63700000      54.24940000
C       55.21470000      49.63700000      45.75060000
C       49.63670000      54.24900000      44.78500000
C       49.63740000      45.75100000      55.21500000
C       50.36290000      45.75070000      44.78520000
C       45.75070000      55.21480000      49.63700000
C       45.75100000      44.78500000      50.36330000
C       54.24930000      44.78520000      49.63700000
C       43.91340000      53.97730000      52.09240000
C       52.09260000      43.91360000      53.97750000
C       53.97710000      52.09220000      43.91320000
C       56.08630000      53.97750000      47.90730000
C       43.91350000      46.02230000      47.90810000
C       56.08680000      46.02280000      52.09220000
C       47.90770000      43.91330000      46.02290000
C       52.09190000      56.08650000      46.02230000
C       47.90770000      56.08660000      53.97730000
C       46.02280000      52.09240000      56.08670000
C       53.97770000      47.90800000      56.08640000
C       46.02240000      47.90740000      43.91370000
C       52.09190000      53.97730000      43.91320000
C       53.97770000      43.91360000      52.09230000
C       43.91360000      52.09220000      53.97760000
C       47.90790000      53.97760000      56.08650000
C       47.90760000      46.02230000      43.91370000
C       52.09270000      46.02280000      56.08660000
C       46.02270000      43.91330000      47.90810000
C       46.02250000      56.08650000      52.09230000
C       53.97710000      56.08660000      47.90730000
C       56.08630000      52.09230000      46.02230000
C       56.08680000      47.90800000      53.97720000
C       43.91330000      47.90740000      46.02290000
C       50.69920000      48.31100000      44.25370000
C       44.25360000      50.69920000      48.31130000
C       48.31130000      44.25370000      50.69970000
C       49.30090000      48.31130000      55.74640000
C       50.69960000      51.68910000      55.74620000
C       49.30030000      51.68870000      44.25370000
C       55.74630000      50.69970000      51.68860000
C       44.25380000      49.30050000      51.68910000
C       55.74620000      49.30070000      48.31090000
C       51.68900000      44.25370000      49.30070000
C       48.31090000      55.74620000      49.30050000
C       51.68870000      55.74640000      50.69920000
C       44.25380000      48.31100000      50.69970000
C       48.31090000      50.69920000      44.25380000
C       50.69950000      44.25370000      48.31130000
C       55.74630000      48.31130000      49.30040000
C       55.74630000      51.68910000      50.69910000
C       44.25360000      51.68870000      49.30080000
C       51.68910000      50.69970000      55.74620000
C       51.68870000      49.30040000      44.25370000
C       48.31140000      49.30070000      55.74640000
C       49.30080000      44.25370000      51.68910000
C       49.30030000      55.74620000      48.31100000
C       50.69930000      55.74640000      51.68870000
C       46.46020000      52.65980000      50.08820000
C       50.08840000      46.46030000      52.66000000
C       52.65980000      50.08810000      46.46010000
C       53.53970000      52.66000000      49.91160000
C       46.46030000      47.34000000      49.91210000
C       53.53980000      47.34020000      50.08810000
C       49.91190000      46.46020000      47.34020000
C       50.08790000      53.53970000      47.34000000
C       49.91190000      53.53980000      52.65980000
C       47.34020000      50.08820000      53.53990000
C       52.66010000      49.91210000      53.53960000
C       47.33990000      49.91170000      46.46040000
C       50.08790000      52.65980000      46.46020000
C       52.66000000      46.46030000      50.08810000
C       46.46040000      50.08810000      52.66010000
C       49.91190000      52.66000000      53.53970000
C       49.91180000      47.34000000      46.46030000
C       50.08840000      47.34020000      53.53980000
C       47.34020000      46.46020000      49.91210000
C       47.34000000      53.53970000      50.08810000
C       52.65980000      53.53980000      49.91160000
C       53.53960000      50.08820000      47.33990000
C       53.53990000      49.91210000      52.65980000
C       46.46010000      49.91170000      47.34020000
C       43.47210000      52.96320000      51.20610000
C       51.20630000      43.47230000      52.96350000
C       52.96300000      51.20580000      43.47200000
C       56.52770000      52.96350000      48.79370000
C       43.47220000      47.03640000      48.79440000
C       56.52800000      47.03690000      51.20580000
C       48.79410000      43.47200000      47.03690000
C       51.20560000      56.52780000      47.03640000
C       48.79400000      56.52790000      52.96320000
C       47.03690000      51.20610000      56.52790000
C       52.96360000      48.79430000      56.52780000
C       47.03640000      48.79370000      43.47230000
C       51.20560000      52.96320000      43.47200000
C       52.96360000      43.47230000      51.20600000
C       43.47230000      51.20590000      52.96360000
C       48.79420000      52.96350000      56.52780000
C       48.79380000      47.03640000      43.47230000
C       51.20630000      47.03690000      56.52790000
C       47.03680000      43.47200000      48.79440000
C       47.03650000      56.52780000      51.20590000
C       52.96310000      56.52790000      48.79370000
C       56.52770000      51.20610000      47.03640000
C       56.52800000      48.79430000      52.96310000
C       43.47210000      48.79370000      47.03700000
C       49.28780000      54.17130000      56.10010000
C       56.10040000      49.28800000      54.17090000
C       54.17090000      56.10030000      49.28730000
C       50.71190000      54.17100000      43.89960000
C       49.28760000      45.82860000      43.89990000
C       50.71270000      45.82910000      56.10030000
C       43.89960000      49.28740000      45.82910000
C       56.10000000      50.71230000      45.82860000
C       43.89990000      50.71220000      54.17140000
C       45.82870000      56.10010000      50.71230000
C       54.17140000      43.89990000      50.71230000
C       45.82900000      43.89960000      49.28810000
C       56.10010000      54.17130000      49.28730000
C       54.17140000      49.28800000      56.10010000
C       49.28770000      56.10030000      54.17100000
C       43.89970000      54.17100000      50.71240000
C       43.89990000      45.82860000      49.28810000
C       56.10040000      45.82910000      50.71220000
C       45.82860000      49.28740000      43.90000000
C       45.82910000      50.71240000      56.10040000
C       54.17090000      50.71220000      43.89960000
C       50.71190000      56.10010000      45.82860000
C       50.71270000      43.89990000      54.17130000
C       49.28770000      43.89960000      45.82910000
C       53.12900000      47.84650000      45.87790000
C       45.87770000      53.12890000      47.84660000
C       47.84680000      45.87800000      53.12930000
C       46.87110000      47.84660000      54.12230000
C       53.12920000      52.15370000      54.12190000
C       46.87070000      52.15320000      45.87800000
C       54.12210000      53.12930000      52.15320000
C       45.87810000      46.87080000      52.15380000
C       54.12210000      46.87090000      47.84640000
C       52.15350000      45.87790000      46.87090000
C       47.84630000      54.12190000      46.87090000
C       52.15350000      54.12220000      53.12890000
C       45.87810000      47.84650000      53.12940000
C       47.84630000      53.12890000      45.87790000
C       53.12910000      45.87790000      47.84650000
C       54.12200000      47.84650000      46.87080000
C       54.12210000      52.15370000      53.12890000
C       45.87770000      52.15320000      46.87100000
C       52.15360000      53.12930000      54.12190000
C       52.15340000      46.87080000      45.87790000
C       47.84680000      46.87100000      54.12230000
C       46.87110000      45.87790000      52.15370000
C       46.87070000      54.12190000      47.84650000
C       53.12910000      54.12220000      52.15320000
C       52.91420000      50.87590000      54.80860000
C       54.80870000      52.91420000      50.87540000
C       50.87560000      54.80890000      52.91380000
C       47.08580000      50.87540000      45.19130000
C       52.91380000      49.12430000      45.19110000
C       47.08620000      49.12440000      54.80890000
C       45.19110000      52.91380000      49.12450000
C       54.80880000      47.08610000      49.12420000
C       45.19140000      47.08590000      50.87600000
C       49.12410000      54.80860000      47.08590000
C       50.87570000      45.19120000      47.08610000
C       49.12460000      45.19130000      52.91420000
C       54.80890000      50.87590000      52.91380000
C       50.87580000      52.91420000      54.80860000
C       52.91390000      54.80890000      50.87540000
C       45.19110000      50.87540000      47.08620000
C       45.19140000      49.12430000      52.91420000
C       54.80870000      49.12440000      47.08580000
C       49.12400000      52.91380000      45.19120000
C       49.12460000      47.08610000      54.80890000
C       50.87550000      47.08590000      45.19130000
C       47.08580000      54.80860000      49.12430000
C       47.08620000      45.19120000      50.87590000
C       52.91410000      45.19130000      49.12440000
