240
Lattice="100.0 0.0 0.0 0.0 100.0 0.0 0.0 0.0 100.0" Properties=species:S:1:pos:R:3 name=C-53965-5632-1049 pressure=0.0221818860819913 energy=-1813.34118071042 spacegroup=Oh times_found=1 pbc="T T T"
C       46.25150000      54.77000000      52.75240000
C       52.75230000      46.25180000      54.77030000
C       54.77040000      52.75290000      46.25240000
C       53.74800000      54.77060000      47.24800000
C       46.25240000      45.22960000      47.24710000
C       53.74810000      45.22970000      52.75250000
C       47.24810000      46.25200000      45.22930000
C       52.75260000      53.74850000      45.23000000
C       47.24700000      53.74770000      54.77030000
C       45.22930000      52.75200000      53.74790000
C       54.77020000      47.24760000      53.74820000
C       45.23010000      47.24750000      46.25150000
C       52.75240000      54.77060000      46.25230000
C       54.77030000      46.25200000      52.75260000
C       46.25150000      52.75200000      54.77020000
C       47.24710000      54.77000000      53.74810000
C       47.24800000      45.22970000      46.25150000
C       52.75250000      45.22960000      53.74800000
C       45.23010000      46.25180000      47.24710000
C       45.22930000      53.74770000      52.75230000
C       54.77030000      53.74850000      47.24800000
C       53.74820000      52.75290000      45.23010000
C       53.74790000      47.24750000      54.77040000
C       46.25240000      47.24760000      45.22930000
C       55.64870000      45.36330000      50.72640000
C       50.72620000      55.64870000      45.36330000
C       45.36260000      50.72570000      55.64820000
C       44.35180000      45.36280000      49.27320000
C       55.64830000      54.63730000      49.27440000
C       44.35120000      54.63670000      50.72610000
C       49.27320000      55.64820000      54.63720000
C       50.72620000      44.35130000      54.63680000
C       49.27440000      44.35170000      45.36270000
C       54.63730000      50.72670000      44.35190000
C       45.36340000      49.27380000      44.35120000
C       54.63670000      49.27380000      55.64870000
C       50.72610000      45.36280000      55.64830000
C       45.36270000      55.64820000      50.72620000
C       55.64870000      50.72670000      45.36340000
C       49.27440000      45.36320000      44.35130000
C       49.27320000      54.63670000      55.64870000
C       50.72630000      54.63730000      44.35180000
C       54.63670000      55.64880000      49.27440000
C       54.63720000      44.35170000      50.72620000
C       45.36340000      44.35130000      49.27320000
C       44.35120000      50.72570000      54.63670000
C       44.35190000      49.27370000      45.36260000
C       55.64820000      49.27390000      54.63730000
C       55.66660000      46.41340000      51.63560000
C       51.63540000      55.66680000      46.41360000
C       46.41270000      51.63500000      55.66630000
C       44.33380000      46.41300000      48.36400000
C       55.66640000      53.58720000      48.36510000
C       44.33320000      53.58640000      51.63520000
C       48.36400000      55.66620000      53.58700000
C       51.63550000      44.33340000      53.58660000
C       48.36510000      44.33360000      46.41280000
C       53.58710000      51.63590000      44.33380000
C       46.41360000      48.36470000      44.33320000
C       53.58650000      48.36450000      55.66660000
C       51.63520000      46.41300000      55.66640000
C       46.41280000      55.66620000      51.63550000
C       55.66660000      51.63590000      46.41360000
C       48.36510000      46.41340000      44.33320000
C       48.36400000      53.58640000      55.66660000
C       51.63560000      53.58720000      44.33380000
C       53.58660000      55.66680000      48.36510000
C       53.58700000      44.33360000      51.63540000
C       46.41360000      44.33340000      48.36410000
C       44.33320000      51.63500000      53.58650000
C       44.33380000      48.36450000      46.41270000
C       55.66630000      48.36470000      53.58710000
C       48.97950000      49.99960000      57.80340000
C       57.80360000      48.98050000      50.00050000
C       49.99970000      57.80360000      48.98040000
C       51.02050000      50.00040000      42.19660000
C       48.98050000      50.00030000      42.19640000
C       51.01950000      49.99970000      57.80360000
C       42.19660000      48.97960000      49.99940000
C       57.80340000      51.02040000      50.00060000
C       42.19640000      51.01950000      49.99950000
C       49.99950000      57.80350000      51.02030000
C       50.00030000      42.19640000      51.01960000
C       50.00050000      42.19650000      48.97970000
C       57.80360000      50.00050000      48.98050000
C       49.99950000      48.97970000      57.80350000
C       48.97960000      57.80340000      50.00030000
C       42.19640000      49.99950000      51.01950000
C       42.19660000      49.99960000      48.97950000
C       57.80340000      50.00040000      51.02050000
C       50.00060000      48.98040000      42.19640000
C       49.99940000      51.01960000      57.80360000
C       50.00050000      51.02030000      42.19650000
C       51.01950000      57.80360000      50.00040000
C       51.02040000      42.19660000      49.99970000
C       48.98050000      42.19640000      49.99960000
C       54.63660000      55.64870000      50.72680000
C       50.72560000      54.63680000      55.64870000
C       55.64810000      50.72630000      54.63740000
C       45.36280000      55.64830000      49.27380000
C       54.63730000      44.35180000      49.27380000
C       45.36330000      44.35120000      50.72560000
C       49.27390000      54.63720000      44.35170000
C       50.72680000      45.36330000      44.35130000
C       49.27370000      45.36270000      55.64820000
C       44.35180000      50.72610000      45.36270000
C       55.64880000      49.27430000      45.36330000
C       44.35130000      49.27330000      54.63660000
C       50.72560000      55.64830000      54.63730000
C       55.64820000      54.63720000      50.72680000
C       54.63660000      50.72620000      55.64880000
C       49.27380000      55.64870000      45.36320000
C       49.27380000      44.35130000      54.63670000
C       50.72680000      44.35180000      45.36280000
C       44.35130000      54.63670000      49.27360000
C       44.35170000      45.36270000      50.72560000
C       55.64880000      45.36330000      49.27390000
C       45.36330000      50.72620000      44.35130000
C       45.36270000      49.27330000      55.64810000
C       54.63740000      49.27430000      44.35180000
C       43.09690000      47.92710000      49.99950000
C       50.00050000      43.09690000      47.92710000
C       47.92790000      50.00020000      43.09670000
C       56.90330000      47.92780000      50.00030000
C       43.09670000      52.07220000      49.99970000
C       56.90310000      52.07290000      50.00050000
C       50.00020000      43.09670000      52.07220000
C       49.99950000      56.90310000      52.07290000
C       49.99980000      56.90330000      47.92780000
C       52.07210000      49.99980000      56.90330000
C       47.92700000      49.99960000      56.90310000
C       52.07300000      50.00040000      43.09690000
C       50.00060000      47.92780000      43.09670000
C       47.92780000      43.09670000      49.99950000
C       43.09690000      49.99970000      47.92700000
C       49.99970000      47.92710000      56.90310000
C       50.00030000      52.07290000      43.09690000
C       49.99940000      52.07220000      56.90330000
C       52.07290000      43.09690000      49.99980000
C       52.07220000      56.90330000      50.00050000
C       47.92710000      56.90310000      50.00020000
C       56.90310000      50.00030000      52.07300000
C       56.90330000      50.00050000      47.92790000
C       43.09670000      49.99950000      52.07210000
C       56.36800000      47.63110000      51.34720000
C       51.34670000      56.36810000      47.63130000
C       47.63040000      51.34640000      56.36790000
C       43.63230000      47.63060000      48.65260000
C       56.36790000      52.36950000      48.65360000
C       43.63180000      52.36870000      51.34660000
C       48.65260000      56.36780000      52.36940000
C       51.34710000      43.63200000      52.36890000
C       48.65360000      43.63210000      47.63050000
C       52.36950000      51.34730000      43.63230000
C       47.63130000      48.65330000      43.63180000
C       52.36880000      48.65290000      56.36800000
C       51.34660000      47.63060000      56.36790000
C       47.63040000      56.36780000      51.34700000
C       56.36800000      51.34730000      47.63130000
C       48.65370000      47.63110000      43.63190000
C       48.65260000      52.36880000      56.36800000
C       51.34720000      52.36950000      43.63230000
C       52.36890000      56.36810000      48.65360000
C       52.36940000      43.63210000      51.34670000
C       47.63130000      43.63200000      48.65270000
C       43.63180000      51.34640000      52.36880000
C       43.63230000      48.65290000      47.63040000
C       56.36790000      48.65330000      52.36950000
C       45.22970000      46.25150000      52.75200000
C       52.75290000      45.23000000      46.25190000
C       46.25210000      52.75250000      45.22960000
C       54.77070000      46.25230000      47.24770000
C       45.22970000      53.74800000      47.24740000
C       54.76990000      53.74820000      52.75290000
C       47.24760000      45.22940000      53.74770000
C       52.75200000      54.77030000      53.74850000
C       47.24750000      54.77040000      46.25200000
C       53.74760000      52.75240000      54.77070000
C       46.25180000      47.24710000      54.76990000
C       53.74850000      47.24800000      45.22980000
C       52.75300000      46.25230000      45.22970000
C       46.25200000      45.22940000      52.75200000
C       45.22980000      52.75240000      46.25180000
C       47.24740000      46.25150000      54.77000000
C       47.24770000      53.74820000      45.22970000
C       52.75190000      53.74800000      54.77070000
C       53.74850000      45.23000000      47.24760000
C       53.74760000      54.77040000      52.75290000
C       46.25190000      54.77030000      47.24750000
C       54.76990000      52.75250000      53.74850000
C       54.77070000      47.24800000      46.25210000
C       45.22960000      47.24710000      53.74760000
C       48.36460000      44.33320000      53.58640000
C       53.58730000      48.36500000      44.33370000
C       44.33340000      53.58660000      48.36440000
C       51.63600000      44.33380000      46.41300000
C       48.36450000      55.66660000      46.41340000
C       51.63490000      55.66640000      53.58720000
C       46.41290000      48.36410000      55.66620000
C       53.58640000      51.63530000      55.66680000
C       46.41350000      51.63550000      44.33340000
C       55.66620000      53.58700000      51.63600000
C       44.33360000      46.41280000      51.63490000
C       55.66680000      46.41360000      48.36480000
C       53.58720000      44.33380000      48.36450000
C       44.33340000      48.36410000      53.58640000
C       48.36480000      53.58700000      44.33360000
C       46.41340000      44.33320000      51.63490000
C       46.41300000      55.66640000      48.36460000
C       53.58640000      55.66660000      51.63590000
C       55.66680000      48.36500000      46.41350000
C       55.66620000      51.63550000      53.58730000
C       44.33370000      51.63530000      46.41290000
C       51.63490000      53.58660000      55.66680000
C       51.63600000      46.41360000      44.33340000
C       48.36440000      46.41280000      55.66620000
C       52.36870000      56.36800000      51.34730000
C       51.34630000      52.36890000      56.36810000
C       56.36770000      51.34710000      52.36960000
C       47.63060000      56.36790000      48.65330000
C       52.36960000      43.63220000      48.65300000
C       47.63110000      43.63190000      51.34640000
C       48.65340000      52.36940000      43.63210000
C       51.34740000      47.63120000      43.63200000
C       48.65280000      47.63050000      56.36770000
C       43.63210000      51.34670000      47.63050000
C       56.36820000      48.65360000      47.63120000
C       43.63200000      48.65270000      52.36870000
C       51.34640000      56.36790000      52.36950000
C       56.36770000      52.36940000      51.34740000
C       52.36870000      51.34670000      56.36820000
C       48.65290000      56.36800000      47.63110000
C       48.65330000      43.63190000      52.36870000
C       51.34740000      43.63220000      47.63060000
C       43.63200000      52.36890000      48.65280000
C       43.63210000      47.63050000      51.34640000
C       56.36820000      47.63130000      48.65340000
C       47.63120000      51.34710000      43.63200000
C       47.63050000      48.65270000      56.36770000
C       52.36960000      48.65360000      43.63210000
