240
Lattice="100.0 0.0 0.0 0.0 100.0 0.0 0.0 0.0 100.0" Properties=species:S:1:pos:R:3 name=C-53965-5632-735 pressure=44.7252825869572 spacegroup=Oh times_found=1 energy=-1780.46902929003 pbc="T T T"
C       53.96890000      55.77110000      50.73670000
C       55.77140000      50.73700000      53.96840000
C       50.73750000      53.96880000      55.77110000
C       46.03200000      55.77160000      49.26250000
C       46.03110000      44.22900000      50.73750000
C       53.96800000      44.22830000      49.26320000
C       44.22870000      50.73730000      46.03150000
C       44.22860000      49.26360000      53.96850000
C       55.77130000      49.26220000      46.03160000
C       49.26310000      53.96810000      44.22840000
C       49.26260000      46.03200000      55.77170000
C       50.73680000      46.03110000      44.22890000
C       53.96800000      44.22840000      50.73750000
C       55.77130000      49.26270000      53.96850000
C       50.73690000      46.03190000      55.77160000
C       46.03110000      44.22890000      49.26330000
C       46.03200000      55.77170000      50.73680000
C       53.96890000      55.77100000      49.26250000
C       44.22860000      49.26300000      46.03160000
C       44.22870000      50.73780000      53.96840000
C       55.77140000      50.73640000      46.03150000
C       49.26250000      46.03120000      44.22890000
C       49.26320000      53.96890000      55.77110000
C       50.73740000      53.96800000      44.22830000
C       50.73670000      44.22830000      46.03200000
C       44.22830000      46.03200000      50.73740000
C       46.03160000      50.73700000      44.22860000
C       49.26250000      44.22900000      53.96880000
C       49.26330000      55.77120000      46.03120000
C       50.73760000      55.77160000      53.96800000
C       55.77110000      46.03110000      49.26310000
C       55.77170000      53.96810000      50.73680000
C       44.22890000      53.96880000      49.26260000
C       53.96850000      50.73720000      55.77130000
C       53.96840000      49.26220000      44.22870000
C       46.03150000      49.26360000      55.77140000
C       50.73750000      55.77110000      46.03120000
C       44.22890000      53.96890000      50.73690000
C       46.03150000      49.26280000      44.22870000
C       49.26330000      55.77170000      53.96800000
C       49.26240000      44.22840000      46.03200000
C       50.73670000      44.22880000      53.96880000
C       55.77170000      53.96800000      49.26260000
C       55.77110000      46.03120000      50.73740000
C       44.22830000      46.03190000      49.26320000
C       53.96840000      49.26300000      55.77140000
C       53.96850000      50.73640000      44.22860000
C       46.03160000      50.73780000      55.77130000
C       51.55010000      53.05850000      43.49780000
C       53.05860000      43.49790000      51.55040000
C       43.49810000      51.55060000      53.05900000
C       48.45030000      53.05970000      56.50180000
C       48.44980000      46.94060000      43.49820000
C       51.54970000      46.94120000      56.50220000
C       46.94040000      43.49810000      48.45050000
C       46.94140000      56.50240000      51.54950000
C       53.05960000      56.50170000      48.44960000
C       56.50210000      51.54920000      46.94080000
C       56.50190000      48.44980000      53.05920000
C       43.49780000      48.45030000      46.94100000
C       51.54970000      46.94030000      43.49820000
C       53.05960000      56.50190000      51.54950000
C       43.49790000      48.45080000      53.05920000
C       48.44990000      46.94150000      56.50220000
C       48.45030000      53.05880000      43.49780000
C       51.55020000      53.05940000      56.50180000
C       46.94140000      56.50210000      48.44960000
C       46.94040000      43.49830000      51.55040000
C       53.05860000      43.49760000      48.45050000
C       56.50190000      48.44940000      46.94100000
C       56.50220000      51.54970000      53.05900000
C       43.49810000      51.55020000      46.94080000
C       53.05920000      51.55020000      56.50190000
C       51.55040000      56.50210000      53.05860000
C       56.50230000      53.05870000      51.54970000
C       46.94100000      51.54970000      43.49790000
C       46.94080000      48.45070000      56.50210000
C       53.05890000      48.44940000      43.49810000
C       48.45050000      56.50190000      46.94050000
C       48.44960000      43.49830000      53.05950000
C       51.54940000      43.49770000      46.94130000
C       43.49820000      53.05950000      48.44990000
C       43.49780000      46.94150000      51.55020000
C       56.50180000      46.94030000      48.45020000
C       53.05900000      48.45030000      56.50210000
C       51.54950000      43.49810000      53.05950000
C       56.50180000      46.94050000      51.55010000
C       46.94080000      48.44980000      43.49810000
C       46.94110000      51.55060000      56.50190000
C       53.05920000      51.54930000      43.49790000
C       48.44960000      43.49790000      46.94140000
C       48.45060000      56.50230000      53.05870000
C       51.55040000      56.50170000      46.94050000
C       43.49770000      46.94130000      48.45030000
C       43.49820000      53.05970000      51.54980000
C       56.50220000      53.05850000      48.44980000
C       53.59230000      55.26100000      46.40770000
C       55.26120000      46.40800000      53.59210000
C       46.40840000      53.59250000      55.26130000
C       46.40850000      55.26200000      53.59150000
C       46.40770000      44.73850000      46.40850000
C       53.59150000      44.73850000      53.59220000
C       44.73820000      46.40830000      46.40840000
C       44.73880000      53.59250000      53.59170000
C       55.26180000      53.59120000      46.40790000
C       53.59210000      53.59130000      44.73820000
C       53.59160000      46.40820000      55.26170000
C       46.40780000      46.40800000      44.73880000
C       53.59150000      44.73800000      46.40850000
C       55.26180000      53.59170000      53.59160000
C       46.40790000      46.40880000      55.26180000
C       46.40770000      44.73900000      53.59230000
C       46.40850000      55.26150000      46.40780000
C       53.59230000      55.26150000      53.59150000
C       44.73880000      53.59200000      46.40790000
C       44.73820000      46.40880000      53.59210000
C       55.26120000      46.40750000      46.40830000
C       53.59160000      46.40750000      44.73870000
C       53.59220000      53.59200000      55.26120000
C       46.40840000      53.59180000      44.73830000
C       48.54390000      54.85440000      45.14510000
C       54.85420000      45.14500000      48.54390000
C       45.14530000      48.54430000      54.85470000
C       51.45680000      54.85480000      54.85420000
C       51.45610000      45.14500000      45.14580000
C       48.54320000      45.14590000      54.85490000
C       45.14510000      45.14590000      51.45680000
C       45.14580000      54.85480000      48.54320000
C       54.85490000      54.85430000      51.45610000
C       54.85440000      48.54290000      45.14550000
C       54.85470000      51.45640000      54.85450000
C       45.14550000      51.45650000      45.14530000
C       48.54320000      45.14520000      45.14580000
C       54.85490000      54.85410000      48.54320000
C       45.14560000      51.45710000      54.85450000
C       51.45610000      45.14560000      54.85490000
C       51.45680000      54.85410000      45.14510000
C       48.54390000      54.85500000      54.85420000
C       45.14580000      54.85500000      51.45610000
C       45.14510000      45.14570000      48.54390000
C       54.85420000      45.14520000      51.45680000
C       54.85470000      51.45570000      45.14530000
C       54.85450000      48.54350000      54.85470000
C       45.14530000      48.54360000      45.14550000
C       50.72780000      49.27160000      42.70610000
C       49.27160000      42.70610000      50.72840000
C       42.70610000      50.72840000      49.27210000
C       49.27210000      49.27270000      57.29400000
C       49.27210000      50.72740000      42.70600000
C       50.72800000      50.72830000      57.29390000
C       50.72730000      42.70590000      49.27260000
C       50.72840000      57.29400000      50.72740000
C       49.27270000      57.29400000      49.27160000
C       57.29400000      50.72740000      50.72780000
C       57.29390000      49.27150000      49.27210000
C       42.70600000      49.27270000      50.72800000
C       50.72790000      50.72730000      42.70600000
C       49.27270000      57.29410000      50.72740000
C       42.70600000      49.27260000      49.27220000
C       49.27220000      50.72840000      57.29390000
C       49.27200000      49.27170000      42.70610000
C       50.72790000      49.27260000      57.29400000
C       50.72840000      57.29390000      49.27160000
C       50.72730000      42.70600000      50.72840000
C       49.27160000      42.70600000      49.27260000
C       57.29390000      49.27160000      50.72790000
C       57.29400000      50.72730000      49.27200000
C       42.70610000      50.72850000      50.72790000
C       51.66010000      56.97160000      51.65910000
C       56.97180000      51.65920000      51.65940000
C       51.65970000      51.65990000      56.97150000
C       48.34090000      56.97170000      48.34000000
C       48.33990000      43.02860000      51.66010000
C       51.65900000      43.02810000      48.34090000
C       43.02850000      51.66000000      48.34030000
C       43.02820000      48.34110000      51.65970000
C       56.97150000      48.33980000      48.34050000
C       48.34050000      51.65920000      43.02830000
C       48.34030000      48.34100000      56.97180000
C       51.65940000      48.33980000      43.02850000
C       51.65910000      43.02830000      51.66000000
C       56.97150000      48.34000000      51.65970000
C       51.65950000      48.34080000      56.97180000
C       48.33990000      43.02840000      48.34090000
C       48.34100000      56.97190000      51.65910000
C       51.66010000      56.97140000      48.33990000
C       43.02820000      48.34080000      48.34060000
C       43.02850000      51.66020000      51.65950000
C       56.97180000      51.65890000      48.34030000
C       48.34030000      48.34010000      43.02850000
C       48.34060000      51.66020000      56.97150000
C       51.65970000      51.65900000      43.02820000
C       43.73810000      47.05430000      47.05420000
C       47.05380000      47.05380000      43.73850000
C       47.05350000      43.73830000      47.05450000
C       56.26150000      47.05370000      52.94620000
C       56.26190000      52.94530000      47.05380000
C       43.73850000      52.94670000      52.94580000
C       52.94580000      47.05420000      56.26190000
C       52.94620000      52.94530000      43.73810000
C       47.05430000      52.94660000      56.26150000
C       52.94550000      43.73830000      52.94640000
C       52.94640000      56.26130000      47.05360000
C       47.05450000      56.26210000      52.94560000
C       43.73850000      52.94630000      47.05380000
C       47.05420000      52.94580000      43.73810000
C       47.05450000      56.26170000      47.05360000
C       56.26190000      52.94570000      52.94580000
C       56.26150000      47.05330000      47.05420000
C       43.73810000      47.05470000      52.94620000
C       52.94620000      52.94620000      56.26150000
C       52.94570000      47.05340000      43.73850000
C       47.05380000      47.05470000      56.26190000
C       52.94650000      56.26170000      52.94550000
C       52.94550000      43.73790000      47.05440000
C       47.05360000      43.73870000      52.94640000
C       47.10560000      54.66440000      45.33520000
C       54.66410000      45.33500000      47.10560000
C       45.33530000      47.10590000      54.66470000
C       52.89510000      54.66460000      54.66410000
C       52.89440000      45.33500000      45.33580000
C       47.10490000      45.33610000      54.66480000
C       45.33520000      45.33610000      52.89510000
C       45.33590000      54.66460000      47.10500000
C       54.66480000      54.66430000      52.89440000
C       54.66420000      47.10460000      45.33570000
C       54.66470000      52.89470000      54.66420000
C       45.33570000      52.89480000      45.33540000
C       47.10490000      45.33540000      45.33590000
C       54.66480000      54.66390000      47.10490000
C       45.33580000      52.89540000      54.66430000
C       52.89440000      45.33560000      54.66480000
C       52.89510000      54.66390000      45.33520000
C       47.10560000      54.66500000      54.66420000
C       45.33590000      54.66500000      52.89440000
C       45.33520000      45.33570000      47.10560000
C       54.66410000      45.33540000      52.89500000
C       54.66470000      52.89410000      45.33530000
C       54.66430000      47.10520000      54.66460000
C       45.33530000      47.10530000      45.33580000
