240
Lattice="100.0 0.0 0.0 0.0 100.0 0.0 0.0 0.0 100.0" Properties=species:S:1:pos:R:3 name=C-53965-5632-5 pressure=-0.00355548111044248 spacegroup=C1 times_found=1 energy=-1783.64195470158 pbc="T T T"
C       50.54580000      45.73490000      55.68010000
C       56.15510000      50.80190000      45.95070000
C       46.19870000      56.17230000      50.72610000
C       51.10450000      53.94290000      43.85490000
C       49.14470000      54.12430000      55.80790000
C       49.08740000      46.02820000      43.90870000
C       55.85500000      48.97870000      53.85840000
C       44.08860000      49.22510000      46.08600000
C       43.83210000      51.26010000      54.08130000
C       46.25000000      43.99140000      49.96630000
C       54.09940000      43.96110000      50.89900000
C       54.16080000      56.02810000      48.93640000
C       51.12680000      56.03950000      45.85020000
C       55.82950000      46.02620000      51.14300000
C       45.89340000      51.26950000      56.19560000
C       49.71580000      43.69070000      53.86340000
C       49.22010000      56.19110000      53.78810000
C       49.04160000      43.96580000      45.93630000
C       56.14470000      53.91320000      48.98360000
C       44.73130000      45.68320000      49.59420000
C       44.20520000      54.08080000      50.78930000
C       46.10870000      49.19660000      43.90910000
C       54.12020000      50.81420000      43.88700000
C       53.85360000      49.27980000      55.93710000
C       45.61050000      44.07770000      47.73980000
C       47.68430000      45.75060000      43.60080000
C       43.73340000      47.89110000      45.62280000
C       45.84800000      56.49130000      52.10780000
C       54.51800000      56.27660000      47.54170000
C       55.25270000      43.89300000      51.66760000
C       47.80130000      54.56290000      56.15800000
C       52.50120000      54.24990000      43.55900000
C       51.47540000      44.69810000      55.29750000
C       43.62480000      52.68330000      54.27320000
C       56.45970000      52.19070000      45.61190000
C       56.09610000      47.53440000      54.04210000
C       45.72330000      47.83950000      43.53920000
C       47.57290000      43.84950000      45.73440000
C       45.29730000      44.51120000      49.03630000
C       45.67760000      52.69840000      56.35860000
C       54.33930000      47.97290000      56.33750000
C       54.47500000      52.20140000      43.59360000
C       47.83330000      56.50710000      54.12040000
C       50.96370000      43.65000000      54.58780000
C       52.52890000      56.28410000      45.51920000
C       43.83240000      54.52240000      52.12620000
C       55.46300000      45.12250000      52.26120000
C       56.46950000      54.22720000      47.59600000
C       51.92610000      46.03710000      47.03930000
C       47.42970000      51.80160000      46.17320000
C       45.01970000      46.89840000      53.03650000
C       51.79330000      53.84220000      52.56050000
C       48.43920000      53.83860000      47.12630000
C       46.64800000      45.72990000      54.17450000
C       46.37840000      48.05310000      54.69280000
C       52.91740000      48.08490000      46.07030000
C       52.66510000      51.76660000      53.54320000
C       46.47810000      52.80380000      48.21160000
C       53.79640000      52.77110000      51.59640000
C       53.92940000      47.06390000      48.07030000
C       51.91030000      47.08270000      46.05480000
C       45.35500000      45.75090000      53.70420000
C       46.46560000      51.78910000      47.22950000
C       51.70890000      52.80390000      53.54190000
C       47.14410000      46.89310000      54.84390000
C       48.42990000      52.80440000      46.13640000
C       47.45680000      53.84700000      48.14580000
C       52.93440000      46.03760000      48.03320000
C       52.82170000      53.82040000      51.58650000
C       45.34730000      48.07620000      53.70680000
C       53.72360000      51.75450000      52.57940000
C       53.93180000      48.07920000      47.08630000
C       43.44480000      48.95580000      47.36740000
C       47.22990000      43.23880000      49.24280000
C       49.06800000      47.12520000      42.98050000
C       43.03190000      51.24520000      52.88730000
C       57.06940000      50.85730000      47.05780000
C       56.83000000      48.99140000      52.82250000
C       47.28230000      57.11880000      50.76350000
C       53.09940000      56.99480000      48.85220000
C       52.86790000      43.63950000      51.49180000
C       49.06480000      53.04380000      56.75040000
C       51.14620000      52.83280000      42.94360000
C       51.04100000      46.88150000      56.33590000
C       44.09550000      46.75830000      48.94110000
C       47.21620000      49.11720000      42.98540000
C       48.96190000      43.08600000      47.06980000
C       43.28550000      52.98150000      50.86580000
C       56.80280000      47.02950000      51.21430000
C       57.05070000      52.79660000      48.95360000
C       47.06460000      51.28520000      57.02650000
C       52.64500000      49.12370000      56.73410000
C       53.02920000      50.88430000      42.95610000
C       49.19130000      57.12890000      52.69630000
C       50.46030000      43.13660000      52.69580000
C       51.19540000      57.00150000      46.91630000
C       49.39170000      52.78770000      45.08520000
C       44.74570000      49.24730000      53.24440000
C       52.92090000      45.02970000      49.04370000
C       48.46530000      46.95230000      55.34200000
C       50.89370000      47.13250000      45.05420000
C       50.72900000      52.83090000      54.57630000
C       45.45560000      50.79250000      47.28630000
C       54.73670000      50.75380000      52.61680000
C       54.95220000      49.07850000      47.12480000
C       52.89160000      54.87510000      50.62920000
C       47.43610000      54.92720000      49.07410000
C       47.16950000      44.35450000      52.21020000
C       47.52430000      44.84330000      53.55770000
C       45.45440000      52.80710000      49.20210000
C       52.90990000      49.09380000      45.06150000
C       49.40440000      54.88820000      47.08260000
C       50.92850000      45.00980000      47.06920000
C       50.87770000      54.93250000      52.57400000
C       44.76030000      46.94290000      51.64240000
C       54.86730000      52.75640000      50.65530000
C       54.91120000      47.11130000      49.11050000
C       52.60210000      50.78860000      54.56470000
C       46.77440000      49.23350000      55.33770000
C       47.37860000      50.83140000      45.13210000
C       43.53720000      50.68180000      51.67580000
C       51.66800000      43.62820000      50.65910000
C       50.73940000      51.55670000      43.39550000
C       43.98340000      49.26510000      48.62470000
C       56.46540000      49.38140000      51.51720000
C       56.61710000      50.47330000      48.34360000
C       51.79320000      56.61990000      49.24140000
C       48.57740000      56.69840000      50.38140000
C       48.65630000      43.20710000      49.43230000
C       50.41580000      48.21590000      56.22090000
C       49.50730000      48.39560000      43.40990000
C       49.33510000      51.71940000      56.34080000
C       43.72660000      51.66500000      50.60780000
C       51.73520000      50.51380000      43.39060000
C       50.42950000      43.29500000      51.31140000
C       44.05910000      48.12140000      49.57030000
C       56.58990000      51.52020000      49.34340000
C       56.46880000      48.31150000      50.58240000
C       51.35250000      49.37470000      56.22090000
C       48.29050000      50.71760000      56.56080000
C       48.51770000      49.44540000      43.41850000
C       50.78130000      56.62250000      48.21340000
C       49.54650000      43.35300000      48.30020000
C       49.58980000      56.70140000      51.40840000
C       53.51530000      57.35940000      47.50430000
C       47.79930000      53.57140000      57.24990000
C       57.18040000      47.58980000      53.03730000
C       52.85820000      43.70110000      52.95310000
C       46.69150000      43.15200000      47.91260000
C       46.88360000      57.54380000      52.09850000
C       47.72100000      46.78850000      42.54610000
C       52.41120000      46.74900000      56.71820000
C       52.49140000      53.20010000      42.52230000
C       57.50060000      52.19140000      46.65970000
C       42.65350000      52.62960000      53.15430000
C       43.13410000      47.65530000      46.92950000
C       53.11180000      47.86390000      57.14190000
C       47.84960000      57.55020000      53.07600000
C       57.50030000      53.17100000      47.61910000
C       53.44570000      52.21540000      42.53480000
C       46.79340000      47.80450000      42.52930000
C       46.77280000      52.67860000      57.35760000
C       47.54250000      42.93730000      46.86630000
C       52.55230000      57.36320000      46.52600000
C       51.67910000      43.16060000      53.45470000
C       57.88290000      46.86460000      52.16520000
C       42.75740000      53.51230000      52.11990000
C       43.77580000      46.57220000      47.54690000
C       50.25290000      54.95000000      45.92950000
C       45.77420000      50.27340000      55.24940000
C       54.97680000      46.01230000      50.01260000
C       48.79230000      44.70800000      54.17630000
C       50.00690000      44.98270000      45.95530000
C       50.02720000      55.05050000      53.71710000
C       46.19170000      50.01930000      45.04390000
C       53.76830000      49.98410000      54.74000000
C       54.06590000      49.94250000      44.97840000
C       55.02260000      53.90530000      49.81790000
C       45.32420000      54.00770000      49.96970000
C       45.16820000      45.77540000      50.94140000
C       49.23990000      45.75130000      55.12710000
C       46.28660000      55.03370000      49.91780000
C       55.05660000      49.93670000      45.97960000
C       50.24680000      53.92960000      44.95910000
C       49.99840000      46.00890000      44.97550000
C       49.96800000      54.03560000      54.69180000
C       46.15500000      44.69910000      51.19840000
C       54.05970000      54.93380000      49.80130000
C       54.04990000      44.95140000      49.87590000
C       54.78060000      49.89930000      53.77190000
C       44.80000000      50.28910000      54.23360000
C       45.24560000      50.02160000      46.09670000
C       55.63780000      50.59920000      51.50190000
C       51.77940000      55.78320000      50.45730000
C       50.48820000      51.67040000      55.42670000
C       55.77480000      49.26650000      48.29860000
C       44.16490000      49.36010000      51.91260000
C       44.70450000      50.56310000      48.52480000
C       51.75750000      44.21510000      49.29550000
C       48.10980000      43.58410000      51.65430000
C       48.56520000      55.81740000      49.19480000
C       50.73070000      48.31620000      44.23000000
C       49.00390000      48.22210000      55.84960000
C       49.53480000      51.62120000      44.24600000
C       55.70100000      51.58610000      50.51420000
C       51.41020000      50.61070000      55.38880000
C       50.77460000      55.81920000      51.44050000
C       55.73060000      48.27330000      49.31790000
C       44.63680000      51.62560000      49.44810000
C       44.32450000      48.18680000      51.00730000
C       51.74900000      49.29170000      44.22370000
C       48.52010000      50.65000000      44.26250000
C       48.07840000      49.37370000      55.94930000
C       50.77450000      44.15230000      48.24200000
C       49.56330000      55.78760000      48.20360000
C       49.08910000      43.33050000      50.77550000
C       54.46420000      46.76190000      55.58630000
C       55.60570000      54.34860000      46.47220000
C       46.70140000      55.65610000      54.26740000
C       54.60540000      53.32010000      44.46490000
C       45.59060000      53.73540000      55.37880000
C       45.54340000      46.70520000      44.37370000
C       54.78860000      45.38670000      53.54180000
C       44.55000000      45.91080000      46.49330000
C       44.66440000      54.67960000      53.27880000
C       46.50480000      44.74890000      45.51690000
C       52.87340000      44.97170000      55.07700000
C       53.62050000      55.37440000      45.42540000
C       54.62810000      55.36990000      46.44960000
C       55.16820000      46.50550000      54.38760000
C       46.66080000      54.69920000      55.30780000
C       53.59800000      44.60740000      53.86030000
C       45.69430000      55.64720000      53.24410000
C       45.47640000      44.84220000      46.54640000
C       55.59600000      53.31460000      45.47240000
C       44.54840000      46.76650000      45.34700000
C       44.58800000      53.73010000      54.36180000
C       46.54690000      45.68160000      44.45350000
C       53.61030000      54.35850000      44.44320000
C       53.32310000      45.98970000      55.89310000
