240
Lattice="100.0 0.0 0.0 0.0 100.0 0.0 0.0 0.0 100.0" Properties=species:S:1:pos:R:3 name=C-53965-5632-1409 pressure=1.55939099648602 spacegroup=Td times_found=1 energy=-1698.92289443715 pbc="T T T"
C       43.46330000      47.47900000      54.59780000
C       54.59820000      43.46360000      47.47900000
C       47.47940000      54.59850000      43.46360000
C       56.53650000      52.52050000      54.59840000
C       56.53680000      47.47970000      45.40190000
C       43.46340000      52.52090000      45.40190000
C       45.40190000      56.53680000      47.47960000
C       45.40190000      43.46310000      52.52020000
C       54.59790000      56.53650000      52.52120000
C       52.52090000      45.40240000      43.46310000
C       52.52050000      54.59770000      56.53700000
C       47.47920000      45.40150000      56.53630000
C       47.47930000      43.46300000      54.59760000
C       43.46340000      54.59820000      47.47950000
C       54.59830000      47.47980000      43.46330000
C       52.52050000      56.53640000      54.59860000
C       47.47940000      56.53690000      45.40230000
C       52.52090000      43.46370000      45.40160000
C       56.53680000      45.40220000      47.47920000
C       43.46330000      45.40170000      52.52020000
C       56.53660000      54.59800000      52.52110000
C       45.40210000      52.52110000      43.46340000
C       54.59790000      52.52030000      56.53690000
C       45.40180000      47.47880000      56.53640000
C       48.26890000      55.39630000      52.77360000
C       52.77310000      48.26870000      55.39640000
C       55.39650000      52.77340000      48.26940000
C       51.73090000      44.60340000      52.77290000
C       51.73090000      55.39670000      47.22710000
C       48.26920000      44.60370000      47.22640000
C       47.22660000      51.73060000      55.39650000
C       47.22690000      48.26940000      44.60340000
C       52.77340000      51.73130000      44.60370000
C       44.60360000      47.22680000      48.26880000
C       44.60350000      52.77310000      51.73100000
C       55.39650000      47.22670000      51.73090000
C       55.39640000      48.26890000      52.77330000
C       48.26890000      52.77290000      55.39660000
C       52.77320000      55.39660000      48.26950000
C       44.60340000      51.73070000      52.77320000
C       55.39650000      51.73120000      47.22700000
C       44.60360000      48.26920000      47.22650000
C       51.73080000      47.22640000      55.39630000
C       48.26920000      47.22710000      44.60330000
C       51.73100000      52.77360000      44.60380000
C       47.22680000      44.60360000      48.26870000
C       52.77330000      44.60350000      51.73070000
C       47.22670000      55.39630000      51.73120000
C       51.66730000      44.45210000      49.36230000
C       49.36270000      51.66760000      44.45210000
C       44.45200000      49.36240000      51.66710000
C       48.33270000      55.54800000      49.36290000
C       48.33280000      44.45200000      50.63700000
C       51.66720000      55.54790000      50.63780000
C       50.63760000      48.33310000      44.45200000
C       50.63730000      51.66690000      55.54810000
C       49.36250000      48.33240000      55.54780000
C       55.54790000      50.63740000      51.66740000
C       55.54800000      49.36270000      48.33280000
C       44.45210000      50.63750000      48.33270000
C       44.45200000      51.66720000      49.36260000
C       51.66740000      49.36290000      44.45200000
C       49.36260000      44.45190000      51.66690000
C       55.54800000      48.33290000      49.36260000
C       44.45200000      48.33270000      50.63720000
C       55.54790000      51.66730000      50.63770000
C       48.33290000      50.63780000      44.45200000
C       51.66710000      50.63710000      55.54800000
C       48.33260000      49.36220000      55.54790000
C       50.63730000      55.54790000      51.66760000
C       49.36260000      55.54810000      48.33310000
C       50.63750000      44.45220000      48.33240000
C       50.95760000      47.18290000      45.16930000
C       45.16950000      50.95760000      47.18250000
C       47.18260000      45.16940000      50.95710000
C       49.04260000      52.81770000      45.16960000
C       49.04240000      47.18230000      54.83040000
C       50.95730000      52.81710000      54.83080000
C       54.83060000      49.04270000      47.18260000
C       54.83050000      50.95740000      52.81760000
C       45.16940000      49.04230000      52.81720000
C       52.81730000      54.83050000      50.95790000
C       52.81750000      45.16950000      49.04230000
C       47.18260000      54.83060000      49.04280000
C       47.18270000      50.95780000      45.16940000
C       50.95760000      45.16960000      47.18230000
C       45.16940000      47.18250000      50.95720000
C       52.81750000      49.04280000      45.16940000
C       47.18250000      49.04220000      54.83040000
C       52.81730000      50.95720000      54.83070000
C       49.04250000      54.83070000      47.18290000
C       50.95740000      54.83040000      52.81770000
C       49.04250000      45.16930000      52.81710000
C       54.83050000      52.81740000      50.95780000
C       45.16940000      52.81740000      49.04260000
C       54.83060000      47.18270000      49.04240000
C       49.27860000      51.71270000      55.87010000
C       55.87000000      49.27870000      51.71310000
C       51.71300000      55.87010000      49.27920000
C       50.72110000      48.28660000      55.86990000
C       50.72130000      51.71340000      44.13010000
C       49.27890000      48.28730000      44.12990000
C       44.12990000      50.72100000      51.71290000
C       44.13000000      49.27880000      48.28680000
C       55.87000000      50.72140000      48.28710000
C       48.28700000      44.13000000      49.27840000
C       48.28690000      55.87000000      50.72150000
C       51.71310000      44.13000000      50.72090000
C       51.71290000      49.27840000      55.87000000
C       49.27870000      55.86990000      51.71340000
C       55.87000000      51.71310000      49.27900000
C       48.28680000      50.72080000      55.87000000
C       51.71320000      50.72160000      44.13010000
C       48.28710000      49.27910000      44.12990000
C       50.72120000      44.12990000      51.71270000
C       49.27890000      44.13010000      48.28660000
C       50.72120000      55.87010000      48.28740000
C       44.13000000      48.28700000      49.27850000
C       55.87000000      48.28700000      50.72120000
C       44.12990000      51.71290000      50.72120000
C       44.93280000      45.98040000      48.79410000
C       48.79460000      44.93300000      45.98000000
C       45.98050000      48.79470000      44.93260000
C       55.06720000      54.01970000      48.79480000
C       55.06720000      45.98040000      51.20540000
C       44.93270000      54.01950000      51.20570000
C       51.20560000      55.06750000      45.98070000
C       51.20550000      44.93250000      54.01930000
C       48.79430000      55.06700000      54.01990000
C       54.01970000      51.20590000      44.93290000
C       54.01950000      48.79410000      55.06720000
C       45.98030000      51.20520000      55.06720000
C       45.98050000      44.93280000      48.79400000
C       44.93290000      48.79460000      45.98020000
C       48.79460000      45.98070000      44.93250000
C       54.01960000      55.06740000      48.79480000
C       45.98030000      55.06710000      51.20580000
C       54.01960000      44.93270000      51.20530000
C       55.06730000      51.20590000      45.98060000
C       44.93270000      51.20530000      54.01960000
C       55.06710000      48.79420000      54.01960000
C       51.20560000      54.01990000      44.93310000
C       48.79430000      54.01930000      55.06750000
C       51.20550000      45.98010000      55.06700000
C       44.21170000      54.74050000      46.29260000
C       46.29240000      44.21140000      54.73990000
C       54.74050000      46.29290000      44.21160000
C       55.78840000      45.25990000      46.29230000
C       55.78820000      54.74020000      53.70800000
C       44.21170000      45.25930000      53.70710000
C       53.70740000      55.78800000      54.74080000
C       53.70770000      44.21200000      45.25940000
C       46.29250000      55.78860000      45.25990000
C       45.25970000      53.70790000      44.21180000
C       45.25950000      46.29200000      55.78800000
C       54.74020000      53.70720000      55.78870000
C       54.74050000      44.21200000      46.29220000
C       44.21160000      46.29210000      54.74000000
C       46.29260000      54.74070000      44.21190000
C       45.25970000      55.78850000      46.29270000
C       54.74020000      55.78810000      53.70800000
C       45.25960000      44.21140000      53.70710000
C       55.78820000      53.70730000      54.74070000
C       44.21180000      53.70780000      45.25970000
C       55.78850000      46.29280000      45.25950000
C       53.70770000      45.26000000      44.21150000
C       46.29240000      45.25920000      55.78790000
C       53.70730000      54.74000000      55.78870000
C       47.26910000      51.75840000      46.28470000
C       46.28460000      47.26890000      51.75800000
C       51.75830000      46.28480000      47.26880000
C       52.73110000      48.24200000      46.28460000
C       52.73090000      51.75800000      53.71560000
C       47.26900000      48.24150000      53.71520000
C       53.71530000      52.73090000      51.75850000
C       53.71550000      47.26920000      48.24170000
C       46.28460000      52.73100000      48.24190000
C       48.24180000      53.71550000      47.26920000
C       48.24170000      46.28440000      52.73070000
C       51.75810000      53.71520000      52.73120000
C       51.75840000      47.26930000      46.28450000
C       47.26900000      46.28450000      51.75790000
C       46.28470000      51.75840000      47.26910000
C       48.24180000      52.73120000      46.28480000
C       51.75810000      52.73070000      53.71560000
C       48.24170000      47.26880000      53.71520000
C       52.73090000      53.71530000      51.75850000
C       47.26900000      53.71550000      48.24190000
C       52.73100000      46.28480000      48.24160000
C       53.71550000      48.24200000      47.26900000
C       46.28460000      48.24150000      52.73080000
C       53.71530000      51.75810000      52.73120000
C       55.20570000      54.06540000      50.34310000
C       50.34260000      55.20550000      54.06570000
C       54.06520000      50.34240000      55.20580000
C       44.79430000      45.93460000      50.34230000
C       44.79430000      54.06530000      49.65740000
C       55.20580000      45.93480000      49.65720000
C       49.65730000      44.79400000      54.06500000
C       49.65730000      55.20600000      45.93500000
C       50.34290000      44.79460000      45.93430000
C       45.93460000      49.65690000      55.20560000
C       45.93480000      50.34300000      44.79420000
C       54.06550000      49.65770000      44.79440000
C       54.06530000      55.20570000      50.34310000
C       55.20560000      50.34250000      54.06550000
C       50.34250000      54.06500000      55.20600000
C       45.93470000      44.79420000      50.34230000
C       54.06540000      44.79440000      49.65710000
C       45.93460000      55.20570000      49.65750000
C       44.79420000      49.65700000      54.06520000
C       55.20580000      49.65760000      45.93480000
C       44.79440000      50.34290000      45.93460000
C       49.65720000      45.93430000      55.20540000
C       50.34290000      45.93500000      44.79400000
C       49.65740000      54.06570000      44.79450000
C       51.33540000      44.02870000      45.05720000
C       45.05770000      51.33560000      44.02830000
C       44.02840000      45.05740000      51.33480000
C       48.66480000      55.97190000      45.05790000
C       48.66470000      44.02800000      54.94200000
C       51.33510000      55.97130000      54.94280000
C       54.94260000      48.66520000      44.02840000
C       54.94230000      51.33490000      55.97180000
C       45.05750000      48.66430000      55.97140000
C       55.97150000      54.94240000      51.33570000
C       55.97170000      45.05770000      48.66460000
C       44.02840000      54.94240000      48.66490000
C       44.02850000      51.33550000      45.05750000
C       51.33540000      45.05800000      44.02810000
C       45.05760000      44.02820000      51.33470000
C       55.97180000      48.66510000      45.05760000
C       44.02830000      48.66440000      54.94220000
C       55.97150000      51.33500000      54.94260000
C       48.66480000      54.94280000      44.02870000
C       51.33510000      54.94210000      55.97200000
C       48.66470000      45.05720000      55.97130000
C       54.94230000      55.97160000      51.33570000
C       45.05750000      55.97170000      48.66500000
C       54.94250000      44.02850000      48.66450000
