240
Lattice="100.0 0.0 0.0 0.0 100.0 0.0 0.0 0.0 100.0" Properties=species:S:1:pos:R:3 name=C-53965-5632-1319 pressure=2.87986526063843 energy=-1793.45334864799 spacegroup=Ci times_found=1 pbc="T T T"
C       50.71570000      56.15690000      47.38010000
C       47.38970000      50.71900000      55.94960000
C       56.07590000      47.44050000      50.87040000
C       49.08960000      43.97780000      47.36860000
C       49.43170000      56.03400000      52.64870000
C       50.73500000      43.81530000      52.58060000
C       52.68680000      49.30630000      56.20070000
C       52.60190000      50.77180000      44.07400000
C       47.32540000      49.24560000      43.73400000
C       43.85100000      52.56970000      50.58740000
C       43.75610000      47.30310000      49.25320000
C       56.29070000      52.66400000      49.29800000
C       50.91040000      56.02220000      52.63140000
C       47.31320000      50.69370000      43.79930000
C       56.14900000      47.43030000      49.41260000
C       49.28430000      43.84310000      52.61990000
C       49.26500000      56.18470000      47.41940000
C       50.56830000      43.96600000      47.35130000
C       52.61030000      49.28100000      44.05040000
C       52.67460000      50.75440000      56.26600000
C       47.39810000      49.22820000      55.92600000
C       43.92410000      52.55950000      49.12960000
C       43.70930000      47.33600000      50.70200000
C       56.24390000      52.69690000      50.74680000
C       46.24310000      44.59100000      51.54110000
C       51.29650000      46.30360000      44.50480000
C       44.47110000      51.27090000      46.19670000
C       53.83550000      55.52870000      51.32090000
C       53.62710000      44.67950000      48.52350000
C       46.32860000      55.51310000      48.65670000
C       48.43290000      53.69580000      44.63590000
C       48.70880000      46.26400000      55.43760000
C       51.46940000      53.70460000      55.61570000
C       55.56630000      48.65800000      46.39680000
C       55.45300000      51.59140000      53.76830000
C       44.39330000      48.61750000      53.64060000
C       46.16450000      44.47130000      48.67910000
C       51.56710000      46.30420000      55.36410000
C       44.43370000      51.34200000      53.60320000
C       53.75690000      55.40900000      48.45890000
C       53.67140000      44.48690000      51.34330000
C       46.37290000      55.32050000      51.47650000
C       48.70350000      53.69640000      55.49520000
C       48.53060000      46.29540000      44.38430000
C       51.29120000      53.73600000      44.56240000
C       55.52890000      48.72910000      53.80330000
C       55.60670000      51.38250000      46.35940000
C       44.54700000      48.40860000      46.23170000
C       46.91660000      55.21320000      55.22490000
C       55.31930000      46.89310000      55.28460000
C       54.86460000      54.60100000      46.43250000
C       53.58630000      45.16550000      54.58240000
C       53.10590000      55.24590000      44.72050000
C       46.37740000      45.34890000      45.11990000
C       45.19740000      53.48610000      54.52690000
C       45.31850000      46.38730000      45.10010000
C       54.84180000      53.52300000      45.40850000
C       44.64670000      44.65600000      46.86290000
C       45.21150000      54.54030000      53.47710000
C       54.62070000      45.18400000      53.51890000
C       46.41370000      54.83450000      45.41760000
C       54.80260000      46.51390000      45.47310000
C       55.35330000      55.34400000      53.13710000
C       53.08340000      44.78670000      44.77510000
C       53.62260000      54.65110000      54.88010000
C       46.89410000      44.75410000      55.27950000
C       44.68070000      53.10690000      44.71540000
C       45.15820000      46.47700000      54.59150000
C       54.68150000      53.61270000      54.89990000
C       45.13540000      45.39900000      53.56750000
C       45.37930000      54.81600000      46.48110000
C       54.78850000      45.45970000      46.52290000
C       50.62230000      52.63710000      43.99730000
C       43.76570000      50.69420000      52.51350000
C       52.58410000      43.87780000      50.63940000
C       49.22540000      47.39010000      43.78120000
C       49.32580000      52.59300000      56.11860000
C       50.85610000      47.36550000      56.03530000
C       56.12030000      49.40830000      52.72140000
C       56.27020000      50.73660000      47.45740000
C       43.87000000      49.11530000      47.28900000
C       47.44630000      56.03180000      50.81710000
C       47.26770000      43.90710000      49.35160000
C       52.69980000      56.08530000      49.17240000
C       50.77460000      52.60990000      56.21880000
C       43.87970000      50.59170000      47.27860000
C       52.55370000      43.96820000      49.18290000
C       49.37770000      47.36290000      56.00270000
C       49.14390000      52.63450000      43.96470000
C       50.67420000      47.40700000      43.88140000
C       56.23430000      49.30580000      47.48650000
C       56.13000000      50.88470000      52.71100000
C       43.72980000      49.26340000      52.54260000
C       47.41590000      56.12220000      49.36060000
C       47.30020000      43.91470000      50.82760000
C       52.73230000      56.09290000      50.64840000
C       44.36080000      45.98430000      47.20760000
C       46.93940000      44.66690000      46.20600000
C       46.12240000      47.16700000      44.20900000
C       55.76430000      53.80990000      47.21000000
C       55.31010000      46.27050000      52.97390000
C       44.33890000      53.74210000      52.67820000
C       52.76040000      55.56690000      46.04240000
C       52.80710000      44.29210000      53.76370000
C       47.31180000      55.50060000      53.91040000
C       53.75450000      52.93920000      44.74960000
C       53.99630000      47.25240000      55.58280000
C       46.25620000      52.90190000      55.23530000
C       44.23570000      46.19010000      52.79000000
C       47.23960000      44.43310000      53.95760000
C       46.24550000      47.06080000      55.25040000
C       55.63920000      54.01570000      52.79240000
C       55.66110000      46.25790000      47.32180000
C       44.68990000      53.72950000      47.02610000
C       53.06060000      55.33310000      53.79400000
C       52.68820000      44.49940000      46.08960000
C       47.19290000      55.70790000      46.23630000
C       53.87760000      52.83300000      55.79100000
C       53.74380000      47.09810000      44.76470000
C       46.00370000      52.74760000      44.41720000
C       47.27390000      46.08490000      55.50370000
C       55.67770000      47.28430000      46.29230000
C       46.18860000      55.68210000      47.28070000
C       52.84280000      53.84550000      55.77030000
C       52.72220000      46.11480000      44.49980000
C       46.97730000      53.77680000      44.68880000
C       44.42860000      52.71210000      46.03550000
C       44.26350000      47.24610000      53.78730000
C       55.39330000      53.04800000      53.83500000
C       53.71290000      44.75450000      47.07400000
C       54.02730000      55.59280000      52.75850000
C       46.18950000      44.67250000      52.99700000
C       47.15720000      46.15450000      44.22970000
C       55.57140000      47.28790000      53.96450000
C       46.28710000      55.24550000      52.92600000
C       52.72610000      53.91510000      44.49630000
C       53.02270000      46.22320000      55.31120000
C       47.27780000      53.88520000      55.50020000
C       44.32230000      52.71570000      53.70770000
C       44.60670000      46.95200000      46.16500000
C       55.73650000      52.75390000      46.21270000
C       53.81140000      44.31790000      52.71930000
C       53.81050000      55.32750000      47.00300000
C       45.97270000      44.40720000      47.24150000
C       49.18410000      54.67640000      45.39660000
C       45.33630000      49.27290000      54.52940000
C       54.59970000      45.44010000      49.31490000
C       50.54970000      45.36000000      45.30940000
C       50.85450000      54.61520000      54.68920000
C       49.41200000      45.29800000      54.64660000
C       54.69560000      50.83780000      54.75240000
C       54.65150000      49.31180000      45.47990000
C       45.27060000      50.56930000      45.23440000
C       45.41070000      54.59230000      49.26960000
C       45.24530000      45.33200000      50.79070000
C       54.78970000      54.72400000      50.61560000
C       49.45030000      54.64000000      54.69060000
C       45.30440000      49.16220000      45.24760000
C       54.58930000      45.40770000      50.73040000
C       50.81590000      45.32360000      54.60340000
C       50.58800000      54.70200000      45.35340000
C       49.14550000      45.38480000      45.31080000
C       54.66370000      50.72710000      45.47060000
C       54.72940000      49.43070000      54.76560000
C       45.34850000      50.68820000      54.52010000
C       45.40030000      54.55990000      50.68510000
C       45.21030000      45.27600000      49.38440000
C       54.75470000      54.66800000      49.20930000
C       43.18230000      48.51740000      51.39290000
C       51.34920000      43.43780000      48.48970000
C       48.48900000      51.46640000      43.35570000
C       56.71870000      51.54220000      51.53140000
C       56.73220000      48.56830000      48.67090000
C       43.36870000      51.37410000      48.42550000
C       48.56420000      56.68230000      48.61350000
C       48.49960000      43.35200000      51.47370000
C       51.57700000      56.57800000      51.43670000
C       51.44930000      48.58610000      43.43720000
C       51.48280000      51.45010000      56.76720000
C       48.58600000      48.52250000      56.48340000
C       43.28130000      48.45780000      48.46860000
C       51.43580000      43.31770000      51.38650000
C       48.55070000      51.41390000      56.56280000
C       56.81770000      51.48260000      48.60710000
C       56.63130000      48.62590000      51.57450000
C       43.26780000      51.43170000      51.32910000
C       48.65080000      56.56220000      51.51030000
C       48.42300000      43.42200000      48.56330000
C       51.50040000      56.64800000      48.52630000
C       51.51100000      48.53360000      56.64430000
C       51.41400000      51.47750000      43.51660000
C       48.51720000      48.54990000      43.23280000
C       49.26570000      49.23110000      57.44610000
C       57.63710000      49.29870000      49.42000000
C       49.34450000      57.54960000      49.35310000
C       50.68680000      50.66780000      57.58650000
C       50.75420000      49.33680000      42.50650000
C       49.29360000      50.77040000      42.46790000
C       42.41600000      50.68140000      49.14350000
C       42.32170000      49.26380000      50.60280000
C       57.62530000      50.76080000      50.83950000
C       50.63290000      42.50290000      49.21410000
C       50.80970000      57.49450000      50.75170000
C       49.21240000      42.46210000      50.68650000
C       49.31320000      49.33220000      42.41350000
C       57.58400000      49.31860000      50.85650000
C       49.36710000      57.49710000      50.78590000
C       50.73430000      50.76890000      42.55390000
C       50.70640000      49.22960000      57.53210000
C       49.24580000      50.66320000      57.49350000
C       42.36290000      50.70130000      50.58000000
C       42.37470000      49.23920000      49.16050000
C       57.67830000      50.73620000      49.39720000
C       50.65550000      42.45040000      50.64690000
C       50.78760000      57.53790000      49.31350000
C       49.19030000      42.50550000      49.24830000
C       55.61960000      53.80370000      51.36560000
C       51.60790000      55.36820000      53.70670000
C       53.76690000      51.45440000      55.66190000
C       44.34200000      46.26690000      51.40770000
C       44.63550000      53.63220000      48.47610000
C       55.51380000      46.36540000      48.70230000
C       48.66370000      44.46100000      53.73210000
C       48.56930000      55.57600000      46.33280000
C       51.24940000      44.55180000      46.26490000
C       46.32720000      48.52200000      55.27340000
C       46.20400000      51.31940000      44.41870000
C       53.66600000      48.56240000      44.72380000
C       55.65800000      53.73310000      48.59230000
C       51.33630000      55.53900000      46.26790000
C       53.67280000      51.47800000      44.72660000
C       44.38040000      46.19630000      48.63440000
C       44.48620000      53.63460000      51.29770000
C       55.36450000      46.36780000      51.52390000
C       48.39210000      44.63180000      46.29330000
C       48.75060000      55.44820000      53.73510000
C       51.43070000      44.42400000      53.66720000
C       46.23310000      48.54560000      44.33810000
C       46.33400000      51.43760000      55.27620000
C       53.79600000      48.68060000      55.58130000
