240
Lattice="100.0 0.0 0.0 0.0 100.0 0.0 0.0 0.0 100.0" Properties=species:S:1:pos:R:3 name=C-53965-5632-116 pressure=-0.0119231818627535 spacegroup=Th times_found=1 energy=-1663.38606597687 pbc="T T T"
C       50.72790000      48.16780000      43.22080000
C       48.16750000      43.22090000      50.72850000
C       43.22080000      50.72880000      48.16830000
C       50.72980000      51.83220000      56.77900000
C       49.27230000      48.16650000      56.77890000
C       49.27010000      51.83340000      43.22130000
C       48.16680000      56.77890000      49.27210000
C       51.83300000      43.22120000      49.27030000
C       51.83270000      56.77890000      50.72920000
C       43.22140000      49.27070000      51.83380000
C       56.77920000      50.72890000      51.83190000
C       56.77870000      49.27160000      48.16610000
C       49.27020000      48.16780000      43.22100000
C       51.83320000      43.22110000      50.72790000
C       56.77860000      50.72930000      48.16620000
C       49.27210000      51.83220000      56.77920000
C       50.72990000      48.16660000      56.77870000
C       50.72770000      51.83350000      43.22110000
C       51.83250000      56.77910000      49.27150000
C       48.16730000      43.22110000      49.27080000
C       48.16700000      56.77880000      50.72970000
C       56.77920000      49.27120000      51.83170000
C       43.22130000      50.72840000      51.83390000
C       43.22080000      49.27110000      48.16810000
C       43.53190000      48.54070000      50.71360000
C       48.54000000      50.71330000      43.53200000
C       50.71270000      43.53190000      48.54030000
C       43.53150000      51.45880000      49.28840000
C       56.46830000      48.54130000      49.28620000
C       56.46840000      51.45910000      50.71190000
C       48.54210000      49.28660000      56.46850000
C       51.45990000      50.71220000      56.46820000
C       51.45800000      49.28790000      43.53140000
C       50.71270000      56.46820000      51.45940000
C       49.28770000      43.53150000      51.45850000
C       49.28680000      56.46840000      48.54180000
C       56.46850000      48.54120000      50.71160000
C       51.45790000      50.71340000      43.53150000
C       49.28730000      43.53180000      48.54060000
C       56.46810000      51.45930000      49.28640000
C       43.53160000      48.54090000      49.28810000
C       43.53170000      51.45870000      50.71380000
C       51.46000000      49.28670000      56.46800000
C       48.54200000      50.71210000      56.46860000
C       48.54010000      49.28780000      43.53180000
C       49.28730000      56.46810000      51.45970000
C       50.71320000      43.53160000      51.45820000
C       50.71230000      56.46850000      48.54150000
C       54.63950000      53.63300000      45.42010000
C       53.63330000      45.42020000      54.63930000
C       45.42090000      54.63980000      53.63360000
C       54.64110000      46.36730000      54.57850000
C       45.36020000      53.63180000      54.58060000
C       45.35910000      46.36780000      45.42090000
C       53.63160000      54.58010000      45.35960000
C       46.36700000      45.42080000      45.35980000
C       46.36810000      54.57900000      54.64130000
C       45.42010000      45.35990000      46.36780000
C       54.57880000      54.64080000      46.36730000
C       54.58020000      45.35950000      53.63130000
C       45.35890000      53.63270000      45.42150000
C       46.36840000      45.41990000      54.64040000
C       54.57990000      54.64010000      53.63220000
C       45.36050000      46.36700000      54.57990000
C       54.64090000      53.63220000      54.57910000
C       54.63980000      46.36820000      45.41940000
C       46.36670000      54.57980000      45.36070000
C       53.63190000      45.42100000      45.35870000
C       53.63300000      54.57920000      54.64020000
C       54.57910000      45.36020000      46.36640000
C       45.41980000      54.64050000      46.36870000
C       45.42120000      45.35920000      53.63270000
C       51.34350000      47.00100000      43.76170000
C       47.00080000      43.76190000      51.34420000
C       43.76160000      51.34440000      47.00150000
C       51.34520000      52.99910000      56.23790000
C       48.65670000      46.99980000      56.23780000
C       48.65460000      53.00010000      43.76260000
C       47.00000000      56.23790000      48.65670000
C       52.99960000      43.76240000      48.65460000
C       52.99960000      56.23780000      51.34440000
C       43.76270000      48.65520000      53.00040000
C       56.23830000      51.34430000      52.99880000
C       56.23740000      48.65620000      46.99930000
C       48.65480000      47.00090000      43.76210000
C       53.00000000      43.76210000      51.34330000
C       56.23730000      51.34480000      46.99960000
C       48.65650000      52.99900000      56.23830000
C       51.34540000      46.99990000      56.23740000
C       51.34330000      53.00020000      43.76220000
C       52.99920000      56.23810000      48.65580000
C       47.00040000      43.76220000      48.65560000
C       47.00040000      56.23760000      51.34540000
C       56.23840000      48.65560000      52.99850000
C       43.76260000      51.34380000      53.00070000
C       43.76170000      48.65570000      47.00120000
C       54.25370000      43.58830000      50.70030000
C       43.58880000      50.70090000      54.25440000
C       50.70040000      54.25400000      43.58850000
C       54.25300000      56.41200000      49.29840000
C       45.74680000      43.58810000      49.29850000
C       45.74650000      56.41160000      50.70280000
C       43.58760000      49.29860000      45.74750000
C       56.41110000      50.70220000      45.74570000
C       56.41250000      49.29830000      54.25230000
C       50.70270000      45.74610000      56.41130000
C       49.29930000      54.25270000      56.41230000
C       49.29770000      45.74720000      43.58790000
C       45.74700000      43.58800000      50.70160000
C       56.41240000      50.70140000      54.25250000
C       49.29730000      54.25390000      43.58870000
C       45.74630000      56.41170000      49.29970000
C       54.25350000      43.58840000      49.29720000
C       54.25320000      56.41190000      50.70150000
C       56.41120000      49.29910000      45.74560000
C       43.58750000      50.70170000      45.74770000
C       43.58890000      49.29780000      54.25430000
C       49.29960000      45.74600000      56.41150000
C       50.70230000      54.25280000      56.41210000
C       50.70070000      45.74730000      43.58770000
C       45.18450000      52.96390000      51.88010000
C       52.96350000      51.87970000      45.18410000
C       51.87970000      45.18420000      52.96360000
C       45.18420000      47.03570000      48.12140000
C       54.81520000      52.96470000      48.12040000
C       54.81600000      47.03570000      51.87810000
C       52.96510000      48.12060000      54.81500000
C       47.03640000      51.87850000      54.81630000
C       47.03500000      48.12120000      45.18460000
C       51.87850000      54.81600000      47.03590000
C       48.12060000      45.18460000      47.03550000
C       48.12120000      54.81530000      52.96500000
C       54.81580000      52.96430000      51.87860000
C       47.03490000      51.87940000      45.18500000
C       48.12150000      45.18400000      52.96410000
C       54.81550000      47.03610000      48.11990000
C       45.18400000      52.96430000      48.12190000
C       45.18480000      47.03530000      51.87960000
C       47.03650000      48.12030000      54.81590000
C       52.96500000      51.87880000      54.81540000
C       52.96360000      48.12150000      45.18370000
C       48.12030000      54.81580000      47.03640000
C       51.87880000      45.18470000      47.03500000
C       51.87940000      54.81540000      52.96450000
C       54.30630000      54.34450000      51.98870000
C       54.34510000      51.98870000      54.30570000
C       51.98950000      54.30580000      54.34460000
C       54.30600000      45.65580000      48.01000000
C       45.69340000      54.34450000      48.01210000
C       45.69430000      45.65510000      51.98920000
C       54.34390000      48.01160000      45.69300000
C       45.65480000      51.98920000      45.69470000
C       45.65620000      48.01050000      54.30660000
C       51.98850000      45.69430000      45.65480000
C       48.01020000      54.30650000      45.65620000
C       48.01190000      45.69340000      54.34440000
C       45.69400000      54.34420000      51.99000000
C       45.65610000      51.98840000      54.30700000
C       48.01150000      54.30570000      54.34520000
C       45.69370000      45.65550000      48.01130000
C       54.30570000      54.34490000      48.01080000
C       54.30660000      45.65550000      51.98790000
C       45.65490000      48.01130000      45.69430000
C       54.34380000      51.98950000      45.69340000
C       54.34520000      48.01080000      54.30530000
C       48.01050000      45.69420000      45.65540000
C       51.98810000      54.30660000      45.65560000
C       51.98980000      45.69350000      54.34380000
C       52.95270000      55.01830000      52.04490000
C       55.01870000      52.04480000      52.95200000
C       52.04550000      52.95220000      55.01830000
C       52.95240000      44.98190000      47.95420000
C       47.04690000      55.01840000      47.95610000
C       47.04790000      44.98140000      52.04480000
C       55.01800000      47.95560000      47.04650000
C       44.98110000      52.04500000      47.04840000
C       44.98220000      47.95470000      52.95310000
C       52.04420000      47.04800000      44.98110000
C       47.95430000      52.95300000      44.98220000
C       47.95600000      47.04690000      55.01840000
C       47.04760000      55.01810000      52.04580000
C       44.98200000      52.04440000      52.95350000
C       47.95580000      52.95200000      55.01890000
C       47.04730000      44.98170000      47.95510000
C       52.95210000      55.01860000      47.95520000
C       52.95310000      44.98160000      52.04390000
C       44.98130000      47.95520000      47.04800000
C       55.01780000      52.04530000      47.04690000
C       55.01890000      47.95500000      52.95160000
C       47.95450000      47.04780000      44.98170000
C       52.04400000      52.95310000      44.98160000
C       52.04570000      47.04700000      55.01780000
C       55.12460000      49.26070000      45.07460000
C       49.26100000      45.07490000      55.12500000
C       45.07510000      55.12520000      49.26130000
C       55.12610000      50.73970000      54.92390000
C       44.87540000      49.25940000      54.92530000
C       44.87390000      50.74020000      45.07630000
C       49.25910000      54.92500000      44.87520000
C       50.73930000      45.07590000      44.87410000
C       50.74050000      54.92410000      55.12570000
C       45.07570000      44.87440000      50.74020000
C       54.92450000      55.12540000      50.73970000
C       54.92460000      44.87490000      49.25880000
C       44.87390000      49.26030000      45.07610000
C       50.74090000      45.07500000      55.12480000
C       54.92430000      55.12560000      49.25980000
C       44.87540000      50.73930000      54.92540000
C       55.12610000      49.25980000      54.92370000
C       55.12460000      50.74060000      45.07470000
C       50.73900000      54.92510000      44.87500000
C       49.25950000      45.07590000      44.87430000
C       49.26070000      54.92410000      55.12590000
C       54.92490000      44.87480000      50.73870000
C       45.07540000      55.12510000      50.74120000
C       45.07550000      44.87460000      49.26030000
C       44.51820000      47.45910000      50.72430000
C       47.45850000      50.72410000      44.51840000
C       50.72350000      44.51820000      47.45880000
C       44.51780000      52.54050000      49.27740000
C       55.48200000      47.45970000      49.27530000
C       55.48200000      52.54070000      50.72310000
C       47.46030000      49.27570000      55.48240000
C       52.54140000      50.72330000      55.48170000
C       52.53980000      49.27690000      44.51750000
C       50.72390000      55.48180000      52.54100000
C       49.27690000      44.51770000      52.54020000
C       49.27570000      55.48220000      47.46000000
C       55.48220000      47.45950000      50.72260000
C       52.53970000      50.72430000      44.51760000
C       49.27610000      44.51820000      47.45900000
C       55.48180000      52.54090000      49.27570000
C       44.51800000      47.45930000      49.27690000
C       44.51800000      52.54030000      50.72470000
C       52.54150000      49.27590000      55.48160000
C       47.46020000      50.72310000      55.48250000
C       47.45860000      49.27670000      44.51830000
C       49.27650000      55.48180000      52.54120000
C       50.72430000      44.51780000      52.54000000
C       50.72310000      55.48230000      47.45980000
