240
Lattice="100.0 0.0 0.0 0.0 100.0 0.0 0.0 0.0 100.0" Properties=species:S:1:pos:R:3 name=C-53965-5632-1143 pressure=221.331054763494 energy=-1793.58346726556 spacegroup=C1 times_found=1 pbc="T T T"
C       54.65120000      50.78000000      54.70630000
C       50.76880000      54.56280000      54.60690000
C       54.78060000      54.64790000      50.56670000
C       45.33030000      49.17890000      54.60210000
C       54.63220000      49.23270000      45.46960000
C       45.34110000      50.92330000      45.31070000
C       49.39370000      45.22520000      54.65120000
C       50.49840000      45.30170000      45.35670000
C       49.22510000      54.66360000      45.28750000
C       45.31190000      45.42720000      50.68780000
C       54.59040000      45.35100000      49.31060000
C       45.37700000      54.81190000      49.43750000
C       54.65970000      50.64710000      45.44360000
C       50.63020000      54.66760000      45.26100000
C       54.75900000      54.58770000      49.16090000
C       45.27580000      49.51920000      45.29060000
C       54.69370000      49.37410000      54.73260000
C       45.32160000      50.58280000      54.66810000
C       49.09320000      45.34190000      45.39000000
C       50.79990000      45.25000000      54.61270000
C       49.35460000      54.58940000      54.59250000
C       45.32150000      45.42750000      49.27130000
C       54.58300000      45.32460000      50.72780000
C       45.43740000      54.76250000      50.84190000
C       51.43360000      43.23840000      51.39810000
C       43.38390000      51.55500000      51.50850000
C       51.45420000      51.40270000      43.41880000
C       48.69740000      56.71070000      51.45720000
C       51.50920000      56.56360000      48.43310000
C       48.42870000      43.28680000      48.56690000
C       56.61220000      48.55470000      51.55860000
C       43.38830000      48.73360000      48.49790000
C       56.81450000      51.39990000      48.58160000
C       48.44920000      48.56950000      43.36710000
C       51.49140000      48.46880000      56.63650000
C       48.52140000      51.33140000      56.57530000
C       51.36880000      43.30230000      48.50660000
C       43.43470000      51.65780000      48.59750000
C       51.41940000      51.40330000      56.69360000
C       48.59760000      56.68010000      48.52430000
C       51.59330000      56.56130000      51.35680000
C       48.49480000      43.30440000      51.45810000
C       56.71720000      48.48540000      48.65660000
C       43.29260000      48.62140000      51.39460000
C       56.70450000      51.47180000      51.50490000
C       48.57840000      48.40680000      56.55700000
C       51.37450000      48.51150000      43.51490000
C       48.52370000      51.48620000      43.23990000
C       56.13290000      47.34890000      49.40050000
C       47.38670000      49.08520000      56.00820000
C       49.23130000      56.10120000      47.32660000
C       43.95310000      52.79300000      49.39300000
C       56.23590000      52.62490000      50.71540000
C       43.82370000      47.46880000      50.63280000
C       52.61390000      50.70250000      56.19630000
C       47.32950000      50.81010000      43.75870000
C       52.57410000      49.20150000      44.06710000
C       50.59360000      43.82870000      47.37060000
C       49.27820000      43.79840000      52.60310000
C       50.89880000      56.03800000      52.56310000
C       56.05990000      47.36480000      50.85860000
C       47.29240000      49.36290000      43.82300000
C       49.44340000      56.13640000      52.59830000
C       43.96820000      52.74680000      50.86870000
C       56.29070000      52.58580000      49.26670000
C       43.89800000      47.51100000      49.17570000
C       52.60760000      50.69190000      44.02840000
C       47.37630000      50.56310000      56.04270000
C       52.64660000      49.25130000      56.15980000
C       50.72880000      43.75390000      52.58130000
C       49.14200000      43.80840000      47.39200000
C       50.70770000      56.07760000      47.28850000
C       49.08790000      47.38980000      43.97020000
C       47.28500000      43.84310000      49.32430000
C       43.91960000      49.51440000      47.35980000
C       50.70140000      52.59870000      43.85920000
C       49.22070000      52.53520000      56.05330000
C       50.83910000      47.28020000      56.05890000
C       52.70340000      56.00010000      49.09590000
C       47.49100000      56.23220000      50.76370000
C       52.58810000      43.78390000      50.64930000
C       56.26480000      50.65190000      47.43410000
C       43.86610000      50.75130000      52.64510000
C       56.09710000      49.34390000      52.69910000
C       49.36170000      47.25540000      56.05740000
C       47.31230000      43.88990000      50.78070000
C       43.81180000      49.30160000      52.59140000
C       50.67720000      52.55630000      56.13740000
C       49.25280000      52.63900000      43.77540000
C       50.56730000      47.36450000      44.00080000
C       52.72800000      56.02600000      50.57390000
C       47.44400000      56.21160000      49.31350000
C       52.56200000      43.85530000      49.19290000
C       56.10630000      50.82070000      52.68230000
C       43.96410000      50.99180000      47.39020000
C       56.22100000      49.22160000      47.47060000
C       55.66600000      53.65290000      48.55250000
C       53.76130000      48.62700000      55.55110000
C       48.74160000      55.52020000      53.68370000
C       44.57350000      46.42650000      48.49850000
C       55.35180000      46.29310000      51.51710000
C       44.67130000      53.78180000      51.58770000
C       46.28940000      51.26080000      55.47960000
C       53.68230000      51.40080000      44.67980000
C       46.17850000      48.75710000      44.45330000
C       51.41950000      44.35900000      53.67120000
C       48.45970000      44.44180000      46.31310000
C       51.36110000      55.47670000      46.19200000
C       55.60690000      53.73400000      51.32680000
C       53.63210000      48.48680000      44.73460000
C       48.49850000      55.44120000      46.27450000
C       44.41960000      46.36220000      51.31960000
C       55.49820000      46.28070000      48.69310000
C       44.54140000      53.88800000      48.72770000
C       46.25980000      51.52650000      44.38340000
C       53.70600000      51.39800000      55.59520000
C       46.31020000      48.40490000      55.33600000
C       51.22960000      44.45920000      46.27860000
C       48.65110000      44.41650000      53.70700000
C       51.55770000      55.32940000      53.63720000
C       46.21520000      44.49750000      48.63660000
C       44.47110000      48.83030000      46.25830000
C       48.35830000      46.33920000      44.63640000
C       53.76790000      55.32340000      48.40070000
C       46.39880000      55.63350000      51.46140000
C       53.66960000      44.40500000      51.34890000
C       55.60920000      51.29690000      46.33050000
C       44.49680000      51.35250000      53.76060000
C       55.50270000      48.66950000      53.78180000
C       51.34890000      53.69880000      44.46020000
C       48.56420000      53.62010000      55.35830000
C       51.55120000      46.22710000      55.37660000
C       46.26630000      44.62100000      51.46240000
C       44.41830000      48.58520000      53.66520000
C       48.68600000      46.16610000      55.46840000
C       53.81780000      55.45410000      51.25870000
C       46.31440000      55.62750000      48.69370000
C       53.61990000      44.58030000      48.52220000
C       55.41670000      51.53170000      53.72950000
C       44.62290000      51.68460000      46.31410000
C       55.54440000      48.57530000      46.38570000
C       51.38210000      53.64120000      55.52440000
C       48.58310000      53.74980000      44.38050000
C       51.22060000      46.25850000      44.57140000
C       44.80730000      53.10390000      55.32310000
C       53.16140000      55.19080000      44.66590000
C       54.60940000      45.12000000      53.52180000
C       55.29740000      46.84490000      55.27500000
C       44.61610000      47.00720000      44.74870000
C       54.87160000      53.43660000      45.36180000
C       46.31640000      45.23200000      45.40990000
C       53.57470000      45.10300000      54.58570000
C       46.57070000      54.82130000      54.63970000
C       45.49780000      54.86770000      53.61670000
C       54.89310000      54.51810000      46.38320000
C       45.28430000      45.26040000      46.47740000
C       45.38640000      53.69630000      45.16090000
C       53.55450000      54.58640000      54.81670000
C       54.75950000      45.37700000      46.51680000
C       54.76100000      46.43290000      45.47060000
C       45.14100000      46.40790000      54.54880000
C       54.61930000      53.55480000      54.84620000
C       46.86130000      44.66280000      55.22470000
C       53.02490000      44.73310000      44.76740000
C       46.45490000      54.72520000      45.15000000
C       44.75220000      55.42240000      46.92990000
C       55.30940000      55.27760000      53.09380000
C       45.12830000      45.38260000      53.47720000
C       47.07970000      44.33170000      46.21280000
C       44.62240000      46.35340000      47.04710000
C       45.94480000      47.33570000      44.44000000
C       52.79630000      55.50390000      45.98430000
C       47.36860000      55.69440000      53.83530000
C       52.79690000      44.22580000      53.77020000
C       55.78190000      53.72500000      47.17070000
C       44.75290000      53.82760000      53.04320000
C       55.29520000      46.20490000      52.96860000
C       53.78620000      52.86340000      44.69010000
C       46.12740000      52.70060000      55.56070000
C       53.97310000      47.19950000      55.57110000
C       47.22120000      44.40200000      53.89640000
C       44.26550000      46.21380000      52.69630000
C       46.21770000      46.95360000      55.26270000
C       53.00610000      55.26890000      53.72630000
C       47.04180000      55.41480000      46.21730000
C       52.65830000      44.42660000      46.08480000
C       55.61200000      53.95220000      52.75300000
C       44.47190000      54.09820000      47.29350000
C       55.63840000      46.17380000      47.31100000
C       53.80190000      52.77610000      55.72270000
C       46.16380000      52.90530000      44.25580000
C       53.69370000      47.02530000      44.78180000
C       53.00730000      46.15960000      55.31210000
C       46.31610000      55.74610000      52.84110000
C       55.75440000      52.66580000      46.17650000
C       47.11590000      53.72200000      55.30990000
C       52.77740000      53.86200000      44.42980000
C       46.90020000      46.28500000      44.69210000
C       53.80350000      44.24820000      52.72670000
C       46.07510000      44.36230000      47.25830000
C       53.83590000      55.24570000      46.94700000
C       44.38190000      47.39380000      46.07560000
C       55.55110000      47.22990000      53.95280000
C       44.49410000      52.77600000      53.99610000
C       52.65530000      46.06270000      44.52050000
C       46.08890000      55.67450000      47.26950000
C       55.35110000      52.98790000      53.79420000
C       47.20860000      53.90710000      44.24850000
C       52.75730000      53.77970000      55.68860000
C       47.24680000      45.97890000      55.51470000
C       53.69150000      44.66430000      47.06950000
C       46.19270000      44.67270000      52.91540000
C       53.98820000      55.52220000      52.69910000
C       44.26940000      47.20950000      53.74890000
C       55.64550000      47.20150000      46.28310000
C       44.69670000      53.13750000      46.24440000
C       57.56750000      49.24310000      50.84070000
C       49.24220000      50.60250000      57.50180000
C       50.83910000      57.49410000      49.19890000
C       42.47470000      50.86750000      50.72150000
C       57.66930000      50.65330000      49.37700000
C       42.47500000      49.46170000      49.23670000
C       50.70520000      49.17650000      57.53020000
C       49.25940000      49.25090000      42.47400000
C       50.74120000      50.65860000      42.49770000
C       49.19390000      42.38460000      49.27620000
C       50.65310000      42.36100000      50.67430000
C       49.44480000      57.57090000      50.67420000
C       57.62370000      49.21610000      49.40440000
C       49.29980000      50.68830000      42.41500000
C       50.87640000      57.50090000      50.64180000
C       42.50750000      50.90360000      49.28330000
C       57.61210000      50.68520000      50.81920000
C       42.43400000      49.42510000      50.66950000
C       50.70080000      49.22710000      42.55180000
C       49.26680000      49.15970000      57.48400000
C       50.67480000      50.61990000      57.55520000
C       49.20660000      42.38030000      50.70890000
C       50.64070000      42.37920000      49.24150000
C       49.40180000      57.55780000      49.23100000
