240
Lattice="100.0 0.0 0.0 0.0 100.0 0.0 0.0 0.0 100.0" Properties=species:S:1:pos:R:3 name=C-53965-5632-387 pressure=-25.2719676658125 spacegroup=C1 times_found=1 energy=-1733.59059633524 pbc="T T T"
C       48.79220000      55.84650000      45.71910000
C       55.92210000      45.60780000      48.52060000
C       45.82770000      48.37700000      55.59330000
C       51.47410000      44.34330000      45.97840000
C       48.69600000      44.19140000      54.44710000
C       51.17940000      55.70180000      54.34740000
C       43.96420000      54.39620000      48.46450000
C       55.88250000      54.13700000      51.43920000
C       44.16120000      45.88330000      51.30770000
C       54.02080000      51.62020000      55.58250000
C       45.73740000      51.51980000      44.09360000
C       54.21550000      48.69040000      43.85060000
C       48.40240000      55.64290000      54.18210000
C       56.14000000      45.68380000      51.45380000
C       45.66880000      48.74780000      44.21350000
C       51.49710000      44.13480000      54.41900000
C       48.70510000      44.17420000      45.95610000
C       51.66460000      55.59250000      45.84650000
C       44.08460000      54.40900000      51.39890000
C       55.77720000      54.24020000      48.67770000
C       44.49340000      45.97130000      48.46510000
C       54.18930000      51.40440000      43.97550000
C       45.62970000      51.16030000      56.05230000
C       54.22560000      48.89060000      55.95380000
C       56.19430000      52.99720000      49.26280000
C       52.98070000      49.45480000      56.30720000
C       49.15090000      56.09570000      53.02500000
C       43.89100000      47.10250000      49.17320000
C       56.25940000      46.88510000      50.59660000
C       43.78150000      53.15290000      50.70820000
C       46.86190000      50.54120000      56.39090000
C       52.99230000      50.74060000      43.50590000
C       46.89180000      49.35840000      43.75640000
C       50.77590000      43.70460000      53.23300000
C       49.39560000      43.75990000      47.15260000
C       50.90710000      56.14550000      46.98590000
C       56.24830000      52.95430000      50.70080000
C       52.98560000      49.31660000      43.50480000
C       49.46610000      56.22840000      46.93510000
C       43.76720000      47.07240000      50.61280000
C       56.19220000      46.88780000      49.18380000
C       43.74880000      53.18080000      49.29110000
C       46.92310000      50.80830000      43.71110000
C       52.90720000      50.86820000      56.24390000
C       46.93150000      49.10640000      56.23740000
C       50.82590000      43.84650000      47.17070000
C       49.33090000      43.73870000      53.23200000
C       50.59410000      56.12770000      53.10310000
C       55.89060000      53.09580000      46.49040000
C       53.23490000      46.67740000      55.66540000
C       46.37940000      55.76350000      52.78870000
C       44.07130000      47.25750000      46.54620000
C       56.14960000      46.61940000      53.24610000
C       44.07550000      53.31740000      53.49340000
C       46.65710000      53.33400000      56.36850000
C       53.08450000      53.45670000      43.33300000
C       46.86130000      46.58870000      44.13390000
C       53.57320000      43.97740000      53.28940000
C       46.66830000      43.51200000      47.08370000
C       53.54100000      55.97810000      47.18490000
C       56.40270000      52.86610000      53.42800000
C       53.07800000      46.54390000      43.70330000
C       46.67160000      56.03590000      46.76040000
C       43.46910000      47.00160000      53.33740000
C       55.82590000      46.67150000      46.41340000
C       43.92900000      53.52520000      46.62360000
C       47.00690000      53.61700000      44.14550000
C       52.77360000      53.53260000      56.25370000
C       47.14820000      46.48500000      56.02100000
C       53.57630000      44.18830000      47.24680000
C       46.56520000      44.07530000      53.21320000
C       53.38150000      55.91320000      53.27910000
C       56.33070000      48.07590000      48.35810000
C       48.16170000      48.43550000      56.58280000
C       48.63710000      56.49570000      48.11160000
C       43.52010000      51.99630000      48.47330000
C       56.49250000      51.71480000      51.42870000
C       43.42520000      48.25940000      51.38480000
C       51.69990000      51.52730000      56.61680000
C       48.13690000      51.56870000      43.46530000
C       51.78110000      48.51830000      43.34680000
C       51.60770000      43.58280000      48.39160000
C       48.54940000      43.51340000      52.01140000
C       51.44840000      56.39590000      51.94250000
C       56.44030000      48.10540000      51.38830000
C       48.08930000      48.54310000      43.53830000
C       48.43620000      56.35340000      51.76770000
C       43.57120000      51.96090000      51.51170000
C       56.37990000      51.81160000      48.42750000
C       43.54280000      48.32160000      48.47350000
C       51.79860000      51.49770000      43.22710000
C       48.02330000      51.38400000      56.68570000
C       51.85730000      48.56530000      56.52550000
C       51.56060000      43.45160000      52.03990000
C       48.62900000      43.43710000      48.33820000
C       51.57030000      56.46120000      48.23770000
C       54.96510000      51.07110000      54.80890000
C       50.43620000      54.98050000      55.27850000
C       55.09490000      55.12360000      50.85830000
C       44.85480000      49.15930000      54.92020000
C       55.08500000      49.30990000      44.75820000
C       44.75320000      50.90680000      44.85440000
C       49.42400000      44.91300000      55.40000000
C       50.74410000      45.06480000      45.01990000
C       49.49890000      55.07330000      44.80180000
C       45.02580000      44.99280000      50.68810000
C       55.11410000      44.69540000      49.06330000
C       45.08490000      55.30830000      48.24160000
C       55.08080000      50.72430000      44.81760000
C       50.91700000      54.98280000      44.81620000
C       55.06810000      55.17180000      49.44380000
C       44.72090000      49.49410000      44.91790000
C       55.09020000      48.67980000      54.95330000
C       44.81170000      50.57450000      55.09740000
C       49.32980000      45.01620000      45.03590000
C       50.83350000      44.90790000      55.37090000
C       49.02220000      54.94760000      55.21820000
C       45.14450000      45.00180000      49.26390000
C       55.07680000      44.72200000      51.74070000
C       44.95150000      55.29800000      50.91550000
C       47.42530000      55.99420000      45.67540000
C       56.33320000      45.67100000      47.19660000
C       45.99580000      46.91290000      55.50720000
C       52.86790000      44.28780000      46.05950000
C       47.29400000      44.15860000      54.38200000
C       52.58260000      55.76200000      54.38680000
C       43.09430000      54.37180000      47.33850000
C       56.14280000      54.06350000      52.80080000
C       43.80790000      45.85370000      52.66330000
C       53.88780000      53.10060000      55.65120000
C       45.84340000      52.91500000      44.06690000
C       54.19480000      47.32120000      43.60800000
C       47.01700000      55.68100000      54.01530000
C       57.03490000      45.80860000      52.54960000
C       45.70930000      47.34270000      44.20970000
C       52.86460000      44.05770000      54.39820000
C       47.34720000      43.84940000      45.93630000
C       53.12550000      55.50990000      46.00880000
C       43.62050000      54.33890000      52.70530000
C       55.82870000      54.22990000      47.27410000
C       44.56610000      46.10490000      46.99440000
C       54.21960000      52.76770000      43.69850000
C       45.56390000      52.52650000      56.34510000
C       54.42470000      47.52220000      55.58540000
C       52.97780000      43.72700000      52.01210000
C       43.89150000      51.94450000      52.98870000
C       51.78080000      52.94500000      43.36870000
C       47.01820000      56.05500000      51.58440000
C       53.00160000      56.23280000      48.38170000
C       47.17900000      43.57630000      48.38530000
C       56.14210000      48.05170000      52.83900000
C       43.77340000      48.46000000      47.04320000
C       56.06000000      51.78250000      46.97650000
C       48.15660000      47.08620000      43.90370000
C       51.97180000      47.13030000      56.14690000
C       47.97440000      52.84360000      56.43330000
C       53.02540000      43.89660000      48.49270000
C       43.80500000      52.10360000      47.02070000
C       51.55960000      52.97440000      56.43990000
C       47.21890000      56.24400000      48.06440000
C       52.91780000      56.13570000      51.97510000
C       47.08370000      43.86170000      51.92610000
C       55.98950000      48.05730000      46.90240000
C       43.54830000      48.30380000      52.82880000
C       56.29510000      51.59010000      52.87440000
C       48.33330000      47.01340000      56.33830000
C       51.76930000      47.07780000      43.69920000
C       48.23890000      53.02330000      43.80810000
C       49.34710000      43.18830000      50.92310000
C       43.24830000      50.88360000      49.23830000
C       50.65340000      49.28380000      43.10340000
C       50.72390000      56.69830000      50.80040000
C       49.34180000      56.76880000      49.27450000
C       50.82520000      43.21290000      49.47580000
C       56.62230000      49.20310000      49.12440000
C       43.19740000      49.40610000      50.66660000
C       56.71010000      50.64470000      50.59550000
C       49.20660000      50.75410000      43.13130000
C       50.64310000      50.70080000      56.93370000
C       49.23350000      49.22580000      56.92260000
C       49.38920000      43.19440000      49.45530000
C       43.25370000      50.86570000      50.70620000
C       50.69990000      49.25020000      56.88780000
C       50.77720000      56.75520000      49.32730000
C       49.28170000      56.70240000      50.72980000
C       50.78800000      43.16900000      50.93040000
C       56.67580000      49.19320000      50.58290000
C       43.21130000      49.42200000      49.22880000
C       56.65550000      50.67240000      49.15400000
C       49.18250000      50.66900000      56.95250000
C       50.66910000      50.72480000      43.04480000
C       49.18480000      49.30620000      43.18110000
C       54.10800000      44.87140000      46.15980000
C       44.22880000      46.03780000      53.96400000
C       45.82590000      54.03280000      44.87770000
C       45.42080000      55.36870000      46.86790000
C       53.81840000      55.16690000      54.36910000
C       46.08450000      44.79450000      54.30120000
C       55.66280000      53.85110000      54.07200000
C       45.01200000      54.36200000      45.99360000
C       54.88410000      45.91000000      45.61060000
C       54.25740000      46.20030000      44.40080000
C       45.33830000      45.89940000      54.75440000
C       54.55440000      54.06720000      54.85420000
C       54.79430000      44.67870000      53.12920000
C       45.29730000      45.42060000      45.98320000
C       45.53090000      53.68490000      55.59610000
C       45.79120000      55.08710000      53.85750000
C       54.13190000      54.76860000      45.32260000
C       46.05280000      44.28740000      46.12510000
C       55.21060000      54.23190000      46.05620000
C       44.99280000      54.03690000      54.36090000
C       55.16160000      45.73840000      53.95640000
C       54.33050000      46.15160000      55.04880000
C       45.76500000      46.14350000      44.86610000
C       54.01150000      54.05160000      44.16230000
C       55.77200000      50.71060000      46.11400000
C       50.91820000      46.20640000      56.04040000
C       46.13140000      55.79420000      50.45490000
C       43.97570000      49.55670000      46.17490000
C       55.72240000      49.09780000      53.74230000
C       44.11530000      50.78450000      53.80420000
C       48.98840000      53.74860000      56.09100000
C       50.81890000      53.81680000      43.88000000
C       49.23670000      46.23570000      44.21080000
C       53.95690000      44.13940000      51.02640000
C       46.30760000      44.07680000      49.36220000
C       53.85120000      55.97290000      49.48340000
C       55.71710000      50.58200000      53.76470000
C       50.72770000      46.25020000      44.14900000
C       46.19290000      55.84510000      49.00640000
C       44.01190000      49.29890000      53.69680000
C       55.74160000      49.19680000      46.07970000
C       44.03710000      51.02340000      46.15580000
C       49.35430000      53.86340000      44.00910000
C       50.44980000      53.79910000      56.13760000
C       49.45500000      46.17740000      56.13870000
C       53.96340000      44.17750000      49.57510000
C       46.23810000      44.16710000      50.83580000
C       53.83840000      55.90150000      50.94430000
