240
Lattice="100.0 0.0 0.0 0.0 100.0 0.0 0.0 0.0 100.0" Properties=species:S:1:pos:R:3 name=C-53965-5632-737 pressure=-6.10482590522674 spacegroup=C1 times_found=1 energy=-1733.8318934442 pbc="T T T"
C       49.46930000      42.98200000      52.53690000
C       52.45060000      49.12160000      43.04950000
C       42.89050000      52.60350000      49.19850000
C       50.43110000      56.75300000      52.62710000
C       50.79490000      43.39610000      47.43920000
C       49.17590000      56.36540000      47.57310000
C       47.56740000      50.87510000      43.05920000
C       47.64040000      49.28460000      56.30950000
C       52.62090000      50.90610000      56.58000000
C       56.89060000      47.38090000      49.37780000
C       56.40370000      52.32210000      50.73890000
C       43.44140000      47.71090000      50.69770000
C       49.36090000      43.28000000      47.50620000
C       52.60420000      49.46220000      56.63350000
C       42.84920000      52.62010000      50.64780000
C       50.60890000      56.48300000      47.65220000
C       50.89600000      42.93930000      52.49360000
C       48.98670000      56.60280000      52.61740000
C       47.61660000      50.70850000      56.52020000
C       47.48040000      49.45090000      43.06000000
C       52.54810000      50.55290000      43.02020000
C       56.88210000      47.37440000      50.82630000
C       56.22400000      52.34200000      49.31180000
C       43.50640000      47.70970000      49.26640000
C       49.37990000      50.77230000      44.39640000
C       44.62830000      49.66560000      50.70930000
C       50.83570000      44.46150000      49.36990000
C       50.68590000      49.28630000      44.40720000
C       50.85600000      50.91850000      55.24070000
C       49.48760000      49.47750000      55.06080000
C       55.19340000      50.37880000      50.83770000
C       55.30530000      48.98890000      49.39830000
C       44.49290000      51.03920000      49.26310000
C       49.14370000      55.17300000      49.47370000
C       49.43140000      44.38670000      50.79490000
C       50.52490000      55.27390000      50.91870000
C       49.45990000      50.89390000      55.20240000
C       44.68990000      49.65890000      49.29060000
C       50.86920000      44.34130000      50.75830000
C       50.88590000      49.49980000      55.12490000
C       50.77060000      50.71700000      44.38800000
C       49.29560000      49.34840000      44.43340000
C       55.11780000      50.37410000      49.42080000
C       55.35530000      48.99160000      50.83620000
C       44.43940000      51.04780000      50.70090000
C       49.10240000      55.25670000      50.87080000
C       49.41350000      44.48190000      49.40570000
C       50.56260000      55.19370000      49.52260000
C       48.86700000      51.41180000      43.23430000
C       43.54490000      48.97560000      51.30930000
C       51.42920000      43.37410000      48.69910000
C       51.14270000      48.59800000      43.24480000
C       51.34370000      51.47850000      56.44600000
C       48.94070000      48.74840000      56.13820000
C       56.29570000      51.06610000      51.39050000
C       56.51180000      48.59670000      48.73550000
C       43.29000000      51.39090000      48.56700000
C       48.53680000      56.26980000      48.83010000
C       48.78370000      43.22410000      51.30720000
C       51.12670000      56.45540000      51.42740000
C       48.85900000      51.38450000      56.39430000
C       43.66540000      48.95360000      48.63000000
C       51.46970000      43.11640000      51.20010000
C       51.43210000      48.79370000      56.21930000
C       51.34890000      51.29300000      43.21760000
C       48.65970000      48.72240000      43.33320000
C       56.13500000      51.05910000      48.73730000
C       56.58620000      48.60140000      51.44660000
C       43.19630000      51.41990000      51.31460000
C       48.44260000      56.41990000      51.32820000
C       48.77540000      43.36430000      48.80360000
C       51.18830000      56.32330000      48.93900000
C       47.54370000      44.23760000      53.22900000
C       52.91920000      47.08890000      44.29160000
C       44.10520000      53.33210000      47.23240000
C       52.56480000      55.88910000      53.40140000
C       52.78850000      44.63960000      46.85560000
C       47.14570000      55.27250000      46.87100000
C       47.05860000      52.90340000      44.26410000
C       47.05440000      47.27000000      55.15150000
C       53.18760000      52.96920000      55.45630000
C       55.76680000      46.65430000      47.35830000
C       55.59990000      52.99860000      52.92210000
C       44.49350000      47.10820000      52.77680000
C       47.26340000      44.29460000      46.99090000
C       53.47380000      47.29720000      55.88970000
C       43.98510000      53.35680000      52.67420000
C       52.77190000      55.52560000      47.10450000
C       52.92620000      44.07990000      53.03760000
C       46.96600000      55.38020000      53.18520000
C       46.94210000      52.88200000      55.65120000
C       46.61770000      47.43420000      44.06970000
C       53.29340000      52.52290000      44.18680000
C       55.55770000      46.72840000      52.85570000
C       55.15780000      52.98420000      47.26590000
C       44.72220000      47.00230000      47.25680000
C       54.37210000      48.97630000      44.61150000
C       44.21990000      54.67930000      49.22940000
C       49.62640000      44.54380000      54.47350000
C       45.59760000      51.00210000      44.55680000
C       45.48570000      49.46010000      55.23010000
C       54.79190000      50.79890000      55.54260000
C       55.58250000      45.30880000      49.35490000
C       55.16940000      54.37910000      50.98950000
C       44.89200000      45.72410000      50.83240000
C       50.58740000      55.65430000      54.75830000
C       50.52360000      44.72110000      45.41620000
C       49.43190000      55.24770000      45.45060000
C       54.77570000      49.32060000      55.65740000
C       44.18340000      54.68820000      50.67650000
C       49.04000000      44.75030000      45.56060000
C       45.56860000      50.94480000      55.25280000
C       45.45480000      49.55650000      44.44360000
C       54.49810000      50.42920000      44.52930000
C       55.51770000      45.36550000      50.81400000
C       55.15810000      54.49950000      49.51110000
C       44.89200000      45.70670000      49.36280000
C       50.90800000      55.21280000      45.61290000
C       51.09170000      44.57900000      54.38990000
C       49.10560000      55.53270000      54.78250000
C       49.43380000      52.70360000      43.37130000
C       43.53240000      49.45640000      52.63750000
C       52.75940000      43.45310000      49.18500000
C       50.55440000      47.31050000      43.41420000
C       50.78510000      52.79090000      56.47720000
C       49.50590000      47.43940000      56.04970000
C       56.41470000      50.61770000      52.72210000
C       56.25420000      49.05470000      47.39110000
C       43.63040000      50.91000000      47.23920000
C       47.19320000      56.26330000      49.27590000
C       47.45850000      43.55270000      50.86120000
C       52.49870000      56.34910000      50.97950000
C       49.29680000      52.72010000      56.50570000
C       43.79830000      49.39900000      47.28870000
C       52.79870000      43.32360000      50.67460000
C       51.01670000      47.42970000      56.07540000
C       50.93670000      52.65290000      43.44900000
C       49.04520000      47.35660000      43.53170000
C       56.11860000      50.54670000      47.41480000
C       56.44970000      49.10880000      52.78140000
C       43.44820000      50.95320000      52.66690000
C       47.13470000      56.32550000      50.77280000
C       47.44430000      43.54690000      49.36230000
C       52.50270000      56.34440000      49.47770000
C       44.91160000      54.37240000      52.86700000
C       53.36100000      45.21220000      53.78320000
C       54.25830000      52.67880000      45.16580000
C       54.53040000      45.69750000      53.00280000
C       54.23480000      53.56930000      46.25620000
C       45.70730000      45.94280000      47.07380000
C       46.01030000      54.37640000      53.74980000
C       46.80450000      45.40720000      46.23330000
C       53.14170000      54.49950000      46.18030000
C       45.45270000      47.21860000      44.74970000
C       46.00310000      53.24090000      54.63450000
C       54.69710000      46.99100000      55.33750000
C       45.04620000      54.33960000      47.07900000
C       53.74120000      45.65130000      46.29330000
C       53.72250000      53.93420000      54.45010000
C       54.84330000      45.64010000      47.16570000
C       54.58440000      53.93550000      53.29650000
C       45.56020000      46.21800000      53.10000000
C       46.18450000      54.31640000      46.25220000
C       47.38420000      45.20160000      54.20400000
C       52.82050000      55.01970000      54.45490000
C       46.48420000      46.28170000      54.19970000
C       46.15630000      53.21960000      45.32260000
C       53.79020000      46.76290000      45.37490000
C       48.19490000      53.54700000      56.08580000
C       55.87690000      48.05090000      53.57190000
C       53.37050000      55.91220000      48.40640000
C       52.17210000      46.64900000      55.63360000
C       52.03520000      53.27740000      44.19620000
C       47.90530000      46.71370000      44.20690000
C       44.09450000      52.06870000      53.36070000
C       44.38100000      48.31710000      46.54760000
C       55.56800000      51.60470000      46.67250000
C       46.70240000      44.15300000      48.31920000
C       46.35850000      55.77570000      51.80950000
C       53.54620000      43.91800000      51.73080000
C       48.36880000      53.52080000      43.90220000
C       55.66490000      47.93820000      46.66990000
C       53.23430000      55.78110000      52.11070000
C       51.61260000      46.47920000      43.92110000
C       51.81380000      53.56710000      55.89610000
C       48.44330000      46.68510000      55.53660000
C       44.23810000      52.04020000      46.55180000
C       44.05610000      48.37220000      53.43740000
C       56.04490000      51.73510000      53.55870000
C       46.81520000      44.28430000      51.95370000
C       46.47170000      55.71010000      48.20270000
C       53.45330000      44.15850000      48.18160000
C       45.08740000      52.04830000      54.40560000
C       54.58090000      44.87830000      51.76120000
C       51.99890000      54.32110000      45.19200000
C       55.34710000      48.19240000      54.88780000
C       54.97910000      51.46830000      45.40060000
C       44.89680000      48.44050000      45.23670000
C       45.08940000      55.15810000      51.69000000
C       45.71330000      45.15750000      48.34330000
C       54.56450000      55.46070000      48.80560000
C       47.90820000      45.66680000      45.21280000
C       48.48190000      54.79670000      55.70370000
C       52.21680000      45.52200000      54.72200000
C       45.20820000      52.05720000      45.49550000
C       54.68950000      44.82900000      48.33020000
C       51.65430000      54.83000000      55.26740000
C       54.73240000      47.92620000      45.57540000
C       55.70420000      51.44920000      54.82080000
C       44.54170000      48.74210000      54.62540000
C       45.17920000      55.13090000      48.25810000
C       45.78020000      45.28340000      51.92240000
C       54.32790000      54.84110000      52.10100000
C       48.58750000      45.42180000      54.93700000
C       48.75450000      54.65780000      44.47400000
C       51.22760000      45.33870000      44.48250000
C       51.43780000      44.19830000      46.49050000
C       46.63720000      51.62160000      43.74850000
C       44.06770000      46.74110000      51.44490000
C       48.51710000      55.68890000      46.55000000
C       48.85640000      43.68030000      53.53930000
C       51.20920000      56.36500000      53.67700000
C       53.35540000      48.36520000      43.77450000
C       53.61680000      51.63380000      55.92670000
C       46.64640000      48.59670000      55.61870000
C       55.93950000      53.32240000      51.55160000
C       56.34160000      46.34930000      48.66560000
C       43.47490000      53.63890000      48.51260000
C       51.64380000      43.63060000      53.44820000
C       46.61920000      51.51450000      56.02380000
C       44.18330000      46.73240000      48.60170000
C       48.27940000      55.90280000      53.60280000
C       48.55150000      43.87840000      46.56130000
C       51.44640000      55.95420000      46.70110000
C       53.67960000      48.70090000      56.31010000
C       53.57260000      51.18520000      43.66440000
C       46.41340000      48.83110000      43.62640000
C       55.56690000      53.35960000      48.62460000
C       56.20120000      46.41270000      51.54730000
C       43.40910000      53.65360000      51.36290000
