240
Lattice="100.0 0.0 0.0 0.0 100.0 0.0 0.0 0.0 100.0" Properties=species:S:1:pos:R:3 name=C-53965-5632-166 pressure=-5.66086941771024 spacegroup=Td times_found=1 energy=-1713.62422396714 pbc="T T T"
C       44.75440000      51.59210000      45.80380000
C       45.80400000      44.75440000      51.59240000
C       51.59230000      45.80370000      44.75450000
C       44.75430000      48.40790000      54.19610000
C       55.24570000      48.40760000      45.80400000
C       55.24560000      51.59240000      54.19610000
C       45.80390000      55.24560000      48.40750000
C       54.19600000      55.24570000      51.59210000
C       54.19610000      44.75430000      48.40790000
C       51.59220000      54.19630000      55.24550000
C       48.40780000      54.19590000      44.75420000
C       48.40770000      45.80410000      55.24580000
C       44.75440000      45.80400000      51.59230000
C       45.80400000      51.59200000      44.75420000
C       51.59230000      44.75420000      45.80410000
C       44.75440000      54.19600000      48.40750000
C       55.24570000      45.80380000      48.40790000
C       55.24560000      54.19610000      51.59220000
C       45.80390000      48.40790000      55.24570000
C       54.19600000      51.59240000      55.24560000
C       54.19610000      48.40750000      44.75440000
C       51.59220000      55.24580000      54.19590000
C       48.40770000      44.75450000      54.19620000
C       48.40780000      55.24550000      45.80370000
C       52.94470000      45.03920000      53.96000000
C       53.95980000      52.94450000      45.03900000
C       45.03900000      53.95980000      52.94450000
C       52.94470000      54.96070000      46.04010000
C       47.05520000      54.96110000      53.95950000
C       47.05540000      45.03890000      46.04040000
C       53.95970000      47.05550000      54.96110000
C       46.04040000      47.05510000      45.03910000
C       46.04020000      52.94490000      54.96080000
C       45.03910000      46.04020000      47.05540000
C       54.96090000      46.04040000      52.94490000
C       54.96090000      53.95960000      47.05520000
C       52.94470000      53.95950000      45.03900000
C       53.95970000      45.03920000      52.94490000
C       45.03900000      52.94490000      53.95960000
C       52.94470000      46.04040000      54.96110000
C       47.05520000      53.95990000      54.96070000
C       47.05540000      46.04010000      45.03920000
C       53.95970000      54.96080000      47.05510000
C       46.04030000      45.03900000      47.05540000
C       46.04020000      54.96100000      52.94450000
C       45.03910000      47.05510000      46.04030000
C       54.96090000      52.94450000      46.04020000
C       54.96090000      47.05550000      53.95990000
C       47.37170000      51.62680000      53.62570000
C       53.62560000      47.37190000      51.62690000
C       51.62670000      53.62560000      47.37160000
C       47.37180000      48.37320000      46.37430000
C       52.62820000      48.37350000      53.62590000
C       52.62830000      51.62650000      46.37420000
C       53.62570000      52.62820000      48.37330000
C       46.37430000      52.62830000      51.62660000
C       46.37430000      47.37170000      48.37340000
C       51.62660000      46.37440000      52.62850000
C       48.37340000      46.37420000      47.37190000
C       48.37330000      53.62580000      52.62810000
C       47.37170000      53.62580000      51.62650000
C       53.62570000      51.62650000      47.37170000
C       51.62660000      47.37190000      53.62600000
C       47.37180000      46.37420000      48.37340000
C       52.62820000      53.62560000      48.37320000
C       52.62820000      46.37440000      51.62690000
C       53.62560000      48.37350000      52.62840000
C       46.37430000      51.62680000      52.62820000
C       46.37430000      48.37320000      47.37170000
C       51.62670000      52.62810000      46.37420000
C       48.37340000      47.37160000      46.37430000
C       48.37330000      52.62840000      53.62560000
C       48.43540000      53.31800000      55.03420000
C       55.03420000      48.43560000      53.31790000
C       53.31770000      55.03420000      48.43530000
C       48.43550000      46.68210000      44.96580000
C       51.56450000      46.68240000      55.03450000
C       51.56460000      53.31750000      44.96560000
C       55.03430000      51.56440000      46.68230000
C       44.96570000      51.56470000      53.31760000
C       44.96580000      48.43530000      46.68230000
C       53.31770000      44.96590000      51.56480000
C       46.68230000      44.96570000      48.43560000
C       46.68230000      55.03430000      51.56430000
C       48.43540000      55.03440000      53.31750000
C       55.03430000      53.31760000      48.43540000
C       53.31770000      48.43560000      55.03450000
C       48.43550000      44.96560000      46.68240000
C       51.56460000      55.03410000      46.68210000
C       51.56450000      44.96590000      53.31800000
C       55.03420000      46.68240000      51.56470000
C       44.96570000      53.31780000      51.56440000
C       44.96580000      46.68220000      48.43550000
C       53.31780000      51.56440000      44.96570000
C       46.68240000      48.43520000      44.96570000
C       46.68220000      51.56480000      55.03420000
C       43.05950000      51.45110000      47.52020000
C       47.52030000      43.05950000      51.45140000
C       51.45130000      47.52000000      43.05950000
C       43.05940000      48.54890000      52.47970000
C       56.94060000      48.54870000      47.52040000
C       56.94060000      51.45130000      52.47970000
C       47.52030000      56.94050000      48.54850000
C       52.47970000      56.94060000      51.45090000
C       52.47980000      43.05940000      48.54910000
C       51.45110000      52.48000000      56.94050000
C       48.54890000      52.47950000      43.05930000
C       48.54870000      47.52060000      56.94070000
C       43.05940000      47.52030000      51.45120000
C       47.52040000      51.45090000      43.05930000
C       51.45120000      43.05930000      47.52060000
C       43.05940000      52.47960000      48.54870000
C       56.94060000      47.52020000      48.54900000
C       56.94060000      52.47980000      51.45120000
C       47.52020000      48.54910000      56.94060000
C       52.47960000      51.45150000      56.94060000
C       52.47980000      48.54860000      43.05940000
C       51.45110000      56.94070000      52.47950000
C       48.54880000      43.05950000      52.47990000
C       48.54880000      56.94050000      47.52000000
C       56.86070000      48.25250000      50.75900000
C       50.75890000      56.86070000      48.25220000
C       48.25240000      50.75910000      56.86070000
C       56.86070000      51.74750000      49.24120000
C       43.13930000      51.74750000      50.75870000
C       43.13930000      48.25240000      49.24110000
C       50.75890000      43.13930000      51.74780000
C       49.24120000      43.13920000      48.25270000
C       49.24110000      56.86080000      51.74720000
C       48.25260000      49.24090000      43.13920000
C       51.74740000      49.24140000      56.86090000
C       51.74760000      50.75860000      43.13920000
C       56.86070000      50.75880000      48.25250000
C       50.75880000      48.25270000      56.86090000
C       48.25250000      56.86080000      50.75860000
C       56.86070000      49.24120000      51.74760000
C       43.13930000      50.75890000      51.74740000
C       43.13930000      49.24100000      48.25240000
C       50.75890000      51.74720000      43.13920000
C       49.24120000      48.25220000      43.13930000
C       49.24100000      51.74780000      56.86070000
C       48.25250000      43.13920000      49.24140000
C       51.74750000      56.86070000      49.24090000
C       51.74750000      43.13930000      50.75910000
C       44.01230000      49.36160000      47.05470000
C       47.05480000      44.01230000      49.36190000
C       49.36180000      47.05450000      44.01240000
C       44.01230000      50.63840000      52.94520000
C       55.98770000      50.63820000      47.05480000
C       55.98760000      49.36180000      52.94530000
C       47.05470000      55.98770000      50.63800000
C       52.94520000      55.98760000      49.36150000
C       52.94530000      44.01240000      50.63850000
C       49.36160000      52.94550000      55.98760000
C       50.63830000      52.94500000      44.01220000
C       50.63830000      47.05500000      55.98790000
C       44.01230000      47.05470000      49.36170000
C       47.05480000      49.36150000      44.01230000
C       49.36180000      44.01220000      47.05500000
C       44.01230000      52.94530000      50.63810000
C       55.98760000      47.05480000      50.63840000
C       55.98770000      52.94520000      49.36170000
C       47.05470000      50.63850000      55.98770000
C       52.94520000      49.36190000      55.98780000
C       52.94530000      50.63810000      44.01230000
C       49.36170000      55.98780000      52.94500000
C       50.63830000      44.01240000      52.94550000
C       50.63830000      55.98760000      47.05450000
C       45.95990000      55.06540000      46.93850000
C       46.93880000      45.96010000      55.06560000
C       55.06560000      46.93860000      45.96010000
C       45.95990000      44.93460000      53.06140000
C       54.04020000      44.93440000      46.93900000
C       54.04000000      55.06560000      53.06110000
C       46.93880000      54.03990000      44.93430000
C       53.06110000      54.04030000      55.06540000
C       53.06130000      45.95970000      44.93460000
C       55.06540000      53.06140000      54.04000000
C       44.93450000      53.06100000      45.95970000
C       44.93450000      46.93890000      54.04010000
C       45.95990000      46.93900000      55.06560000
C       46.93880000      55.06530000      45.95970000
C       55.06560000      45.95980000      46.93890000
C       45.96000000      53.06100000      44.93430000
C       54.04020000      46.93860000      44.93460000
C       54.04000000      53.06140000      55.06540000
C       46.93880000      44.93470000      54.04020000
C       53.06110000      55.06570000      54.03990000
C       53.06130000      44.93430000      45.96010000
C       55.06540000      54.04020000      53.06110000
C       44.93450000      45.96000000      53.06130000
C       44.93450000      54.04000000      46.93860000
C       51.52780000      57.47390000      50.50110000
C       50.50130000      51.52810000      57.47390000
C       57.47390000      50.50150000      51.52790000
C       51.52790000      42.52610000      49.49890000
C       48.47220000      42.52610000      50.50170000
C       48.47220000      57.47390000      49.49830000
C       50.50150000      48.47190000      42.52610000
C       49.49850000      48.47250000      57.47400000
C       49.49870000      51.52750000      42.52600000
C       57.47390000      49.49850000      48.47230000
C       42.52610000      49.49860000      51.52780000
C       42.52610000      50.50130000      48.47210000
C       51.52770000      50.50170000      57.47400000
C       50.50140000      57.47400000      51.52750000
C       57.47390000      51.52780000      50.50140000
C       51.52790000      49.49830000      42.52610000
C       48.47230000      50.50110000      42.52600000
C       48.47210000      49.49890000      57.47400000
C       50.50150000      42.52600000      48.47250000
C       49.49860000      57.47390000      48.47190000
C       49.49860000      42.52620000      51.52810000
C       57.47390000      48.47220000      49.49870000
C       42.52610000      51.52780000      49.49840000
C       42.52610000      48.47220000      50.50140000
C       53.35270000      56.01560000      50.79880000
C       50.79890000      53.35300000      56.01540000
C       56.01550000      50.79910000      53.35280000
C       53.35280000      43.98440000      49.20130000
C       46.64730000      43.98450000      50.79910000
C       46.64720000      56.01550000      49.20070000
C       50.79910000      46.64700000      43.98450000
C       49.20100000      46.64750000      56.01570000
C       49.20110000      53.35250000      43.98430000
C       56.01560000      49.20090000      46.64740000
C       43.98440000      49.20120000      53.35270000
C       43.98450000      50.79880000      46.64710000
C       53.35270000      50.79920000      56.01560000
C       50.79890000      56.01570000      53.35250000
C       56.01550000      53.35280000      50.79890000
C       53.35280000      49.20080000      43.98450000
C       46.64730000      50.79870000      43.98440000
C       46.64720000      49.20130000      56.01560000
C       50.79900000      43.98430000      46.64750000
C       49.20100000      56.01540000      46.64700000
C       49.20100000      43.98460000      53.35300000
C       56.01560000      46.64720000      49.20120000
C       43.98450000      53.35270000      49.20080000
C       43.98450000      46.64730000      50.79900000
