240
Lattice="100.0 0.0 0.0 0.0 100.0 0.0 0.0 0.0 100.0" Properties=species:S:1:pos:R:3 name=C-53965-5632-443 pressure=-12.0795965030096 spacegroup=Th times_found=1 energy=-1788.47680490563 pbc="T T T"
C       48.42590000      53.05280000      56.09090000
C       53.05250000      56.09120000      48.42650000
C       56.09090000      48.42680000      53.05320000
C       48.42690000      46.94700000      43.90900000
C       51.57370000      53.05310000      43.90910000
C       51.57360000      46.94720000      56.09100000
C       53.05330000      43.90930000      51.57370000
C       46.94660000      56.09070000      51.57350000
C       46.94760000      43.90880000      48.42620000
C       56.09100000      51.57410000      46.94740000
C       43.90930000      48.42590000      46.94680000
C       43.90880000      51.57320000      53.05260000
C       51.57310000      53.05300000      56.09100000
C       46.94670000      56.09070000      48.42630000
C       43.90900000      48.42590000      53.05260000
C       51.57410000      46.94720000      43.90910000
C       48.42640000      53.05280000      43.90900000
C       48.42630000      46.94690000      56.09090000
C       46.94750000      43.90880000      51.57350000
C       53.05240000      56.09120000      51.57380000
C       53.05340000      43.90930000      48.42650000
C       43.90910000      51.57320000      46.94680000
C       56.09120000      48.42680000      46.94740000
C       56.09070000      51.57410000      53.05320000
C       56.10870000      52.90650000      52.62310000
C       52.90560000      52.62300000      56.10920000
C       52.62230000      56.10920000      52.90630000
C       56.10940000      47.09440000      47.37740000
C       43.89090000      52.90570000      47.37690000
C       43.89110000      47.09340000      52.62260000
C       52.90660000      47.37740000      43.89110000
C       47.09400000      52.62270000      43.89090000
C       47.09380000      47.37690000      56.10890000
C       52.62340000      43.89120000      47.09400000
C       47.37680000      56.10880000      47.09380000
C       47.37750000      43.89080000      52.90600000
C       43.89070000      52.90560000      52.62260000
C       47.09340000      52.62260000      56.10890000
C       47.37660000      56.10880000      52.90600000
C       43.89130000      47.09350000      47.37690000
C       56.10890000      52.90660000      47.37750000
C       56.10910000      47.09430000      52.62310000
C       47.09440000      47.37700000      43.89080000
C       52.90620000      52.62310000      43.89110000
C       52.90600000      47.37730000      56.10910000
C       47.37770000      43.89080000      47.09370000
C       52.62250000      56.10920000      47.09400000
C       52.62320000      43.89120000      52.90620000
C       50.71180000      43.57410000      54.23810000
C       43.57380000      54.23760000      50.71120000
C       54.23830000      50.71180000      43.57430000
C       50.71120000      56.42600000      45.76200000
C       49.28920000      43.57410000      45.76190000
C       49.28790000      56.42580000      54.23800000
C       43.57440000      45.76150000      49.28820000
C       56.42560000      54.23850000      49.28880000
C       56.42620000      45.76240000      50.71180000
C       54.23780000      49.28880000      56.42610000
C       45.76160000      50.71110000      56.42570000
C       45.76230000      49.28820000      43.57390000
C       49.28880000      43.57400000      54.23800000
C       56.42560000      54.23850000      50.71180000
C       45.76220000      50.71120000      43.57390000
C       49.28820000      56.42590000      45.76190000
C       50.71210000      43.57420000      45.76200000
C       50.71080000      56.42590000      54.23810000
C       56.42620000      45.76240000      49.28880000
C       43.57380000      54.23760000      49.28820000
C       43.57440000      45.76150000      50.71120000
C       45.76170000      49.28820000      56.42570000
C       54.23770000      50.71180000      56.42610000
C       54.23840000      49.28890000      43.57430000
C       50.71970000      55.32780000      55.22690000
C       55.32740000      55.22720000      50.72060000
C       55.22650000      50.72070000      55.32800000
C       50.72100000      44.67230000      44.77320000
C       49.27950000      55.32770000      44.77320000
C       49.27980000      44.67220000      55.22680000
C       55.32820000      44.77360000      49.27990000
C       44.67190000      55.22640000      49.27940000
C       44.67260000      44.77280000      50.72010000
C       55.22710000      49.28000000      44.67250000
C       44.77340000      50.72000000      44.67200000
C       44.77300000      49.27920000      55.32750000
C       49.27900000      55.32770000      55.22680000
C       44.67180000      55.22640000      50.72010000
C       44.77290000      50.72000000      55.32750000
C       49.28030000      44.67220000      44.77310000
C       50.72020000      55.32780000      44.77320000
C       50.72050000      44.67230000      55.22680000
C       44.67260000      44.77280000      49.27940000
C       55.32740000      55.22720000      49.27990000
C       55.32810000      44.77360000      50.72060000
C       44.77350000      49.27930000      44.67200000
C       55.22700000      50.72080000      44.67250000
C       55.22660000      49.28000000      55.32800000
C       55.47310000      48.34650000      45.63580000
C       48.34620000      45.63540000      55.47260000
C       45.63520000      55.47240000      48.34590000
C       55.47240000      51.65430000      54.36470000
C       44.52720000      48.34570000      54.36420000
C       44.52740000      51.65350000      45.63530000
C       48.34600000      54.36440000      44.52720000
C       51.65450000      45.63570000      44.52730000
C       51.65330000      54.36460000      55.47280000
C       45.63590000      44.52690000      51.65370000
C       54.36400000      55.47300000      51.65410000
C       54.36490000      44.52760000      48.34630000
C       44.52760000      48.34570000      45.63530000
C       51.65400000      45.63560000      55.47280000
C       54.36410000      55.47310000      48.34630000
C       44.52690000      51.65350000      54.36420000
C       55.47270000      48.34650000      54.36470000
C       55.47280000      51.65430000      45.63580000
C       51.65380000      54.36460000      44.52740000
C       48.34670000      45.63540000      44.52720000
C       48.34550000      54.36430000      55.47270000
C       54.36480000      44.52760000      51.65410000
C       45.63510000      55.47240000      51.65370000
C       45.63600000      44.52700000      48.34590000
C       56.52710000      52.99750000      51.31460000
C       52.99670000      51.31450000      56.52760000
C       51.31370000      56.52750000      52.99710000
C       56.52770000      47.00340000      48.68600000
C       43.47240000      52.99660000      48.68540000
C       43.47270000      47.00250000      51.31400000
C       52.99750000      48.68590000      43.47270000
C       47.00320000      51.31410000      43.47240000
C       47.00270000      48.68540000      56.52730000
C       51.31490000      43.47270000      47.00300000
C       48.68540000      56.52730000      47.00290000
C       48.68600000      43.47250000      52.99700000
C       43.47230000      52.99660000      51.31400000
C       47.00250000      51.31410000      56.52730000
C       48.68510000      56.52730000      52.99700000
C       43.47280000      47.00250000      48.68540000
C       56.52730000      52.99750000      48.68600000
C       56.52760000      47.00340000      51.31460000
C       47.00330000      48.68550000      43.47240000
C       52.99730000      51.31460000      43.47270000
C       52.99690000      48.68590000      56.52760000
C       48.68630000      43.47250000      47.00290000
C       51.31400000      56.52750000      47.00300000
C       51.31460000      43.47270000      52.99710000
C       52.99440000      54.52670000      45.11130000
C       54.52670000      45.11140000      52.99470000
C       45.11070000      52.99410000      54.52630000
C       52.99460000      45.47370000      54.88900000
C       47.00490000      54.52620000      54.88880000
C       47.00600000      45.47330000      45.11100000
C       54.52630000      54.88920000      47.00570000
C       45.47400000      45.11080000      47.00530000
C       45.47300000      54.88850000      52.99430000
C       45.11150000      47.00510000      45.47330000
C       54.88890000      52.99490000      45.47380000
C       54.88890000      47.00580000      54.52670000
C       47.00540000      54.52630000      45.11100000
C       45.47370000      45.11080000      52.99430000
C       54.88840000      52.99490000      54.52670000
C       47.00560000      45.47330000      54.88870000
C       52.99400000      54.52670000      54.88900000
C       52.99510000      45.47380000      45.11120000
C       45.47330000      54.88860000      47.00530000
C       54.52700000      45.11150000      47.00570000
C       54.52600000      54.88920000      52.99470000
C       54.88930000      47.00590000      45.47370000
C       45.11110000      52.99420000      45.47330000
C       45.11110000      47.00510000      54.52620000
C       50.70920000      51.89130000      43.60280000
C       51.89160000      43.60290000      50.70910000
C       43.60260000      50.70860000      51.89090000
C       50.70890000      48.10880000      56.39730000
C       49.29050000      51.89110000      56.39720000
C       49.29140000      48.10880000      43.60270000
C       51.89080000      56.39740000      49.29110000
C       48.10930000      43.60260000      49.29080000
C       48.10830000      56.39710000      50.70900000
C       43.60290000      49.29050000      48.10850000
C       56.39730000      50.70950000      48.10910000
C       56.39720000      49.29140000      51.89150000
C       49.29110000      51.89120000      43.60270000
C       48.10920000      43.60260000      50.70890000
C       56.39710000      50.70950000      51.89150000
C       49.29080000      48.10870000      56.39720000
C       50.70860000      51.89120000      56.39730000
C       50.70950000      48.10890000      43.60280000
C       48.10840000      56.39710000      49.29090000
C       51.89170000      43.60290000      49.29100000
C       51.89070000      56.39740000      50.70920000
C       56.39740000      49.29140000      48.10910000
C       43.60280000      50.70860000      48.10850000
C       43.60270000      49.29050000      51.89090000
C       56.61870000      51.65230000      50.71680000
C       51.65140000      50.71650000      56.61900000
C       50.71590000      56.61890000      51.65180000
C       56.61900000      48.34870000      49.28380000
C       43.38100000      51.65130000      49.28320000
C       43.38120000      48.34770000      50.71610000
C       51.65210000      49.28370000      43.38120000
C       48.34850000      50.71640000      43.38100000
C       48.34800000      49.28340000      56.61880000
C       50.71700000      43.38120000      48.34820000
C       49.28310000      56.61880000      48.34820000
C       49.28400000      43.38110000      51.65170000
C       43.38100000      51.65130000      50.71620000
C       48.34790000      50.71630000      56.61880000
C       49.28300000      56.61880000      51.65180000
C       43.38130000      48.34770000      49.28320000
C       56.61880000      51.65230000      49.28390000
C       56.61900000      48.34870000      50.71680000
C       48.34860000      49.28350000      43.38100000
C       51.65200000      50.71660000      43.38120000
C       51.65150000      49.28360000      56.61900000
C       49.28410000      43.38110000      48.34820000
C       50.71600000      56.61890000      48.34830000
C       50.71690000      43.38120000      51.65180000
C       46.59370000      44.70930000      46.21930000
C       44.71000000      46.21910000      46.59290000
C       46.22000000      46.59290000      44.70940000
C       46.59260000      55.29020000      53.78040000
C       53.40700000      44.70980000      53.78070000
C       53.40660000      55.29070000      46.21960000
C       44.70910000      53.78010000      53.40660000
C       55.29060000      46.21980000      53.40710000
C       55.29030000      53.78090000      46.59340000
C       46.21900000      53.40650000      55.29030000
C       53.78050000      46.59340000      55.29060000
C       53.78050000      53.40710000      44.70970000
C       53.40740000      44.70980000      46.21960000
C       55.29090000      46.21990000      46.59340000
C       53.78100000      46.59350000      44.70970000
C       53.40630000      55.29070000      53.78070000
C       46.59340000      44.70930000      53.78040000
C       46.59300000      55.29020000      46.21930000
C       55.29000000      53.78090000      53.40710000
C       44.70970000      46.21910000      53.40660000
C       44.70940000      53.78020000      46.59290000
C       53.78000000      53.40710000      55.29060000
C       46.21950000      46.59290000      55.29030000
C       46.21950000      53.40660000      44.70940000
