240
Lattice="100.0 0.0 0.0 0.0 100.0 0.0 0.0 0.0 100.0" Properties=species:S:1:pos:R:3 name=C-53965-5632-1395 pressure=0.00968854837025228 energy=-1741.76448573777 spacegroup=C1 times_found=1 pbc="T T T"
C       55.73880000      53.24100000      52.59510000
C       52.89880000      52.89290000      55.81360000
C       52.67460000      55.25400000      52.97170000
C       44.83700000      47.01040000      52.81850000
C       55.79660000      46.72810000      47.31370000
C       44.84420000      52.92700000      47.40750000
C       46.92290000      47.38160000      55.70370000
C       52.80660000      47.11780000      44.47070000
C       46.75960000      52.60210000      44.28520000
C       47.30550000      44.55690000      52.69330000
C       52.89050000      44.67030000      46.95240000
C       47.23150000      55.73680000      47.17690000
C       55.69080000      52.76270000      47.24270000
C       52.89860000      52.56480000      44.82150000
C       52.58750000      55.67590000      46.77910000
C       44.16930000      46.74530000      47.25100000
C       55.18310000      47.08700000      52.71240000
C       44.24270000      52.91820000      52.78720000
C       47.08600000      47.23010000      44.14460000
C       53.14130000      47.52560000      55.71300000
C       46.95850000      52.82580000      55.29150000
C       47.27900000      44.81080000      46.93310000
C       52.64440000      44.39830000      52.86050000
C       47.23630000      55.95300000      53.34650000
C       51.09140000      53.13310000      57.21860000
C       52.96740000      56.79010000      51.22760000
C       56.53980000      51.15200000      53.08630000
C       48.96470000      47.01290000      56.57210000
C       51.14290000      46.95540000      42.86300000
C       48.84480000      53.06000000      43.45590000
C       47.09820000      42.88070000      51.04490000
C       53.04580000      43.15200000      48.80570000
C       46.99280000      57.15800000      48.95250000
C       43.26040000      48.81050000      53.03850000
C       56.72310000      48.72610000      46.92260000
C       43.24560000      51.22730000      47.08220000
C       51.22060000      52.92920000      43.20880000
C       53.05950000      56.50210000      48.86140000
C       57.13430000      51.02590000      47.00490000
C       48.78770000      46.99600000      42.68320000
C       51.29080000      47.13750000      56.78150000
C       48.78070000      53.17550000      56.72900000
C       47.01200000      43.34780000      48.72650000
C       52.95360000      42.88870000      51.13430000
C       46.89060000      56.66970000      51.25840000
C       43.46820000      48.86300000      46.95540000
C       56.79060000      48.77700000      53.00840000
C       42.86380000      51.10980000      52.96790000
C       48.28060000      56.70600000      50.81290000
C       56.91220000      50.59070000      48.37430000
C       50.76240000      48.48430000      56.71420000
C       51.60400000      43.12680000      50.64340000
C       48.40460000      43.37070000      49.15470000
C       51.67400000      56.56290000      49.31680000
C       43.48450000      49.28030000      48.36030000
C       56.69180000      49.24260000      51.64230000
C       43.16290000      50.66990000      51.61200000
C       49.23790000      51.80100000      56.72860000
C       50.71640000      51.57800000      43.29220000
C       49.25570000      48.36910000      42.91900000
C       48.35610000      56.90290000      49.38360000
C       56.58790000      50.68320000      51.70210000
C       50.70080000      48.31690000      43.04170000
C       51.66140000      43.28050000      49.20060000
C       48.44680000      43.13450000      50.58160000
C       51.60660000      56.67220000      50.75400000
C       43.36910000      49.23400000      51.66100000
C       56.75930000      49.15550000      48.31750000
C       43.39100000      50.71490000      48.42320000
C       49.27800000      51.66630000      43.37760000
C       50.66480000      51.76560000      56.96210000
C       49.33460000      48.41880000      56.63290000
C       56.32780000      48.15960000      50.74040000
C       48.20320000      50.85540000      56.31780000
C       50.69200000      56.31490000      48.26610000
C       43.63320000      51.75360000      50.75410000
C       56.45060000      51.66400000      49.26940000
C       43.79100000      48.18640000      49.30710000
C       51.78610000      49.45480000      56.44130000
C       48.22370000      49.25920000      43.43970000
C       51.74420000      50.62990000      43.71430000
C       49.32460000      43.82470000      48.11780000
C       50.70400000      43.60430000      51.68370000
C       49.23100000      56.38510000      51.87110000
C       56.42840000      48.09490000      49.28040000
C       48.21100000      50.69510000      43.60670000
C       50.69060000      56.30410000      51.82700000
C       43.78490000      51.75860000      49.33490000
C       56.33680000      51.72270000      50.70940000
C       43.87150000      48.16770000      50.77840000
C       51.73300000      49.18930000      43.60260000
C       48.22310000      49.38080000      56.36640000
C       51.75390000      50.88440000      56.53770000
C       49.29940000      43.61940000      51.64240000
C       50.80250000      43.79830000      48.11220000
C       49.25570000      56.44680000      48.30860000
C       45.83490000      52.97110000      54.38560000
C       52.78900000      55.16750000      45.51780000
C       54.23660000      45.98770000      52.87980000
C       54.40890000      47.30030000      55.24650000
C       46.30580000      46.79820000      45.25000000
C       54.02510000      52.73170000      45.72230000
C       47.09670000      45.68340000      45.78980000
C       53.04930000      45.51300000      53.62930000
C       46.95280000      55.51930000      54.62580000
C       45.30620000      53.73830000      53.24930000
C       54.59270000      53.54760000      46.81900000
C       44.61210000      45.46380000      46.96240000
C       45.50190000      52.80810000      44.79690000
C       52.86410000      54.39350000      54.12780000
C       54.97060000      45.63220000      47.10650000
C       53.77030000      46.77900000      45.43310000
C       45.82250000      47.15590000      54.89100000
C       53.67250000      53.29280000      54.69200000
C       46.98330000      45.52740000      53.65730000
C       53.82390000      45.64100000      46.27570000
C       46.80910000      54.62960000      46.40070000
C       45.72860000      54.06010000      47.22810000
C       55.25390000      54.51300000      52.78650000
C       45.83420000      46.34660000      53.73280000
C       50.82910000      53.89230000      42.21250000
C       53.79660000      41.78590000      50.73980000
C       41.75030000      50.62990000      53.74720000
C       49.18100000      46.16580000      41.56960000
C       50.93960000      46.22700000      57.85140000
C       49.51500000      54.01410000      57.56630000
C       46.04550000      57.46080000      50.49580000
C       53.93050000      57.22740000      49.68250000
C       46.20180000      42.46360000      49.46190000
C       57.80580000      49.18480000      53.93840000
C       42.73930000      49.72180000      46.13510000
C       58.19640000      50.53810000      46.17610000
C       50.56580000      53.95800000      58.26230000
C       53.85780000      42.40710000      49.64510000
C       42.20050000      50.86200000      46.15530000
C       49.84510000      46.15130000      57.21620000
C       50.35400000      46.20470000      42.02780000
C       49.69080000      53.92660000      42.75520000
C       46.17650000      58.20320000      49.47640000
C       53.89640000      57.80290000      50.80550000
C       46.24520000      41.85730000      50.57100000
C       57.47750000      49.50070000      46.05660000
C       42.45420000      49.58740000      53.85920000
C       57.26180000      50.32370000      53.95570000
C       55.64530000      48.14810000      53.50800000
C       47.95070000      53.69270000      55.75260000
C       53.44790000      55.57630000      47.87330000
C       43.94940000      51.81170000      53.56610000
C       55.98460000      51.65980000      46.46650000
C       44.34250000      47.87140000      46.46680000
C       52.01560000      46.69990000      55.62360000
C       48.16670000      46.42850000      43.83020000
C       51.86830000      53.39840000      44.35280000
C       46.44130000      44.33870000      47.93810000
C       53.47860000      44.02040000      51.81650000
C       46.45950000      55.74490000      52.21870000
C       55.74370000      47.82510000      46.48490000
C       47.86120000      53.45470000      44.38530000
C       53.47050000      55.66790000      51.89370000
C       44.36970000      51.88880000      46.58370000
C       55.64200000      52.16700000      53.48010000
C       44.26480000      48.06190000      53.58680000
C       51.82420000      46.29800000      43.91620000
C       48.03570000      46.57740000      55.62530000
C       51.79830000      53.68170000      56.11280000
C       46.49680000      44.01390000      51.68450000
C       53.62610000      44.12150000      48.03380000
C       46.45770000      56.02980000      48.28600000
C       47.91580000      54.38900000      45.45820000
C       54.81990000      44.88080000      48.28030000
C       45.02760000      48.30360000      54.77690000
C       51.35240000      45.23260000      44.59250000
C       48.14630000      45.69400000      54.52810000
C       51.65970000      54.52480000      54.95950000
C       45.64930000      54.85980000      48.45900000
C       54.70170000      54.98070000      51.59600000
C       45.48240000      44.68200000      51.15710000
C       54.59430000      52.16640000      54.44740000
C       45.01380000      51.61500000      45.32760000
C       54.66100000      47.92980000      45.57630000
C       48.12630000      54.97310000      55.12870000
C       54.39470000      45.11490000      51.70520000
C       45.40070000      47.92290000      45.52250000
C       51.89690000      45.80180000      54.52900000
C       48.32960000      45.57120000      44.98640000
C       51.59580000      54.64170000      45.03160000
C       45.57270000      54.65100000      52.13090000
C       54.37410000      54.49870000      47.92270000
C       45.14850000      44.95220000      48.14080000
C       54.82480000      51.50240000      45.63370000
C       45.05410000      51.73210000      54.48380000
C       54.96870000      48.47480000      54.73730000
C       48.61230000      55.96050000      47.11100000
C       56.06820000      46.83540000      48.70350000
C       46.98640000      48.76790000      56.00590000
C       51.48130000      44.36510000      46.90600000
C       48.68400000      44.27300000      52.76340000
C       51.30640000      55.71180000      52.99360000
C       44.43520000      52.92550000      48.78390000
C       55.90340000      52.99710000      51.19370000
C       44.49480000      46.95840000      51.42260000
C       52.95710000      51.51110000      56.04710000
C       46.95930000      51.19960000      44.07240000
C       52.85570000      48.51040000      44.19700000
C       48.65530000      56.08730000      53.14380000
C       55.69330000      47.01500000      51.36520000
C       47.03840000      48.61620000      43.94470000
C       51.26610000      44.18590000      52.88620000
C       48.66710000      44.40250000      46.96810000
C       51.18700000      55.87290000      46.99820000
C       44.08050000      52.96610000      51.39440000
C       55.94130000      52.84530000      48.61780000
C       44.04760000      46.93900000      48.67480000
C       52.89440000      51.18890000      44.39000000
C       47.01380000      51.45370000      55.73200000
C       53.02460000      48.93130000      55.96640000
C       49.31470000      44.84880000      45.77940000
C       44.61180000      45.78350000      49.25670000
C       45.94750000      49.10970000      44.76860000
C       50.49030000      55.22860000      45.89230000
C       49.26990000      55.49050000      54.29570000
C       50.70460000      45.03120000      53.93250000
C       55.15520000      53.96880000      49.10210000
C       44.88590000      54.07320000      50.91460000
C       55.22380000      45.78120000      50.72370000
C       54.06310000      50.47420000      44.93680000
C       45.81290000      50.76560000      55.25860000
C       54.14530000      49.60870000      55.31690000
C       49.28760000      45.01380000      53.89370000
C       44.86790000      45.75600000      50.64570000
C       45.78590000      49.37600000      55.41830000
C       50.64610000      55.25950000      54.22540000
C       49.09880000      55.15850000      45.99720000
C       50.74410000      44.75420000      45.69760000
C       55.25310000      54.09650000      50.49100000
C       44.98130000      54.10310000      49.50110000
C       55.43880000      45.67550000      49.34270000
C       54.05820000      51.00360000      55.24370000
C       45.85510000      50.50430000      44.72070000
C       54.01260000      49.06540000      44.88270000
