240
Lattice="100.0 0.0 0.0 0.0 100.0 0.0 0.0 0.0 100.0" Properties=species:S:1:pos:R:3 name=C-53965-5632-647 pressure=0.0453455849561278 spacegroup=Td times_found=1 energy=-1707.18946415121 pbc="T T T"
C       56.14090000      50.55490000      48.46700000
C       48.46660000      56.14080000      50.55490000
C       50.55450000      48.46650000      56.14080000
C       43.85920000      50.55490000      51.53300000
C       56.14070000      49.44510000      51.53370000
C       43.85930000      49.44520000      48.46630000
C       51.53340000      56.14080000      49.44530000
C       48.46670000      43.85930000      49.44490000
C       51.53330000      43.85920000      50.55490000
C       49.44550000      48.46670000      43.85920000
C       50.55520000      51.53350000      43.85930000
C       49.44480000      51.53330000      56.14080000
C       48.46630000      50.55480000      56.14070000
C       50.55500000      56.14080000      48.46680000
C       56.14070000      48.46660000      50.55520000
C       51.53370000      50.55500000      43.85930000
C       51.53300000      49.44500000      56.14080000
C       48.46700000      49.44520000      43.85910000
C       49.44500000      56.14070000      51.53340000
C       49.44520000      43.85930000      48.46650000
C       50.55480000      43.85920000      51.53330000
C       43.85930000      48.46670000      49.44470000
C       43.85920000      51.53340000      50.55450000
C       56.14080000      51.53340000      49.44550000
C       50.76500000      55.66540000      51.79060000
C       51.79020000      50.76500000      55.66560000
C       55.66540000      51.79050000      50.76550000
C       49.23500000      55.66550000      48.20960000
C       50.76520000      44.33460000      48.20950000
C       49.23480000      44.33450000      51.79030000
C       48.20980000      50.76520000      44.33450000
C       51.79080000      49.23500000      44.33470000
C       48.20920000      49.23480000      55.66530000
C       44.33460000      51.79050000      49.23460000
C       55.66550000      48.20950000      49.23520000
C       44.33450000      48.20950000      50.76480000
C       51.79050000      55.66540000      50.76530000
C       55.66530000      50.76510000      51.79080000
C       50.76480000      51.79040000      55.66550000
C       48.20960000      55.66550000      49.23490000
C       48.20950000      44.33460000      50.76490000
C       51.79050000      44.33460000      49.23490000
C       44.33470000      50.76520000      48.20920000
C       44.33450000      49.23490000      51.79010000
C       55.66550000      49.23490000      48.20980000
C       49.23520000      51.79060000      44.33450000
C       49.23450000      48.20940000      55.66540000
C       50.76540000      48.20960000      44.33460000
C       46.43970000      49.31960000      42.48350000
C       42.48370000      46.43920000      49.31890000
C       49.31960000      42.48380000      46.43900000
C       53.56030000      49.31930000      57.51650000
C       46.43880000      50.68040000      57.51610000
C       53.56120000      50.68070000      42.48390000
C       57.51630000      46.43920000      50.68090000
C       42.48370000      53.56080000      50.68020000
C       57.51640000      53.56080000      49.32000000
C       50.68030000      42.48360000      53.56070000
C       49.31930000      57.51620000      53.56090000
C       50.68080000      57.51640000      46.43940000
C       42.48390000      49.31950000      46.43880000
C       49.31990000      46.43940000      42.48360000
C       46.43920000      42.48370000      49.31910000
C       57.51610000      49.31940000      53.56120000
C       57.51650000      50.68060000      46.43970000
C       42.48350000      50.68050000      53.56040000
C       50.68010000      46.43910000      57.51630000
C       50.68100000      53.56090000      42.48380000
C       49.31900000      53.56060000      57.51630000
C       53.56070000      42.48370000      50.68060000
C       53.56080000      57.51630000      49.31980000
C       46.43920000      57.51630000      50.68050000
C       45.66100000      55.32280000      49.58950000
C       49.58930000      45.66080000      55.32270000
C       55.32300000      49.58970000      45.66120000
C       54.33910000      55.32280000      50.41070000
C       45.66090000      44.67720000      50.41000000
C       54.33910000      44.67720000      49.58980000
C       50.41070000      45.66100000      44.67720000
C       49.58990000      54.33920000      44.67730000
C       50.41010000      54.33900000      55.32290000
C       44.67700000      49.58950000      54.33870000
C       55.32250000      50.41030000      54.33940000
C       44.67750000      50.41050000      45.66060000
C       49.58990000      55.32290000      45.66100000
C       55.32280000      45.66090000      49.58990000
C       45.66060000      49.58950000      55.32250000
C       50.41010000      55.32270000      54.33920000
C       50.41060000      44.67730000      45.66090000
C       49.58930000      44.67710000      54.33890000
C       44.67720000      45.66090000      50.41000000
C       44.67730000      54.33910000      49.58940000
C       55.32280000      54.33910000      50.41080000
C       54.33940000      49.58970000      44.67750000
C       54.33880000      50.41030000      55.32300000
C       45.66120000      50.41050000      44.67700000
C       49.34800000      54.36570000      56.32290000
C       56.32260000      49.34830000      54.36620000
C       54.36590000      56.32280000      49.34880000
C       50.65200000      54.36600000      43.67730000
C       49.34880000      45.63430000      43.67710000
C       50.65120000      45.63400000      56.32280000
C       43.67740000      49.34850000      45.63380000
C       56.32310000      50.65170000      45.63450000
C       43.67690000      50.65150000      54.36550000
C       45.63410000      56.32280000      50.65150000
C       54.36580000      43.67720000      50.65170000
C       45.63420000      43.67720000      49.34800000
C       56.32290000      54.36590000      49.34890000
C       54.36550000      49.34830000      56.32310000
C       49.34820000      56.32270000      54.36590000
C       43.67720000      54.36590000      50.65130000
C       43.67720000      45.63420000      49.34790000
C       56.32280000      45.63410000      50.65190000
C       45.63450000      49.34850000      43.67690000
C       45.63380000      50.65150000      56.32260000
C       54.36620000      50.65170000      43.67750000
C       50.65190000      56.32290000      45.63430000
C       50.65130000      43.67710000      54.36580000
C       49.34860000      43.67730000      45.63400000
C       53.15470000      47.84190000      45.83690000
C       45.83690000      53.15450000      47.84160000
C       47.84160000      45.83670000      53.15430000
C       46.84530000      47.84170000      54.16300000
C       53.15430000      52.15810000      54.16350000
C       46.84580000      52.15830000      45.83660000
C       54.16310000      53.15440000      52.15850000
C       45.83660000      46.84550000      52.15790000
C       54.16340000      46.84550000      47.84200000
C       52.15840000      45.83680000      46.84560000
C       47.84200000      54.16330000      46.84550000
C       52.15800000      54.16320000      53.15470000
C       45.83650000      47.84170000      53.15420000
C       47.84200000      53.15460000      45.83670000
C       53.15460000      45.83680000      47.84190000
C       54.16340000      47.84180000      46.84570000
C       54.16310000      52.15810000      53.15480000
C       45.83690000      52.15830000      46.84530000
C       52.15800000      53.15440000      54.16340000
C       52.15850000      46.84560000      45.83680000
C       47.84150000      46.84540000      54.16310000
C       46.84540000      45.83670000      52.15800000
C       46.84560000      54.16330000      47.84170000
C       53.15440000      54.16320000      52.15850000
C       53.93810000      54.94300000      47.08670000
C       47.08610000      53.93780000      54.94290000
C       54.94270000      47.08630000      53.93810000
C       46.06190000      54.94290000      52.91350000
C       53.93770000      45.05700000      52.91380000
C       46.06230000      45.05710000      47.08600000
C       52.91390000      53.93800000      45.05730000
C       47.08660000      46.06220000      45.05680000
C       52.91330000      46.06200000      54.94310000
C       45.05730000      47.08640000      46.06170000
C       54.94320000      52.91370000      46.06240000
C       45.05680000      52.91360000      53.93770000
C       47.08610000      54.94290000      53.93780000
C       54.94310000      53.93790000      47.08670000
C       53.93760000      47.08630000      54.94310000
C       52.91390000      54.94300000      46.06240000
C       52.91340000      45.05700000      53.93800000
C       47.08660000      45.05710000      46.06180000
C       45.05690000      53.93790000      52.91340000
C       45.05720000      46.06220000      47.08600000
C       54.94280000      46.06200000      52.91390000
C       46.06240000      47.08650000      45.05670000
C       46.06180000      52.91360000      54.94280000
C       53.93820000      52.91370000      45.05730000
C       53.09890000      51.10860000      55.13640000
C       55.13610000      53.09920000      51.10900000
C       51.10850000      55.13610000      53.09930000
C       46.90110000      51.10880000      44.86370000
C       53.09950000      48.89140000      44.86400000
C       46.90050000      48.89120000      55.13600000
C       44.86390000      53.09920000      48.89110000
C       55.13620000      46.90080000      48.89160000
C       44.86380000      46.90080000      51.10830000
C       48.89150000      55.13620000      46.90080000
C       51.10880000      44.86390000      46.90080000
C       48.89110000      44.86380000      53.09900000
C       55.13600000      51.10860000      53.09950000
C       51.10840000      53.09910000      55.13630000
C       53.09910000      55.13610000      51.10890000
C       44.86400000      51.10870000      46.90050000
C       44.86360000      48.89130000      53.09890000
C       55.13630000      48.89140000      46.90110000
C       48.89160000      53.09930000      44.86380000
C       48.89100000      46.90070000      55.13600000
C       51.10900000      46.90090000      44.86380000
C       46.90090000      55.13620000      48.89120000
C       46.90070000      44.86380000      51.10840000
C       53.09920000      44.86380000      48.89140000
C       46.22250000      51.89390000      55.87080000
C       55.87090000      46.22280000      51.89430000
C       51.89430000      55.87110000      46.22310000
C       53.77750000      51.89410000      44.12930000
C       46.22320000      48.10610000      44.12880000
C       53.77680000      48.10580000      55.87120000
C       44.12910000      46.22290000      48.10550000
C       55.87110000      53.77710000      48.10640000
C       44.12890000      53.77710000      51.89380000
C       48.10580000      55.87090000      53.77710000
C       51.89380000      44.12890000      53.77710000
C       48.10620000      44.12910000      46.22270000
C       55.87120000      51.89410000      46.22330000
C       51.89370000      46.22280000      55.87100000
C       46.22280000      55.87100000      51.89390000
C       44.12880000      51.89400000      53.77680000
C       44.12920000      48.10600000      46.22250000
C       55.87080000      48.10590000      53.77740000
C       48.10630000      46.22300000      44.12880000
C       48.10560000      53.77700000      55.87090000
C       51.89440000      53.77720000      44.12920000
C       53.77720000      55.87100000      48.10630000
C       53.77700000      44.12900000      51.89420000
C       46.22300000      44.12910000      48.10560000
C       43.27340000      48.51250000      47.42190000
C       47.42240000      43.27330000      48.51220000
C       48.51280000      47.42240000      43.27310000
C       56.72660000      48.51240000      52.57810000
C       43.27310000      51.48750000      52.57730000
C       56.72690000      51.48760000      47.42270000
C       52.57760000      43.27320000      51.48760000
C       47.42220000      56.72670000      51.48750000
C       52.57780000      56.72680000      48.51270000
C       51.48720000      47.42220000      56.72680000
C       48.51200000      52.57760000      56.72670000
C       51.48800000      52.57780000      43.27340000
C       47.42270000      48.51260000      43.27310000
C       48.51260000      43.27330000      47.42210000
C       43.27330000      47.42230000      48.51200000
C       52.57730000      48.51230000      56.72690000
C       52.57810000      51.48770000      43.27340000
C       47.42190000      51.48750000      56.72660000
C       51.48740000      43.27320000      52.57770000
C       51.48770000      56.72680000      47.42250000
C       48.51230000      56.72670000      52.57770000
C       56.72670000      47.42230000      51.48790000
C       56.72690000      52.57770000      48.51290000
C       43.27320000      52.57770000      51.48720000
