240
Lattice="100.0 0.0 0.0 0.0 100.0 0.0 0.0 0.0 100.0" Properties=species:S:1:pos:R:3 name=C-53965-5632-843 pressure=-0.0486829508996783 energy=-1727.69707873216 spacegroup=D2d times_found=1 pbc="T T T"
C       47.55970000      49.97790000      56.96780000
C       49.91500000      57.02100000      47.50390000
C       56.96730000      47.56850000      49.95410000
C       52.43980000      50.01790000      56.96800000
C       47.56020000      50.02170000      43.03200000
C       52.44030000      49.98250000      43.03220000
C       50.08520000      42.98050000      47.49970000
C       49.91610000      42.97900000      52.49610000
C       50.08380000      57.01950000      52.50030000
C       43.03270000      52.43150000      49.95510000
C       56.96690000      52.43270000      50.04630000
C       43.03310000      47.56730000      50.04440000
C       49.95460000      47.56580000      56.96640000
C       56.96800000      49.98160000      47.56020000
C       47.50110000      57.02010000      49.91750000
C       50.04490000      52.43000000      56.96790000
C       50.04580000      47.57000000      43.03210000
C       49.95460000      52.43420000      43.03360000
C       43.03220000      50.01990000      47.55970000
C       43.03200000      49.97880000      52.43980000
C       56.96780000      50.01970000      52.44030000
C       52.49890000      42.98000000      49.91350000
C       52.49760000      57.02050000      50.08670000
C       47.50240000      42.97950000      50.08230000
C       48.36950000      55.57300000      46.41630000
C       55.59410000      46.44390000      48.37370000
C       46.42230000      48.40650000      55.58930000
C       51.63070000      44.42910000      46.41310000
C       48.37030000      44.42670000      53.58360000
C       51.62940000      55.57120000      53.58700000
C       44.40600000      53.55700000      48.37550000
C       55.59340000      53.55710000      51.62670000
C       44.40650000      46.44200000      51.62410000
C       53.57740000      51.59020000      55.59050000
C       46.42230000      51.59290000      44.41050000
C       53.57800000      48.41050000      44.40970000
C       55.59020000      48.41010000      46.42200000
C       46.41430000      55.57220000      48.37150000
C       48.37470000      46.44110000      55.59260000
C       44.41010000      51.59210000      46.42260000
C       44.41010000      48.40690000      53.57700000
C       55.58960000      51.59090000      53.57840000
C       53.58580000      44.42870000      48.36840000
C       53.58470000      55.57190000      51.63190000
C       46.41520000      44.42710000      51.62830000
C       51.62490000      53.55550000      55.59480000
C       51.62590000      46.44480000      44.40530000
C       48.37450000      53.55860000      44.40730000
C       43.61840000      51.37180000      47.61380000
C       51.39790000      47.63460000      43.61640000
C       47.59160000      43.61290000      51.41440000
C       56.38180000      48.62960000      47.61340000
C       43.61850000      48.62700000      52.38580000
C       56.38140000      51.37160000      52.38700000
C       48.60250000      52.36920000      43.61780000
C       51.39710000      52.36560000      56.38370000
C       48.60250000      47.63060000      56.38210000
C       52.40830000      56.38620000      51.41840000
C       47.59060000      56.38660000      48.58550000
C       52.40950000      43.61420000      48.58180000
C       51.41700000      43.61440000      47.58920000
C       47.61370000      51.37340000      43.61870000
C       43.61730000      47.63160000      51.39660000
C       48.58310000      56.38700000      47.59300000
C       48.58410000      43.61270000      52.40690000
C       51.41570000      56.38580000      52.41090000
C       52.38670000      48.63040000      43.61810000
C       52.38600000      51.37000000      56.38210000
C       47.61350000      48.62620000      56.38110000
C       56.38260000      52.36760000      51.39840000
C       56.38320000      47.63360000      48.60200000
C       43.61690000      52.36720000      48.60300000
C       55.54090000      50.58230000      54.57920000
C       50.62510000      54.56510000      55.55110000
C       54.58930000      55.52770000      50.62980000
C       44.45880000      49.41490000      54.57850000
C       55.54130000      49.41870000      45.42120000
C       44.45900000      50.58410000      45.42110000
C       49.37450000      45.43150000      55.54830000
C       50.62630000      45.43500000      44.44890000
C       49.37410000      54.56840000      44.45160000
C       45.41070000      44.47190000      50.62620000
C       54.59030000      44.47310000      49.37050000
C       45.40970000      55.52730000      49.37350000
C       50.62730000      55.52620000      54.59150000
C       54.57860000      50.58190000      55.54150000
C       55.54930000      54.56710000      50.62720000
C       49.37230000      44.47100000      54.58810000
C       49.37170000      55.52880000      45.41190000
C       50.62870000      44.47390000      45.40860000
C       45.42100000      49.41470000      55.54080000
C       45.42130000      50.58440000      44.45890000
C       54.57910000      49.41890000      44.45890000
C       44.45070000      45.43260000      50.62410000
C       44.44990000      54.56640000      49.37550000
C       55.55010000      45.43390000      49.37310000
C       46.25540000      42.40440000      49.83590000
C       42.43190000      49.73070000      46.33390000
C       49.76380000      46.34560000      42.42550000
C       53.74460000      57.59570000      49.84070000
C       46.25400000      57.59490000      50.16390000
C       53.74600000      42.40500000      50.15960000
C       57.56830000      50.27150000      46.33450000
C       42.43160000      50.26790000      53.66560000
C       57.56810000      49.72990000      53.66600000
C       50.23670000      53.65890000      42.42780000
C       49.76270000      53.65430000      57.57440000
C       50.23680000      46.34110000      57.57230000
C       42.42700000      46.34280000      49.76190000
C       49.83910000      42.40580000      46.25240000
C       46.33450000      49.73220000      42.43160000
C       57.57300000      53.65740000      49.76460000
C       57.57370000      46.34400000      50.23590000
C       42.42630000      53.65590000      50.23760000
C       50.16120000      57.59640000      46.25700000
C       50.16230000      42.40360000      53.74300000
C       49.83750000      57.59410000      53.74760000
C       53.66600000      50.27230000      42.43200000
C       53.66560000      49.72830000      57.56830000
C       46.33390000      50.26710000      57.56820000
C       46.37680000      45.29550000      47.40920000
C       45.34750000      47.36730000      46.37310000
C       47.41260000      46.33560000      45.34720000
C       53.62340000      54.70600000      47.41230000
C       46.37580000      54.70380000      52.59060000
C       53.62410000      45.29460000      52.58800000
C       54.65280000      52.63490000      46.37500000
C       45.34670000      52.63180000      53.62660000
C       54.65300000      47.36600000      53.62530000
C       52.58770000      53.66720000      45.34960000
C       47.41170000      53.66390000      54.65260000
C       52.58800000      46.33330000      54.65060000
C       45.34880000      46.33480000      47.41090000
C       47.41130000      45.29590000      46.37480000
C       46.37440000      47.36770000      45.34620000
C       54.65130000      53.66670000      47.41340000
C       54.65180000      46.33410000      52.58690000
C       45.34800000      53.66430000      52.58880000
C       52.58900000      54.70630000      46.37780000
C       52.58960000      45.29420000      53.62240000
C       47.41020000      54.70360000      53.62510000
C       53.62590000      52.63510000      45.34800000
C       53.62600000      47.36560000      54.65220000
C       46.37370000      52.63160000      54.65360000
C       48.42360000      46.49770000      44.34570000
C       46.51320000      44.27790000      48.41730000
C       44.34620000      48.38400000      46.51500000
C       51.57670000      53.50570000      44.34790000
C       48.42260000      53.50210000      55.65420000
C       51.57700000      46.49450000      55.65220000
C       53.48690000      55.72310000      48.42100000
C       46.51200000      55.72150000      51.58240000
C       53.48780000      44.27750000      51.57920000
C       55.65400000      51.61800000      46.51630000
C       44.34570000      51.61490000      53.48470000
C       55.65410000      48.38300000      53.48410000
C       46.51600000      48.38490000      44.34530000
C       44.34720000      46.49610000      48.42190000
C       48.41980000      44.27860000      46.51080000
C       53.48440000      51.61850000      44.34650000
C       53.48430000      48.38210000      55.65370000
C       46.51530000      51.61450000      55.65440000
C       55.65300000      53.50490000      48.42440000
C       55.65350000      46.49610000      51.57600000
C       44.34640000      53.50290000      51.57770000
C       51.58040000      55.72350000      46.51440000
C       51.58120000      44.27680000      53.48570000
C       48.41850000      55.72110000      53.48900000
C       56.19030000      47.79190000      51.23030000
C       47.80170000      51.25580000      56.19640000
C       51.24400000      56.32730000      47.78990000
C       43.80960000      52.20740000      51.23120000
C       56.19000000      52.20920000      48.77010000
C       43.81010000      47.79150000      48.76840000
C       52.19790000      48.74050000      56.19580000
C       47.80230000      48.74380000      43.80340000
C       52.19810000      51.25990000      43.80430000
C       48.75610000      43.67410000      47.78600000
C       51.24500000      43.67300000      52.21020000
C       48.75490000      56.32570000      52.21390000
C       47.78730000      56.32590000      51.24630000
C       51.23080000      47.79000000      56.18950000
C       56.19610000      51.25900000      47.80260000
C       52.21260000      43.67330000      51.24270000
C       52.21160000      56.32710000      48.75750000
C       47.78850000      43.67370000      48.75350000
C       48.76880000      52.20630000      56.19080000
C       48.76960000      47.79350000      43.80910000
C       51.23080000      52.21030000      43.81050000
C       43.80410000      48.74230000      47.80140000
C       43.80370000      51.25660000      52.19820000
C       56.19620000      48.74210000      52.19790000
C       47.28100000      54.68800000      46.29100000
C       54.71370000      46.32040000      47.28200000
C       46.29260000      47.31230000      54.71130000
C       52.71920000      45.31420000      46.28830000
C       47.28160000      45.31150000      53.70890000
C       52.71820000      54.68620000      53.71190000
C       45.28650000      53.68120000      47.28390000
C       54.71290000      53.68040000      52.71830000
C       45.28700000      46.31790000      52.71580000
C       53.70710000      52.68490000      54.71310000
C       46.29240000      52.68700000      45.28850000
C       53.70790000      47.31580000      45.28710000
C       54.71260000      47.31560000      46.29190000
C       46.28930000      54.68760000      47.28260000
C       47.28310000      46.31750000      54.71210000
C       45.28770000      52.68670000      46.29320000
C       45.28790000      47.31250000      53.70650000
C       54.71180000      52.68530000      53.70850000
C       53.71090000      45.31400000      47.28000000
C       53.70980000      54.68660000      52.72020000
C       46.29000000      45.31170000      52.71720000
C       52.71660000      53.67970000      54.71450000
C       52.71750000      46.32080000      45.28570000
C       47.28280000      53.68200000      45.28770000
C       50.51990000      43.66710000      54.31030000
C       43.67130000      54.29430000      50.53910000
C       54.29190000      50.58230000      43.68210000
C       49.47980000      56.33040000      54.31410000
C       50.51900000      56.33300000      45.68970000
C       49.48130000      43.66960000      45.68590000
C       56.32860000      45.70540000      50.53690000
C       43.67210000      45.70460000      49.46050000
C       56.32790000      54.29570000      49.46350000
C       45.70850000      49.42150000      43.68140000
C       54.29160000      49.41850000      56.31820000
C       45.70800000      50.57770000      56.31830000
C       43.68150000      50.57820000      54.29170000
C       54.31280000      43.66850000      50.51770000
C       50.53780000      54.29690000      43.67310000
C       56.31820000      49.41930000      54.29180000
C       56.31830000      50.58190000      45.70870000
C       43.68190000      49.42070000      45.70790000
C       45.68720000      56.33120000      50.52120000
C       45.68840000      43.66810000      49.47850000
C       54.31160000      56.33220000      49.48260000
C       49.46260000      45.70690000      43.67040000
C       49.46140000      54.29300000      56.32950000
C       50.53820000      45.70320000      56.32700000
