240
Lattice="100.0 0.0 0.0 0.0 100.0 0.0 0.0 0.0 100.0" Properties=species:S:1:pos:R:3 name=C-53965-5632-556 pressure=0.0669642160229268 spacegroup=C1 times_found=1 energy=-1773.7683019768 pbc="T T T"
C       54.31660000      48.59870000      44.21630000
C       48.59440000      44.26910000      54.38290000
C       44.37100000      54.34770000      48.70190000
C       45.73440000      48.45400000      55.45790000
C       45.75760000      51.35840000      44.13690000
C       54.10020000      51.44310000      55.35900000
C       51.35040000      44.07650000      45.81960000
C       51.37400000      55.72400000      54.39850000
C       48.58670000      55.40630000      45.94240000
C       55.91140000      54.31170000      51.34390000
C       55.53110000      45.88930000      48.45960000
C       44.15030000      45.78160000      51.26180000
C       54.25940000      51.34790000      44.07610000
C       48.63070000      55.85490000      54.36120000
C       44.47550000      45.87000000      48.48530000
C       45.62300000      51.28020000      55.65530000
C       45.68890000      48.61220000      44.26060000
C       54.11810000      48.56880000      55.34810000
C       51.46380000      55.39130000      45.92410000
C       51.40010000      44.30050000      54.37880000
C       48.64780000      44.07560000      45.82250000
C       55.84210000      45.83980000      51.24390000
C       55.77170000      54.37930000      48.59160000
C       44.50720000      54.20250000      51.53500000
C       56.24290000      47.02620000      50.55090000
C       46.83980000      50.63070000      56.01010000
C       50.76300000      55.91300000      47.06550000
C       43.89470000      47.00690000      49.15700000
C       43.98180000      53.08450000      50.78870000
C       56.22220000      53.16330000      49.19030000
C       53.06430000      50.63920000      43.71570000
C       52.97530000      49.26660000      55.87580000
C       46.91620000      49.21280000      43.85130000
C       49.32550000      56.25900000      53.17410000
C       49.29100000      43.65000000      47.03310000
C       50.72980000      43.93230000      53.17280000
C       56.31190000      53.13350000      50.62930000
C       46.86810000      49.17430000      55.98240000
C       50.71010000      43.65270000      47.03230000
C       43.98130000      53.13090000      49.33010000
C       43.76360000      46.98290000      50.58870000
C       56.12180000      47.02940000      49.11630000
C       53.08770000      49.20350000      43.81720000
C       52.96480000      50.72230000      55.86900000
C       46.94430000      50.64810000      43.75500000
C       49.27000000      43.91830000      53.17450000
C       49.30520000      55.93100000      47.07460000
C       50.76190000      56.16950000      53.18730000
C       46.28230000      56.07580000      50.84860000
C       55.94360000      50.87820000      46.07800000
C       50.72280000      46.16320000      56.12720000
C       53.82620000      56.02200000      49.38040000
C       53.78910000      44.18430000      50.81730000
C       46.28280000      44.06880000      49.34190000
C       43.84570000      50.67010000      53.77810000
C       43.99080000      49.38260000      46.16090000
C       56.02260000      49.29990000      53.60810000
C       49.23290000      46.15310000      44.24040000
C       49.11340000      53.76230000      55.92610000
C       50.73610000      53.65540000      44.01960000
C       46.20860000      44.13860000      50.82340000
C       56.04560000      49.37510000      46.08730000
C       50.61600000      53.75080000      56.01740000
C       53.71880000      44.09970000      49.33620000
C       53.85350000      55.92830000      50.88350000
C       46.24000000      56.11110000      49.37650000
C       43.87260000      49.19920000      53.70150000
C       44.11120000      50.88320000      46.17120000
C       56.02180000      50.75790000      53.61990000
C       49.28140000      53.65880000      44.03170000
C       49.23230000      46.14380000      56.13470000
C       50.76210000      46.15220000      44.23620000
C       48.15480000      51.37900000      43.53150000
C       51.47930000      43.50810000      48.23750000
C       43.49230000      48.15870000      51.37220000
C       51.77010000      51.46780000      56.19670000
C       51.89920000      48.37530000      43.73640000
C       48.07530000      48.44850000      56.29100000
C       48.47180000      43.74710000      51.97990000
C       48.56100000      56.30080000      48.26220000
C       51.58230000      56.30750000      51.99940000
C       56.38550000      48.22840000      48.35300000
C       56.54360000      51.92460000      51.36310000
C       43.77780000      51.97130000      48.47750000
C       48.10010000      48.38050000      43.75460000
C       51.53050000      56.23930000      48.24690000
C       43.64270000      51.87190000      51.49250000
C       51.79740000      48.50340000      56.23840000
C       51.85250000      51.37300000      43.50760000
C       48.01480000      51.46120000      56.20490000
C       48.57450000      56.49170000      51.97640000
C       48.52380000      43.49800000      48.23830000
C       51.52900000      43.77110000      51.97710000
C       56.36430000      51.98540000      48.35250000
C       56.51780000      48.21320000      51.31660000
C       43.65050000      48.22090000      48.41350000
C       46.75090000      46.39700000      44.53720000
C       46.51220000      44.05220000      46.99010000
C       44.16270000      46.99370000      46.33380000
C       53.07310000      46.41020000      55.79780000
C       53.05350000      53.44740000      44.03380000
C       46.67530000      53.50550000      55.52080000
C       53.58400000      44.54800000      53.25400000
C       53.61980000      55.81060000      46.99860000
C       46.51480000      55.96600000      53.17730000
C       55.97830000      46.97830000      53.36690000
C       55.52340000      53.31740000      46.37380000
C       44.11580000      53.02620000      53.64560000
C       46.96450000      53.45610000      44.07480000
C       46.44290000      55.84450000      47.02390000
C       44.55030000      53.31210000      46.46940000
C       52.99900000      53.57880000      55.80400000
C       53.24620000      46.39030000      44.51700000
C       46.87330000      46.32370000      55.83260000
C       53.58520000      55.50620000      53.32350000
C       53.48780000      44.06220000      46.98450000
C       46.40360000      44.48080000      53.26380000
C       55.97350000      53.08440000      53.43900000
C       55.84750000      46.98870000      46.29140000
C       43.97420000      46.87640000      53.40280000
C       44.67650000      54.12870000      52.95390000
C       54.25790000      52.71960000      44.14670000
C       52.79540000      44.48960000      54.43740000
C       55.56340000      54.47690000      47.20720000
C       55.82610000      45.78930000      52.61900000
C       44.68470000      45.90170000      47.07860000
C       45.51540000      52.68120000      55.54360000
C       45.59090000      47.22660000      44.45420000
C       54.13030000      47.14600000      55.20900000
C       47.28500000      44.16850000      45.80890000
C       47.26070000      55.79090000      54.36330000
C       52.88690000      55.25420000      45.91860000
C       44.15250000      45.70600000      52.63440000
C       54.40900000      47.21400000      44.41990000
C       52.75960000      55.52980000      54.48810000
C       55.32120000      45.90830000      47.05170000
C       55.83700000      54.29090000      52.71620000
C       44.52140000      54.46470000      47.30450000
C       45.78950000      47.03870000      55.26600000
C       45.76220000      52.72870000      44.20960000
C       54.08870000      52.86770000      55.23970000
C       47.16230000      55.27370000      45.94530000
C       47.19470000      44.42520000      54.44580000
C       52.71300000      44.16970000      45.80340000
C       44.95700000      46.36770000      54.36540000
C       46.48330000      54.40800000      45.08300000
C       54.42430000      45.04070000      46.42790000
C       55.65140000      46.84590000      44.93000000
C       54.96390000      53.55710000      54.39410000
C       45.27220000      53.58380000      45.27620000
C       53.13080000      54.95360000      55.70090000
C       53.55000000      45.21470000      45.25030000
C       46.76930000      44.94840000      55.66670000
C       45.19560000      45.19100000      53.50550000
C       45.06550000      55.68850000      46.92160000
C       54.77310000      54.77460000      53.57780000
C       44.28890000      53.08720000      55.02330000
C       46.44740000      45.21800000      45.26480000
C       54.99080000      55.69360000      46.84800000
C       54.76930000      53.57820000      45.20110000
C       54.98750000      46.47930000      54.32670000
C       44.35030000      46.86270000      44.97060000
C       53.21240000      45.03400000      55.65380000
C       53.55300000      54.40000000      45.03390000
C       46.40240000      54.72210000      54.83940000
C       45.55750000      54.96000000      53.64950000
C       45.57570000      45.03620000      46.44310000
C       54.77940000      45.28050000      53.48960000
C       55.36540000      49.35300000      44.77820000
C       49.28110000      44.83500000      55.46000000
C       44.96210000      55.36880000      49.44190000
C       44.65340000      49.15690000      54.93950000
C       44.71560000      50.77430000      44.83820000
C       55.13990000      50.72290000      54.79360000
C       50.69540000      44.79860000      44.81730000
C       50.62880000      55.10160000      55.42020000
C       49.31180000      54.83690000      44.90790000
C       55.19400000      55.34500000      50.75960000
C       54.96470000      44.86870000      49.23380000
C       44.90900000      44.80860000      50.64150000
C       55.31190000      50.76010000      44.75940000
C       49.22240000      55.11870000      55.37650000
C       45.03470000      44.83500000      49.24500000
C       44.58730000      50.56780000      55.05500000
C       44.65110000      49.36790000      44.84200000
C       55.14310000      49.31100000      54.78330000
C       50.72370000      54.83350000      44.89500000
C       50.70290000      44.85260000      55.45600000
C       49.30070000      44.79920000      44.82010000
C       55.08640000      44.85910000      50.63150000
C       55.16500000      55.39820000      49.35250000
C       45.04600000      55.28830000      50.85440000
C       52.98000000      56.09800000      48.26000000
C       56.27320000      48.21180000      52.76840000
C       47.97410000      52.92160000      55.93400000
C       47.12280000      56.26970000      51.94610000
C       47.09590000      43.79140000      48.24590000
C       52.98220000      44.10730000      51.97880000
C       43.85960000      48.25050000      46.97760000
C       43.77310000      51.81270000      52.95520000
C       55.99520000      52.02070000      46.91730000
C       51.82700000      52.82640000      43.75370000
C       51.82280000      47.04170000      56.14160000
C       48.07120000      46.95600000      44.13400000
C       52.90620000      43.80930000      48.24270000
C       56.27910000      51.86860000      52.81110000
C       48.10650000      46.98800000      56.17340000
C       47.01390000      44.06160000      51.98530000
C       47.09740000      56.17960000      48.26030000
C       53.02280000      55.96370000      52.02990000
C       44.09460000      52.01550000      47.02530000
C       43.68810000      48.12740000      52.82690000
C       56.16890000      48.24920000      46.91750000
C       51.92520000      46.95190000      44.12020000
C       51.74530000      52.91840000      56.08020000
C       48.18580000      52.83230000      43.77800000
C       43.29690000      49.31830000      50.62810000
C       49.26560000      50.56290000      43.32790000
C       50.72830000      43.32610000      49.39320000
C       56.69640000      49.35930000      49.10080000
C       56.77180000      50.82110000      50.55090000
C       43.43120000      50.82280000      49.20410000
C       50.64300000      50.70700000      56.48040000
C       50.74000000      49.10670000      43.43610000
C       49.18390000      49.25540000      56.54020000
C       49.26870000      43.43470000      50.86480000
C       49.34550000      56.60570000      49.38030000
C       50.82170000      56.60570000      50.85210000
C       43.35520000      50.79040000      50.65820000
C       49.25860000      49.10910000      43.44430000
C       50.79000000      56.55240000      49.37770000
C       56.69430000      50.83590000      49.09370000
C       56.76210000      49.34870000      50.54790000
C       43.36930000      49.34830000      49.18070000
C       50.65760000      49.26190000      56.51780000
C       50.73670000      50.56030000      43.31910000
C       49.16670000      50.71080000      56.49140000
C       49.36390000      56.68010000      50.85120000
C       49.27630000      43.31890000      49.39360000
C       50.73560000      43.44350000      50.86410000
