240
Lattice="100.0 0.0 0.0 0.0 100.0 0.0 0.0 0.0 100.0" Properties=species:S:1:pos:R:3 name=C-53965-5632-1383 pressure=0.0243091343284248 spacegroup=Oh times_found=1 energy=-1757.81640799353 pbc="T T T"
C       49.23330000      56.14100000      52.71240000
C       56.14100000      52.71240000      49.23310000
C       52.71250000      49.23320000      56.14090000
C       50.76690000      56.14090000      47.28750000
C       50.76680000      43.85910000      52.71250000
C       49.23310000      43.85900000      47.28760000
C       43.85910000      52.71250000      50.76680000
C       43.85900000      47.28760000      49.23320000
C       56.14090000      47.28750000      50.76680000
C       47.28750000      49.23310000      43.85910000
C       47.28760000      50.76690000      56.14100000
C       52.71240000      50.76670000      43.85900000
C       49.23310000      43.85910000      52.71250000
C       56.14090000      47.28750000      49.23320000
C       52.71250000      50.76690000      56.14090000
C       50.76670000      43.85900000      47.28760000
C       50.76690000      56.14100000      52.71240000
C       49.23320000      56.14090000      47.28750000
C       43.85900000      47.28760000      50.76690000
C       43.85910000      52.71250000      49.23320000
C       56.14100000      52.71240000      50.76680000
C       47.28750000      50.76680000      43.85910000
C       47.28760000      49.23330000      56.14100000
C       52.71240000      49.23310000      43.85900000
C       49.27970000      57.42910000      50.72040000
C       57.42910000      50.72030000      49.27950000
C       50.72050000      49.27960000      57.42910000
C       50.72050000      57.42910000      49.27950000
C       50.72040000      42.57090000      50.72050000
C       49.27940000      42.57090000      49.27960000
C       42.57090000      50.72060000      50.72050000
C       42.57090000      49.27960000      49.27960000
C       57.42910000      49.27950000      50.72040000
C       49.27950000      49.27950000      42.57090000
C       49.27960000      50.72050000      57.42910000
C       50.72040000      50.72040000      42.57090000
C       49.27950000      42.57090000      50.72050000
C       57.42910000      49.27940000      49.27950000
C       50.72050000      50.72050000      57.42910000
C       50.72030000      42.57090000      49.27960000
C       50.72060000      57.42910000      50.72040000
C       49.27960000      57.42910000      49.27950000
C       42.57090000      49.27970000      50.72050000
C       42.57090000      50.72050000      49.27960000
C       57.42910000      50.72040000      50.72040000
C       49.27950000      50.72040000      42.57090000
C       49.27960000      49.27960000      57.42910000
C       50.72040000      49.27950000      42.57090000
C       50.66680000      45.36150000      54.63860000
C       45.36150000      54.63860000      50.66680000
C       54.63850000      50.66670000      45.36140000
C       49.33310000      45.36140000      45.36150000
C       49.33330000      54.63860000      54.63850000
C       50.66680000      54.63850000      45.36140000
C       54.63860000      54.63850000      49.33310000
C       54.63850000      45.36140000      50.66680000
C       45.36140000      45.36150000      49.33330000
C       45.36150000      50.66690000      54.63860000
C       45.36140000      49.33320000      45.36150000
C       54.63860000      49.33320000      54.63850000
C       50.66690000      54.63860000      54.63850000
C       45.36140000      45.36150000      50.66690000
C       54.63850000      49.33310000      45.36140000
C       49.33320000      54.63850000      45.36140000
C       49.33320000      45.36150000      54.63860000
C       50.66670000      45.36140000      45.36150000
C       54.63850000      45.36140000      49.33320000
C       54.63860000      54.63850000      50.66670000
C       45.36150000      54.63860000      49.33320000
C       45.36150000      49.33330000      54.63860000
C       45.36140000      50.66680000      45.36150000
C       54.63860000      50.66680000      54.63850000
C       47.30120000      54.40610000      55.45840000
C       54.40610000      55.45840000      47.30110000
C       55.45840000      47.30110000      54.40600000
C       52.69890000      54.40590000      44.54150000
C       52.69880000      45.59400000      55.45850000
C       47.30100000      45.59400000      44.54160000
C       45.59410000      55.45850000      52.69880000
C       45.59390000      44.54160000      47.30120000
C       54.40590000      44.54150000      52.69890000
C       44.54150000      47.30120000      45.59410000
C       44.54160000      52.69900000      54.40600000
C       55.45850000      52.69870000      45.59390000
C       47.30110000      45.59410000      55.45850000
C       54.40590000      44.54150000      47.30120000
C       55.45850000      52.69880000      54.40590000
C       52.69880000      45.59390000      44.54160000
C       52.69900000      54.40600000      55.45840000
C       47.30120000      54.40600000      44.54150000
C       45.59390000      44.54160000      52.69890000
C       45.59410000      55.45850000      47.30110000
C       54.40610000      55.45840000      52.69880000
C       44.54160000      52.69890000      45.59400000
C       44.54150000      47.30130000      54.40610000
C       55.45840000      47.30100000      45.59400000
C       52.69880000      44.54160000      54.40600000
C       44.54160000      54.40610000      52.69890000
C       54.40600000      52.69880000      44.54150000
C       47.30100000      44.54150000      45.59410000
C       47.30120000      55.45850000      54.40600000
C       52.69890000      55.45840000      45.59390000
C       55.45850000      54.40590000      47.30110000
C       55.45840000      45.59400000      52.69890000
C       44.54150000      45.59400000      47.30120000
C       45.59410000      52.69900000      55.45850000
C       45.59390000      47.30110000      44.54160000
C       54.40600000      47.30110000      55.45850000
C       52.69900000      55.45850000      54.40590000
C       44.54150000      45.59410000      52.69890000
C       54.40590000      47.30100000      44.54150000
C       47.30120000      55.45840000      45.59400000
C       47.30110000      44.54160000      54.40610000
C       52.69880000      44.54150000      45.59400000
C       55.45840000      45.59390000      47.30110000
C       55.45850000      54.40600000      52.69880000
C       44.54160000      54.40600000      47.30110000
C       45.59400000      47.30120000      55.45850000
C       45.59400000      52.69890000      44.54150000
C       54.40610000      52.69890000      55.45840000
C       56.61960000      48.49080000      48.49090000
C       48.49100000      48.49100000      56.61970000
C       48.49100000      56.61970000      48.49090000
C       43.38030000      48.49110000      51.50910000
C       43.38030000      51.50910000      48.49100000
C       56.61970000      51.50900000      51.50900000
C       51.50900000      48.49090000      43.38030000
C       51.50910000      51.50910000      56.61960000
C       48.49090000      51.50900000      43.38030000
C       51.50920000      56.61970000      51.50900000
C       51.50900000      43.38030000      48.49100000
C       48.49090000      43.38040000      51.50910000
C       56.61970000      51.50890000      48.49090000
C       48.49100000      51.50910000      56.61970000
C       48.49080000      43.38030000      48.49100000
C       43.38040000      51.50920000      51.50910000
C       43.38030000      48.49100000      48.49100000
C       56.61970000      48.49090000      51.50900000
C       51.50900000      51.50900000      43.38030000
C       51.50910000      48.49100000      56.61970000
C       48.49090000      48.49090000      43.38040000
C       51.50900000      43.38030000      51.50910000
C       51.50910000      56.61960000      48.49090000
C       48.49100000      56.61970000      51.50900000
C       52.71250000      56.14090000      50.76680000
C       56.14100000      50.76680000      52.71240000
C       50.76690000      52.71250000      56.14090000
C       47.28760000      56.14100000      49.23310000
C       47.28750000      43.85910000      50.76690000
C       52.71240000      43.85900000      49.23320000
C       43.85900000      50.76690000      47.28760000
C       43.85910000      49.23330000      52.71250000
C       56.14090000      49.23310000      47.28750000
C       49.23320000      52.71240000      43.85900000
C       49.23320000      47.28760000      56.14100000
C       50.76680000      47.28750000      43.85910000
C       52.71240000      43.85900000      50.76690000
C       56.14100000      49.23310000      52.71240000
C       50.76680000      47.28760000      56.14100000
C       47.28750000      43.85910000      49.23320000
C       47.28760000      56.14100000      50.76680000
C       52.71250000      56.14090000      49.23310000
C       43.85900000      49.23320000      47.28760000
C       43.85910000      50.76690000      52.71250000
C       56.14090000      50.76670000      47.28750000
C       49.23310000      47.28750000      43.85910000
C       49.23320000      52.71250000      56.14090000
C       50.76680000      52.71240000      43.85900000
C       51.38520000      53.83630000      55.52490000
C       53.83640000      55.52490000      51.38510000
C       55.52500000      51.38510000      53.83620000
C       48.61490000      53.83620000      44.47510000
C       48.61480000      46.16380000      55.52500000
C       51.38510000      46.16360000      44.47510000
C       46.16380000      55.52490000      48.61480000
C       46.16370000      44.47520000      51.38520000
C       53.83620000      44.47500000      48.61490000
C       44.47510000      51.38520000      46.16370000
C       44.47510000      48.61500000      53.83630000
C       55.52490000      48.61470000      46.16370000
C       51.38510000      46.16380000      55.52490000
C       53.83620000      44.47510000      51.38520000
C       55.52490000      48.61480000      53.83630000
C       48.61480000      46.16370000      44.47510000
C       48.61490000      53.83640000      55.52490000
C       51.38520000      53.83620000      44.47500000
C       46.16360000      44.47510000      48.61490000
C       46.16380000      55.52500000      51.38510000
C       53.83630000      55.52480000      48.61480000
C       44.47500000      48.61490000      46.16380000
C       44.47510000      51.38530000      53.83630000
C       55.52490000      51.38500000      46.16370000
C       51.38500000      44.47500000      46.16380000
C       44.47500000      46.16380000      51.38520000
C       46.16370000      51.38510000      44.47510000
C       48.61480000      44.47510000      53.83630000
C       48.61490000      55.52490000      46.16370000
C       51.38520000      55.52490000      53.83620000
C       55.52490000      46.16360000      48.61490000
C       55.52500000      53.83620000      51.38510000
C       44.47510000      53.83630000      48.61480000
C       53.83630000      51.38510000      55.52490000
C       53.83620000      48.61470000      44.47510000
C       46.16370000      48.61500000      55.52490000
C       51.38520000      55.52490000      46.16370000
C       44.47510000      53.83640000      51.38510000
C       46.16370000      48.61490000      44.47510000
C       48.61500000      55.52500000      53.83620000
C       48.61480000      44.47510000      46.16380000
C       51.38510000      44.47510000      53.83630000
C       55.52500000      53.83620000      48.61480000
C       55.52490000      46.16370000      51.38520000
C       44.47500000      46.16380000      48.61490000
C       53.83630000      48.61490000      55.52490000
C       53.83630000      51.38500000      44.47510000
C       46.16380000      51.38530000      55.52490000
C       46.23050000      44.05320000      53.76950000
C       44.05310000      53.76950000      46.23060000
C       53.76930000      46.23050000      44.05310000
C       53.76930000      44.05300000      46.23060000
C       53.76950000      55.94690000      53.76940000
C       46.23060000      55.94690000      46.23050000
C       55.94700000      53.76940000      53.76940000
C       55.94690000      46.23040000      46.23060000
C       44.05300000      46.23070000      53.76950000
C       46.23050000      46.23070000      55.94700000
C       46.23060000      53.76940000      44.05310000
C       53.76950000      53.76940000      55.94690000
C       46.23070000      55.94700000      53.76940000
C       44.05300000      46.23060000      46.23060000
C       53.76950000      53.76930000      44.05300000
C       53.76950000      55.94680000      46.23050000
C       53.76940000      44.05310000      53.76950000
C       46.23050000      44.05310000      46.23060000
C       55.94690000      46.23050000      53.76940000
C       55.94700000      53.76930000      46.23050000
C       44.05310000      53.76960000      53.76940000
C       46.23070000      53.76950000      55.94690000
C       46.23050000      46.23060000      44.05310000
C       53.76940000      46.23060000      55.94690000
