240
Lattice="100.0 0.0 0.0 0.0 100.0 0.0 0.0 0.0 100.0" Properties=species:S:1:pos:R:3 name=C-53965-5632-1360 pressure=0.0189137215207039 spacegroup=Td times_found=1 energy=-1734.86921301373 pbc="T T T"
C       50.79770000      44.32810000      48.17340000
C       44.32800000      48.17370000      50.79810000
C       48.17340000      50.79810000      44.32810000
C       49.20220000      55.67200000      48.17360000
C       50.79820000      55.67190000      51.82650000
C       49.20190000      44.32810000      51.82640000
C       55.67200000      51.82630000      50.79780000
C       44.32810000      51.82670000      49.20220000
C       55.67180000      48.17330000      49.20190000
C       51.82630000      49.20210000      44.32800000
C       48.17360000      49.20210000      55.67190000
C       51.82660000      50.79780000      55.67190000
C       44.32810000      50.79810000      48.17370000
C       48.17340000      44.32810000      50.79790000
C       50.79770000      48.17350000      44.32800000
C       55.67180000      49.20190000      48.17340000
C       55.67200000      50.79770000      51.82640000
C       44.32810000      49.20220000      51.82660000
C       51.82670000      55.67180000      50.79800000
C       51.82630000      44.32800000      49.20200000
C       48.17370000      55.67200000      49.20220000
C       49.20200000      51.82660000      44.32810000
C       49.20210000      48.17350000      55.67190000
C       50.79810000      51.82640000      55.67190000
C       44.08080000      48.05170000      46.08680000
C       48.05120000      46.08680000      44.08100000
C       46.08640000      44.08110000      48.05150000
C       55.91900000      51.94840000      46.08650000
C       44.08120000      51.94870000      53.91350000
C       55.91900000      48.05120000      53.91320000
C       51.94850000      53.91330000      44.08100000
C       48.05170000      53.91330000      55.91910000
C       51.94860000      46.08650000      55.91890000
C       53.91350000      55.91890000      48.05140000
C       46.08690000      55.91910000      51.94870000
C       53.91320000      44.08090000      51.94840000
C       48.05120000      44.08110000      46.08670000
C       46.08650000      48.05170000      44.08110000
C       44.08080000      46.08690000      48.05160000
C       51.94860000      55.91900000      46.08670000
C       51.94840000      44.08090000      53.91320000
C       48.05180000      55.91900000      53.91340000
C       53.91330000      51.94850000      44.08090000
C       53.91340000      48.05130000      55.91890000
C       46.08690000      51.94860000      55.91910000
C       55.91910000      53.91320000      48.05140000
C       55.91890000      46.08650000      51.94840000
C       44.08120000      53.91350000      51.94870000
C       49.13300000      54.76170000      55.77300000
C       54.76190000      55.77280000      49.13260000
C       55.77300000      49.13250000      54.76160000
C       50.86730000      45.23820000      55.77280000
C       49.13240000      45.23830000      44.22710000
C       50.86730000      54.76180000      44.22710000
C       45.23800000      44.22720000      49.13270000
C       54.76160000      44.22690000      50.86710000
C       45.23850000      55.77310000      50.86750000
C       44.22720000      50.86740000      54.76190000
C       55.77280000      50.86720000      45.23810000
C       44.22690000      49.13290000      45.23840000
C       54.76190000      49.13250000      55.77280000
C       55.77300000      54.76160000      49.13260000
C       49.13300000      55.77290000      54.76180000
C       45.23840000      50.86740000      55.77300000
C       45.23810000      49.13290000      44.22720000
C       54.76160000      50.86720000      44.22700000
C       44.22690000      45.23840000      49.13280000
C       44.22730000      54.76190000      50.86750000
C       55.77280000      45.23810000      50.86710000
C       50.86720000      44.22700000      54.76170000
C       50.86740000      55.77290000      45.23830000
C       49.13240000      44.22720000      45.23820000
C       44.72160000      46.81830000      51.20510000
C       46.81800000      51.20520000      44.72170000
C       51.20480000      44.72160000      46.81810000
C       55.27850000      53.18170000      51.20490000
C       44.72170000      53.18200000      48.79510000
C       55.27820000      46.81800000      48.79480000
C       53.18170000      48.79490000      44.72150000
C       46.81820000      48.79500000      55.27840000
C       53.18200000      51.20490000      55.27830000
C       48.79500000      55.27840000      46.81820000
C       51.20530000      55.27830000      53.18190000
C       48.79490000      44.72160000      53.18180000
C       46.81800000      44.72170000      51.20510000
C       51.20480000      46.81820000      44.72160000
C       44.72160000      51.20520000      46.81830000
C       53.18210000      55.27820000      51.20500000
C       53.18170000      44.72150000      48.79480000
C       46.81830000      55.27850000      48.79510000
C       48.79490000      53.18200000      44.72170000
C       48.79500000      46.81810000      55.27840000
C       51.20530000      53.18180000      55.27840000
C       55.27820000      48.79480000      46.81800000
C       55.27850000      51.20480000      53.18170000
C       44.72170000      48.79510000      53.18200000
C       51.61120000      56.05200000      49.45650000
C       56.05200000      49.45630000      51.61080000
C       49.45670000      51.61090000      56.05200000
C       48.38880000      43.94810000      49.45650000
C       51.61080000      43.94790000      50.54340000
C       48.38920000      56.05200000      50.54360000
C       43.94810000      50.54370000      51.61110000
C       56.05200000      50.54330000      48.38890000
C       43.94790000      49.45670000      48.38920000
C       50.54360000      48.38890000      56.05200000
C       49.45630000      48.38910000      43.94800000
C       50.54340000      51.61100000      43.94800000
C       56.05200000      51.61080000      49.45640000
C       49.45670000      56.05200000      51.61100000
C       51.61110000      49.45640000      56.05200000
C       43.94790000      48.38920000      49.45660000
C       43.94810000      51.61120000      50.54370000
C       56.05200000      48.38880000      50.54330000
C       50.54330000      43.94800000      51.61090000
C       50.54360000      56.05200000      48.38910000
C       49.45630000      43.94800000      48.38900000
C       48.38920000      50.54350000      56.05200000
C       48.38890000      49.45660000      43.94800000
C       51.61080000      50.54350000      43.94800000
C       55.41320000      50.49420000      54.38020000
C       50.49470000      54.38030000      55.41310000
C       54.38050000      55.41290000      50.49440000
C       44.58700000      49.50570000      54.38040000
C       55.41290000      49.50540000      45.61950000
C       44.58690000      50.49460000      45.61980000
C       49.50560000      45.61960000      55.41300000
C       50.49420000      45.61970000      44.58690000
C       49.50560000      54.38040000      44.58700000
C       45.61950000      44.58710000      50.49450000
C       54.38010000      44.58680000      49.50540000
C       45.61980000      55.41320000      49.50570000
C       50.49470000      55.41300000      54.38040000
C       54.38050000      50.49420000      55.41290000
C       55.41320000      54.38010000      50.49430000
C       49.50550000      44.58690000      54.38030000
C       49.50560000      55.41310000      45.61970000
C       50.49410000      44.58700000      45.61960000
C       45.61980000      49.50570000      55.41310000
C       45.61960000      50.49460000      44.58710000
C       54.38020000      49.50550000      44.58680000
C       44.58680000      45.61980000      50.49450000
C       44.58710000      54.38050000      49.50570000
C       55.41290000      45.61950000      49.50540000
C       46.58380000      45.57420000      55.43190000
C       45.57420000      55.43210000      46.58400000
C       55.43170000      46.58370000      45.57400000
C       53.41650000      54.42570000      55.43180000
C       46.58380000      54.42600000      44.56830000
C       53.41590000      45.57410000      44.56800000
C       54.42560000      44.56800000      46.58360000
C       45.57410000      44.56820000      53.41620000
C       54.42610000      55.43170000      53.41610000
C       44.56810000      53.41640000      45.57430000
C       55.43210000      53.41600000      54.42580000
C       44.56810000      46.58390000      54.42590000
C       45.57420000      46.58390000      55.43190000
C       55.43170000      45.57400000      46.58360000
C       46.58390000      55.43200000      45.57430000
C       54.42610000      53.41600000      55.43180000
C       54.42560000      46.58370000      44.56800000
C       45.57410000      53.41640000      44.56830000
C       44.56820000      54.42610000      46.58400000
C       44.56810000      45.57430000      53.41630000
C       55.43210000      54.42560000      53.41610000
C       53.41590000      44.56810000      45.57400000
C       53.41650000      55.43170000      54.42580000
C       46.58370000      44.56820000      54.42590000
C       56.28570000      48.38450000      52.60680000
C       48.38500000      52.60700000      56.28580000
C       52.60720000      56.28560000      48.38470000
C       43.71440000      51.61540000      52.60720000
C       56.28570000      51.61510000      47.39290000
C       43.71420000      48.38500000      47.39310000
C       51.61530000      47.39290000      56.28560000
C       48.38450000      47.39310000      43.71430000
C       51.61520000      52.60700000      43.71430000
C       47.39270000      43.71440000      48.38470000
C       52.60680000      43.71420000      51.61510000
C       47.39320000      56.28580000      51.61540000
C       48.38500000      56.28570000      52.60710000
C       52.60710000      48.38460000      56.28560000
C       56.28580000      52.60680000      48.38460000
C       51.61510000      43.71420000      52.60690000
C       51.61540000      56.28570000      47.39300000
C       48.38450000      43.71440000      47.39300000
C       47.39320000      51.61530000      56.28580000
C       47.39280000      48.38490000      43.71430000
C       52.60690000      51.61530000      43.71420000
C       43.71420000      47.39320000      48.38490000
C       43.71440000      52.60720000      51.61550000
C       56.28570000      47.39280000      51.61510000
C       53.50240000      52.46810000      54.59400000
C       52.46850000      54.59400000      53.50220000
C       54.59420000      53.50200000      52.46810000
C       46.49790000      47.53180000      54.59410000
C       53.50200000      47.53170000      45.40580000
C       46.49780000      52.46840000      45.40600000
C       47.53170000      45.40600000      53.50220000
C       52.46800000      45.40590000      46.49770000
C       47.53180000      54.59420000      46.49790000
C       45.40590000      46.49790000      52.46830000
C       54.59390000      46.49770000      47.53160000
C       45.40600000      53.50230000      47.53190000
C       52.46840000      53.50200000      54.59410000
C       54.59420000      52.46800000      53.50210000
C       53.50240000      54.59390000      52.46820000
C       47.53180000      46.49790000      54.59410000
C       47.53180000      53.50230000      45.40600000
C       52.46800000      46.49780000      45.40580000
C       45.40590000      47.53190000      53.50230000
C       45.40590000      52.46840000      46.49800000
C       54.59390000      47.53170000      46.49770000
C       46.49770000      45.40600000      52.46830000
C       46.49790000      54.59420000      47.53190000
C       53.50200000      45.40580000      47.53160000
C       46.81980000      45.82120000      44.81160000
C       45.82080000      44.81170000      46.82010000
C       44.81130000      46.82020000      45.82110000
C       53.18000000      54.17890000      44.81150000
C       46.82030000      54.17900000      55.18860000
C       53.18000000      45.82090000      55.18830000
C       54.17900000      55.18830000      46.82000000
C       45.82130000      55.18860000      53.18010000
C       54.17890000      44.81140000      53.17980000
C       55.18840000      53.17980000      45.82100000
C       44.81180000      53.18010000      54.17910000
C       55.18840000      46.81980000      54.17880000
C       45.82080000      46.82020000      44.81160000
C       44.81130000      45.82130000      46.82010000
C       46.81980000      44.81170000      45.82110000
C       54.17890000      53.17990000      44.81150000
C       54.17900000      46.81990000      55.18830000
C       45.82130000      53.18000000      55.18860000
C       55.18850000      54.17880000      46.82000000
C       55.18840000      45.82090000      53.17980000
C       44.81180000      54.17910000      53.18010000
C       53.18000000      55.18840000      45.82100000
C       53.17990000      44.81140000      54.17880000
C       46.82030000      55.18850000      54.17910000
