240
Lattice="100.0 0.0 0.0 0.0 100.0 0.0 0.0 0.0 100.0" Properties=species:S:1:pos:R:3 name=C-53965-5632-245 pressure=44.7156383215262 spacegroup=C1 times_found=1 energy=-1750.43072649939 pbc="T T T"
C       46.18160000      44.44920000      50.57150000
C       44.96060000      50.09790000      46.89330000
C       51.17230000      46.82300000      44.83770000
C       53.59200000      44.70620000      49.47120000
C       53.78530000      55.47140000      50.46400000
C       47.00360000      54.78660000      49.20380000
C       54.91960000      50.42710000      53.41470000
C       54.93580000      49.73980000      46.52590000
C       44.52990000      49.07670000      53.82100000
C       48.56000000      46.75170000      55.24120000
C       49.06960000      53.74940000      44.60020000
C       51.15800000      53.27990000      54.94420000
C       47.03970000      54.77380000      50.71200000
C       44.85750000      48.65570000      46.79940000
C       50.48680000      53.77810000      44.47690000
C       53.87780000      55.50190000      49.03610000
C       53.64660000      44.70730000      50.89740000
C       46.15550000      44.49830000      49.13810000
C       54.91080000      48.94440000      53.36700000
C       55.01610000      51.23210000      46.54530000
C       44.64290000      50.48560000      53.61900000
C       49.69550000      53.29010000      54.84840000
C       49.72140000      46.79790000      44.86040000
C       50.01830000      46.83650000      55.13960000
C       54.78690000      45.30730000      51.45910000
C       45.46960000      51.29110000      54.41160000
C       51.27040000      54.69640000      45.18630000
C       44.99280000      45.07010000      48.57540000
C       46.10840000      53.92940000      51.46910000
C       55.01010000      54.87340000      48.48710000
C       54.24670000      52.01790000      45.55640000
C       54.04710000      48.21140000      54.31160000
C       45.73280000      48.00800000      45.81030000
C       49.07200000      54.36470000      54.21080000
C       49.00100000      45.87890000      45.63100000
C       50.77030000      45.97660000      54.33170000
C       54.60800000      54.66210000      51.25740000
C       45.09030000      48.59730000      55.02700000
C       51.87060000      45.87350000      45.70920000
C       46.08030000      53.89390000      48.48340000
C       45.24600000      45.12930000      51.36890000
C       54.44900000      45.49230000      48.68580000
C       54.39860000      49.11960000      45.39390000
C       54.40430000      51.04870000      54.55460000
C       45.74440000      50.84270000      46.00570000
C       47.87840000      45.76260000      54.37520000
C       48.48530000      54.82110000      45.29950000
C       51.91860000      54.26330000      54.15670000
C       53.35380000      51.88330000      43.35200000
C       51.07390000      43.90970000      53.51810000
C       43.86180000      53.21520000      51.37680000
C       46.63620000      51.65120000      56.29130000
C       46.65310000      48.33910000      43.63770000
C       53.10780000      48.32490000      56.48850000
C       48.80410000      43.83160000      46.51930000
C       48.97810000      56.50060000      53.45490000
C       51.47990000      56.60860000      46.35300000
C       56.97700000      53.69320000      48.67740000
C       56.81040000      46.39710000      51.29390000
C       42.91990000      46.08890000      48.73840000
C       53.68020000      49.09430000      43.23040000
C       51.78360000      56.48850000      53.30470000
C       43.32440000      46.28090000      51.59950000
C       46.10700000      48.91990000      57.08910000
C       46.47710000      51.15530000      43.90430000
C       53.62470000      51.08000000      56.70370000
C       48.59000000      56.81950000      46.41320000
C       48.24780000      43.60290000      53.42220000
C       51.64270000      43.68340000      46.62360000
C       56.29590000      46.73680000      48.45270000
C       56.41450000      53.36800000      51.51210000
C       43.86200000      53.10760000      48.63750000
C       48.88440000      47.52900000      44.02070000
C       47.31380000      44.10090000      48.40600000
C       43.78620000      48.11120000      47.56870000
C       50.86700000      47.54430000      55.99710000
C       51.21530000      52.85540000      43.76210000
C       48.79420000      52.43770000      55.53930000
C       52.53150000      44.23190000      51.63270000
C       52.80430000      56.03850000      48.27950000
C       47.79370000      55.79550000      51.37020000
C       55.90180000      48.37180000      52.51920000
C       56.00660000      51.75920000      47.42540000
C       44.00900000      51.18810000      52.62150000
C       48.35670000      52.62100000      44.14770000
C       47.67910000      55.86510000      48.54060000
C       44.13540000      50.93000000      47.64520000
C       51.68640000      52.43280000      55.95280000
C       51.71970000      47.69470000      43.85460000
C       48.04560000      47.55830000      56.31430000
C       52.83730000      56.14810000      51.19580000
C       52.64910000      44.02610000      48.73790000
C       47.18460000      43.85070000      51.30690000
C       55.58260000      51.29820000      52.48890000
C       55.55180000      48.83970000      47.46330000
C       43.95800000      48.28390000      52.79180000
C       46.35280000      52.39810000      54.00100000
C       52.52570000      54.44880000      45.90420000
C       54.94930000      46.10600000      52.61120000
C       53.21180000      53.23860000      45.35970000
C       52.89700000      47.13090000      54.42360000
C       46.87880000      46.97940000      45.60390000
C       47.87100000      54.51160000      53.49730000
C       47.64960000      45.90050000      46.20550000
C       52.14150000      46.04540000      53.79010000
C       44.81650000      45.90480000      47.44730000
C       45.84000000      53.03190000      52.75320000
C       55.16410000      54.07800000      47.32930000
C       45.83170000      47.43670000      55.33840000
C       52.99690000      45.69630000      46.77560000
C       54.24120000      53.84970000      52.43370000
C       53.78450000      47.86050000      45.16780000
C       53.81320000      52.31440000      54.77040000
C       46.33900000      52.17790000      46.09460000
C       46.71620000      45.46860000      53.28850000
C       47.44890000      54.85370000      46.25390000
C       53.08560000      54.44700000      53.12960000
C       45.82120000      52.89370000      47.28270000
C       45.49330000      45.91730000      52.59600000
C       54.13140000      46.29930000      47.49300000
C       50.83990000      57.63620000      47.02830000
C       57.60040000      47.19920000      50.51520000
C       47.17330000      51.13770000      57.45720000
C       49.59680000      57.52160000      52.78910000
C       49.40860000      42.74340000      47.10650000
C       50.52630000      42.78570000      52.93860000
C       42.11460000      46.88210000      49.51850000
C       42.74740000      52.68630000      50.74770000
C       57.72140000      52.85580000      49.46110000
C       52.75660000      51.15250000      42.33140000
C       52.61680000      49.04080000      57.57390000
C       47.14200000      49.16110000      42.63820000
C       50.86290000      42.68860000      47.19700000
C       57.48620000      52.73770000      50.91270000
C       46.93680000      49.73040000      57.82300000
C       49.07850000      42.65450000      52.85050000
C       49.37180000      57.70850000      47.09810000
C       51.05190000      57.52300000      52.72190000
C       42.75020000      52.63400000      49.30380000
C       42.28350000      46.94180000      50.97350000
C       57.38490000      47.32640000      49.06120000
C       52.91500000      49.71200000      42.27310000
C       52.83050000      50.48220000      57.64730000
C       47.01180000      50.61270000      42.74960000
C       51.47050000      49.53020000      42.22720000
C       49.17260000      42.48150000      51.41070000
C       42.43380000      51.21400000      49.33570000
C       48.36380000      49.51510000      57.82210000
C       48.41870000      50.77380000      42.48210000
C       51.38550000      50.68840000      57.67380000
C       50.76600000      42.52000000      48.63640000
C       50.97570000      57.65780000      51.27580000
C       49.41340000      57.65940000      48.53830000
C       57.40850000      51.31950000      50.80330000
C       57.36190000      48.74680000      49.16620000
C       42.30150000      48.37770000      50.92700000
C       51.30840000      51.00010000      42.24650000
C       49.49940000      57.59650000      51.34350000
C       42.18390000      48.32720000      49.44290000
C       48.59200000      50.95260000      57.51360000
C       48.56350000      49.29810000      42.38860000
C       51.18660000      49.22130000      57.70310000
C       50.90140000      57.65340000      48.45670000
C       50.65060000      42.60170000      51.51630000
C       49.28280000      42.56780000      48.52850000
C       57.50140000      48.63210000      50.64280000
C       57.56360000      51.42780000      49.32840000
C       42.43520000      51.26190000      50.81150000
C       54.24050000      51.29390000      44.30100000
C       50.16730000      44.73770000      54.23160000
C       44.90130000      53.90760000      50.68730000
C       45.59710000      50.87680000      55.72790000
C       45.77480000      48.85160000      44.63350000
C       54.06560000      48.88120000      55.59160000
C       49.66870000      44.68350000      45.77750000
C       49.78480000      55.58690000      54.21550000
C       50.65190000      55.91670000      45.44060000
C       56.12430000      54.61010000      49.36500000
C       55.92920000      45.51460000      50.60110000
C       43.81840000      45.20000000      49.41140000
C       54.36960000      49.89640000      44.20280000
C       51.18560000      55.52180000      54.16070000
C       43.99410000      45.32170000      50.79710000
C       45.30350000      49.55430000      56.09310000
C       45.78740000      50.25310000      44.74950000
C       54.30760000      50.25790000      55.73720000
C       49.25110000      56.02760000      45.42520000
C       48.76320000      44.61920000      54.26570000
C       51.07360000      44.65940000      45.77220000
C       55.69980000      45.71480000      49.22960000
C       55.86340000      54.41090000      50.73230000
C       44.88790000      53.87500000      49.27660000
C       48.52320000      56.79600000      49.24500000
C       56.53880000      49.48900000      48.31310000
C       48.90340000      48.41800000      57.09790000
C       51.92350000      56.97930000      50.49370000
C       51.70440000      43.20810000      49.43410000
C       48.19180000      43.11200000      50.61070000
C       43.09200000      49.06030000      51.84840000
C       43.10250000      50.35500000      48.44430000
C       56.54990000      50.61120000      51.64770000
C       50.86560000      48.50260000      42.99360000
C       50.81170000      51.64540000      56.78040000
C       49.09870000      51.78070000      43.16540000
C       48.24330000      43.22570000      49.18920000
C       56.71830000      50.88820000      48.31050000
C       49.40170000      51.67160000      56.62650000
C       51.64840000      43.31400000      50.85240000
C       51.89980000      56.91200000      49.07780000
C       48.57280000      56.76600000      50.65070000
C       43.09730000      50.48390000      51.78230000
C       42.97870000      48.94330000      48.43880000
C       56.66970000      49.20790000      51.65070000
C       50.50730000      51.88810000      42.98300000
C       50.31050000      48.37130000      57.00840000
C       49.44840000      48.41720000      43.05060000
C       52.51290000      55.72650000      46.88410000
C       56.03150000      46.96350000      52.39510000
C       47.34540000      52.38670000      55.26100000
C       47.95260000      55.71340000      52.78030000
C       47.67950000      44.55920000      47.06280000
C       52.16950000      44.68070000      52.97100000
C       43.68580000      46.70050000      47.66290000
C       44.47990000      52.51410000      52.42050000
C       56.19410000      53.16300000      47.55950000
C       52.60290000      52.83690000      44.06070000
C       52.26330000      47.50470000      55.70890000
C       47.49200000      47.43400000      44.31980000
C       52.61200000      44.37310000      47.36670000
C       55.40560000      52.76200000      52.37820000
C       46.64340000      47.71900000      56.44030000
C       47.21740000      44.20620000      52.68390000
C       47.66100000      55.93690000      47.11670000
C       52.74440000      55.78490000      52.56030000
C       44.51300000      52.31140000      47.67720000
C       44.23180000      46.87110000      52.56610000
C       55.32360000      47.37310000      47.56930000
C       53.10960000      47.95840000      43.93710000
C       53.08700000      52.21440000      55.96950000
C       47.06070000      52.23410000      44.67520000
