240
Lattice="100.0 0.0 0.0 0.0 100.0 0.0 0.0 0.0 100.0" Properties=species:S:1:pos:R:3 name=C-53965-5632-1388 pressure=0.0118548188459644 spacegroup=C1 times_found=1 energy=-1778.5920794851 pbc="T T T"
C       50.43040000      50.58640000      57.14400000
C       50.73390000      57.56450000      50.77680000
C       58.46460000      50.46430000      50.63300000
C       49.36840000      50.86060000      42.93700000
C       48.89400000      49.35480000      57.69260000
C       50.84710000      49.42890000      42.77400000
C       49.27770000      57.69110000      49.30300000
C       49.14650000      41.89590000      51.32900000
C       50.43850000      42.20760000      49.77850000
C       42.56490000      50.30100000      49.38410000
C       42.13700000      48.73870000      50.63340000
C       58.03730000      49.44690000      48.89880000
C       50.37200000      49.18790000      57.56390000
C       50.57120000      42.12120000      51.20990000
C       58.11780000      49.07570000      50.26530000
C       49.37810000      49.41200000      42.77380000
C       49.02670000      50.75300000      57.33290000
C       50.82660000      50.87660000      42.95250000
C       49.00890000      41.92080000      49.84660000
C       49.27540000      57.58080000      50.76690000
C       50.73100000      57.69530000      49.30990000
C       42.48320000      48.88330000      49.23170000
C       42.15490000      50.21910000      50.78600000
C       58.25280000      50.85010000      49.25890000
C       56.97110000      51.57330000      52.30200000
C       51.10250000      52.47200000      55.85680000
C       53.03540000      56.71470000      51.57750000
C       43.82790000      51.05300000      47.49810000
C       43.35680000      48.27510000      52.93380000
C       56.09600000      48.51150000      47.46990000
C       48.48790000      53.11150000      43.86470000
C       48.32590000      47.06050000      56.53390000
C       51.78430000      47.07490000      43.30700000
C       46.95810000      57.09270000      48.36120000
C       46.94000000      43.26570000      51.77490000
C       52.41260000      43.28460000      49.08160000
C       56.86440000      48.74010000      52.28520000
C       51.38510000      47.40550000      56.05890000
C       52.87580000      42.96790000      52.00200000
C       43.65130000      48.17240000      47.02600000
C       43.60410000      51.31920000      52.54450000
C       56.64950000      50.78630000      47.60900000
C       48.55780000      47.03600000      43.36700000
C       48.25540000      52.98110000      56.25940000
C       51.64400000      53.15070000      43.88480000
C       47.37080000      43.50190000      48.72620000
C       46.93280000      56.84510000      51.57340000
C       53.05180000      57.19050000      48.34870000
C       44.26290000      45.79430000      50.77960000
C       46.18430000      50.73300000      44.64090000
C       50.95000000      44.30100000      45.48620000
C       55.30270000      45.45170000      49.52040000
C       55.85120000      54.66130000      50.37780000
C       44.34320000      54.68220000      49.08600000
C       54.59920000      50.82930000      54.94290000
C       53.88330000      49.39150000      44.62260000
C       45.87000000      49.24130000      55.64510000
C       49.15770000      44.18720000      54.17320000
C       49.29290000      56.02700000      46.10860000
C       50.70130000      55.51770000      53.75880000
C       44.33830000      54.44620000      50.45760000
C       46.19960000      49.26260000      44.49030000
C       50.75050000      56.05610000      46.10220000
C       55.81220000      54.92970000      49.01660000
C       55.43340000      45.22340000      50.89540000
C       44.37850000      45.81480000      49.33150000
C       54.36180000      49.45440000      54.91280000
C       53.95220000      50.84730000      44.76570000
C       45.89240000      50.68760000      55.54160000
C       49.23090000      55.65120000      53.80940000
C       49.57050000      44.31810000      45.68490000
C       50.60460000      44.22300000      54.14480000
C       51.75470000      51.76880000      43.39220000
C       51.47810000      42.55860000      52.13700000
C       42.54820000      50.80790000      51.87170000
C       48.12030000      51.64630000      56.85510000
C       48.42030000      48.46850000      43.02160000
C       50.95650000      48.12310000      57.12220000
C       47.97720000      42.40450000      49.23060000
C       48.35740000      57.22110000      51.70970000
C       51.61920000      57.49330000      48.29170000
C       57.24130000      51.64240000      48.62420000
C       57.16260000      48.34840000      51.02970000
C       43.01620000      48.00410000      48.34150000
C       51.83600000      48.51240000      43.00130000
C       51.63440000      57.14960000      51.72450000
C       42.78140000      47.98740000      51.57190000
C       48.08730000      48.43160000      57.09250000
C       48.40960000      51.73760000      43.33900000
C       51.32130000      51.19490000      56.24750000
C       48.38330000      57.45280000      48.29330000
C       48.27050000      42.63780000      52.06410000
C       51.12080000      42.99490000      48.82300000
C       57.02820000      49.44140000      47.94820000
C       58.06890000      51.07440000      51.70650000
C       43.37440000      51.25920000      48.75540000
C       50.57380000      53.55480000      55.29910000
C       54.00300000      56.32420000      50.64530000
C       56.30840000      50.77530000      53.28930000
C       49.31640000      54.07290000      44.48390000
C       49.16040000      46.17800000      55.77260000
C       50.90790000      46.08690000      43.81250000
C       46.00930000      56.46840000      49.20540000
C       46.12550000      44.04370000      50.88640000
C       53.51210000      43.79550000      49.57930000
C       44.48670000      50.54050000      46.46320000
C       44.12730000      49.14940000      53.77260000
C       55.37880000      49.25370000      46.49830000
C       50.60610000      46.28910000      55.55950000
C       53.74140000      43.53050000      51.04460000
C       56.16410000      49.29940000      53.25170000
C       49.43350000      46.08730000      43.92470000
C       49.11970000      53.78770000      55.48680000
C       50.78820000      54.09800000      44.48610000
C       46.28570000      44.17000000      49.43550000
C       46.00680000      56.28960000      50.67340000
C       54.02100000      56.59180000      49.18530000
C       44.41380000      49.07250000      46.24800000
C       44.25140000      50.60350000      53.63450000
C       55.61050000      50.68210000      46.59800000
C       54.94600000      55.81560000      48.41500000
C       55.08250000      48.62170000      54.05470000
C       48.46130000      54.73440000      54.63250000
C       45.16060000      55.22860000      51.27990000
C       45.47140000      45.05840000      48.69120000
C       54.68620000      44.36810000      51.66540000
C       45.35000000      48.45460000      45.34910000
C       45.12240000      51.34460000      54.47100000
C       54.80130000      51.55030000      45.79870000
C       51.48600000      55.06150000      45.32360000
C       51.30340000      45.36150000      54.75790000
C       48.78730000      45.19850000      44.92340000
C       54.30540000      44.78820000      48.79850000
C       55.47090000      51.48710000      54.11130000
C       48.44070000      45.17840000      54.96600000
C       45.17210000      44.95370000      51.54880000
C       45.13060000      55.61740000      48.45280000
C       54.90320000      55.30560000      51.20670000
C       45.36520000      51.39220000      45.66880000
C       45.01600000      48.47810000      54.74020000
C       54.56050000      48.59770000      45.61260000
C       51.61830000      45.14650000      44.62620000
C       51.38030000      54.40590000      54.42850000
C       48.59120000      55.00390000      45.33340000
C       47.95370000      44.00550000      47.48290000
C       44.01630000      46.80250000      47.14080000
C       47.21110000      47.10940000      43.80470000
C       52.79930000      43.53250000      53.31930000
C       52.94790000      56.80210000      46.97670000
C       47.03460000      56.35160000      52.89980000
C       55.78230000      46.40200000      51.58780000
C       56.05730000      53.76890000      48.23790000
C       44.08460000      52.58920000      52.01290000
C       52.59640000      47.89910000      55.40490000
C       53.00770000      53.02200000      44.27390000
C       46.87000000      52.87490000      55.95060000
C       47.07480000      56.68190000      46.99940000
C       44.20170000      53.47840000      48.35000000
C       47.13150000      52.92840000      44.25640000
C       52.88880000      56.05000000      52.83560000
C       51.65200000      44.04920000      46.69460000
C       46.99530000      43.62120000      53.15120000
C       56.35220000      52.81640000      51.83890000
C       55.65670000      47.24080000      47.95510000
C       43.67440000      46.88950000      52.90760000
C       53.44350000      51.58050000      55.20140000
C       53.10880000      47.20170000      43.83110000
C       46.93270000      47.10870000      56.25310000
C       54.68070000      53.02990000      46.01520000
C       52.70160000      45.65590000      54.45890000
C       45.37440000      54.66700000      52.57490000
C       45.33570000      52.74530000      54.12890000
C       45.62410000      47.03120000      45.50220000
C       54.57190000      47.29450000      53.86350000
C       47.47520000      45.39660000      45.44660000
C       47.03020000      54.57820000      54.40120000
C       52.91780000      54.89330000      45.55250000
C       54.71550000      55.25050000      47.12250000
C       54.52450000      45.03710000      52.93250000
C       45.85670000      45.29670000      47.30690000
C       54.38440000      47.18470000      45.85390000
C       52.80190000      54.04380000      54.16620000
C       45.28930000      45.19470000      52.97500000
C       45.22070000      47.04570000      54.64640000
C       45.48020000      52.83810000      46.00870000
C       54.89580000      52.75260000      53.83760000
C       47.17350000      54.77520000      45.57570000
C       47.01110000      45.31490000      54.77200000
C       52.88030000      45.36900000      45.27430000
C       53.98280000      45.29320000      47.48600000
C       54.65530000      54.62400000      52.43560000
C       45.38700000      55.03960000      47.16940000
C       55.09220000      46.34440000      52.89240000
C       46.30080000      53.47180000      54.87030000
C       53.62180000      55.73940000      46.41020000
C       45.13050000      46.26940000      46.57530000
C       44.87860000      53.35600000      52.91380000
C       55.26540000      53.90140000      47.02210000
C       53.64340000      53.70330000      45.25880000
C       53.32460000      46.94810000      54.59950000
C       46.68420000      46.40730000      44.85400000
C       46.36850000      55.26020000      53.38590000
C       47.08990000      44.85060000      46.72400000
C       53.43450000      44.69260000      53.72990000
C       55.37550000      53.44600000      52.71990000
C       46.29690000      46.40660000      55.29250000
C       52.93050000      44.79220000      46.59280000
C       44.91330000      53.65640000      47.08400000
C       44.66310000      46.28980000      53.60050000
C       54.70350000      46.52870000      47.08910000
C       53.61000000      46.49200000      44.91130000
C       53.59590000      52.87620000      54.51330000
C       46.48710000      53.56440000      45.26680000
C       46.34220000      44.64950000      53.72730000
C       46.44530000      55.58520000      46.44580000
C       53.51840000      54.90810000      53.25660000
C       56.69630000      52.84980000      49.12270000
C       53.06300000      49.25490000      55.48170000
C       48.44680000      56.52920000      53.01720000
C       43.92000000      53.08750000      50.66780000
C       43.61330000      46.64860000      48.48900000
C       56.34940000      47.25050000      50.59560000
C       47.07440000      48.51970000      43.65110000
C       46.74020000      51.51170000      56.31190000
C       53.11880000      51.64610000      43.97070000
C       51.53180000      56.91780000      46.91990000
C       51.40020000      43.30970000      53.42550000
C       49.30620000      43.81740000      47.00690000
C       55.92640000      46.72020000      49.26480000
C       52.52190000      50.63060000      55.71990000
C       48.36030000      43.31770000      53.37070000
C       43.41670000      46.65900000      51.53540000
C       43.76130000      52.52230000      49.29780000
C       56.46860000      53.37350000      50.53540000
C       47.04960000      51.56440000      43.90690000
C       46.73940000      48.48880000      56.49170000
C       53.14180000      48.61890000      43.69760000
C       50.65700000      43.55300000      47.59220000
C       51.51620000      56.35910000      52.97800000
C       48.48360000      56.85890000      46.92980000
