240
Lattice="100.0 0.0 0.0 0.0 100.0 0.0 0.0 0.0 100.0" Properties=species:S:1:pos:R:3 name=C-53965-5632-1249 pressure=-4.44629572751385 energy=-1741.8317017442 spacegroup=C1 times_found=1 pbc="T T T"
C       49.33060000      55.71300000      48.24980000
C       47.99580000      49.28880000      55.80380000
C       55.92320000      48.26580000      49.20150000
C       50.61460000      44.78420000      48.32280000
C       50.61110000      55.84360000      51.54420000
C       49.21810000      44.41030000      51.68720000
C       51.47360000      50.75270000      55.57380000
C       51.97270000      49.27290000      44.20680000
C       48.45300000      50.72780000      44.27120000
C       44.46990000      51.80280000      49.20170000
C       44.25660000      48.20340000      50.74140000
C       55.70580000      51.82130000      50.68340000
C       55.89180000      49.30910000      48.19380000
C       49.05140000      48.34160000      55.79200000
C       48.10040000      56.09160000      49.05360000
C       44.47100000      50.74360000      48.22300000
C       55.65630000      50.77850000      51.63590000
C       44.23730000      49.23380000      51.75860000
C       50.49510000      51.77660000      55.54960000
C       49.46140000      51.76900000      44.27540000
C       50.95060000      48.22280000      44.20350000
C       51.77540000      44.53730000      49.27710000
C       48.18140000      44.32120000      50.72860000
C       51.68710000      55.85330000      50.58470000
C       53.98930000      53.18450000      52.00620000
C       51.94380000      54.15690000      52.90440000
C       52.86160000      52.15500000      53.87150000
C       45.58930000      46.71710000      52.30170000
C       45.99070000      53.21930000      47.75640000
C       54.33440000      46.89110000      47.77640000
C       47.51150000      45.74470000      53.32030000
C       47.93110000      54.22730000      46.76280000
C       52.36200000      45.85920000      46.75840000
C       46.45840000      47.66240000      54.40900000
C       47.09500000      52.12580000      45.88060000
C       53.39550000      47.81410000      45.71500000
C       52.97460000      54.18110000      51.97550000
C       53.90140000      52.19230000      52.94890000
C       51.90200000      53.13300000      53.89660000
C       46.57430000      45.67500000      52.32220000
C       53.30960000      45.90000000      47.77210000
C       46.89740000      54.30730000      47.68690000
C       45.52820000      47.68620000      53.30970000
C       54.33480000      47.87900000      46.79240000
C       46.07870000      52.15040000      46.86980000
C       47.44580000      46.70700000      54.35860000
C       52.43470000      46.81100000      45.68280000
C       48.00240000      53.16210000      45.82430000
C       49.89370000      46.21950000      48.32990000
C       49.47990000      52.10770000      48.74880000
C       48.58900000      48.47510000      51.08900000
C       49.44440000      54.49750000      49.19630000
C       49.40200000      46.73800000      52.42160000
C       51.68530000      48.07360000      52.25950000
C       48.11460000      47.67820000      47.16230000
C       52.59240000      49.85070000      53.52640000
C       48.65770000      48.93560000      53.12040000
C       53.72900000      48.89410000      51.59970000
C       50.52550000      48.56790000      47.65780000
C       47.99960000      53.04660000      50.73700000
C       48.84650000      52.37700000      49.91080000
C       48.55280000      46.57700000      47.83320000
C       49.13000000      47.27080000      51.11930000
C       49.21910000      48.36720000      47.41840000
C       48.07170000      49.38510000      52.02690000
C       53.63630000      49.89550000      52.58110000
C       50.00770000      53.33460000      48.60070000
C       51.64640000      48.83030000      53.37030000
C       49.20970000      47.70730000      53.47080000
C       52.77220000      48.02730000      51.54920000
C       48.71130000      54.17590000      50.42770000
C       50.76530000      47.32100000      48.14750000
C       44.03750000      54.24880000      50.55480000
C       50.56550000      44.09230000      54.17640000
C       54.41460000      50.74440000      43.86930000
C       56.17530000      45.84150000      50.69180000
C       56.06590000      54.29630000      49.29310000
C       43.91610000      45.76910000      49.25120000
C       49.17020000      56.13490000      53.99550000
C       49.46320000      43.95020000      45.81560000
C       50.72750000      56.19480000      45.67850000
C       45.99990000      49.30210000      43.93430000
C       45.56350000      50.73650000      56.09540000
C       54.02250000      49.52590000      56.05700000
C       54.21660000      44.06010000      50.71040000
C       43.78170000      50.72690000      54.14760000
C       50.83040000      54.24410000      43.88990000
C       45.69280000      56.29230000      50.43100000
C       54.20610000      56.17000000      49.25080000
C       45.79680000      43.91460000      49.26950000
C       55.93420000      49.49840000      54.20670000
C       44.11600000      49.32590000      45.76920000
C       56.26090000      50.75850000      45.75490000
C       49.47020000      45.76860000      43.92560000
C       50.50360000      45.90340000      56.07650000
C       49.11420000      54.26370000      55.85880000
C       51.22180000      56.64680000      46.91480000
C       46.80980000      51.28280000      56.45190000
C       56.54760000      47.09990000      51.22190000
C       48.89340000      43.55190000      47.05890000
C       48.68100000      56.58150000      52.75830000
C       51.12960000      43.73070000      52.93550000
C       52.77020000      48.98140000      56.46920000
C       53.16530000      51.26340000      43.49560000
C       47.22840000      48.76950000      43.54410000
C       43.75720000      52.99950000      51.11780000
C       43.58410000      47.03080000      48.73170000
C       56.49950000      53.06390000      48.77570000
C       56.60860000      51.29230000      47.00750000
C       51.01160000      47.14040000      56.53130000
C       46.91460000      56.77780000      50.97180000
C       43.69060000      48.80920000      46.99780000
C       56.32740000      48.93990000      52.95480000
C       43.53510000      51.25760000      52.86990000
C       48.58090000      53.04040000      56.28860000
C       51.38660000      53.01000000      43.52150000
C       48.95510000      47.01630000      43.54160000
C       52.93880000      43.77460000      51.22150000
C       47.05050000      43.53630000      48.76140000
C       52.98750000      56.59930000      48.70050000
C       56.35440000      48.35600000      50.61990000
C       50.68150000      56.40110000      48.18190000
C       48.06260000      50.72290000      56.20490000
C       43.99800000      51.73920000      50.60090000
C       43.85290000      48.28310000      49.30250000
C       56.28380000      51.78570000      49.30460000
C       49.35200000      43.88730000      48.33860000
C       49.22150000      56.38620000      51.47460000
C       50.61180000      43.97550000      51.65080000
C       51.45780000      49.45940000      56.23850000
C       51.91070000      50.69560000      43.74590000
C       48.49290000      49.31810000      43.76240000
C       48.18410000      56.54410000      50.42880000
C       56.34520000      50.73690000      48.26820000
C       50.42410000      48.40440000      56.30720000
C       51.69370000      44.02970000      50.63860000
C       48.29420000      43.84960000      49.32280000
C       51.69640000      56.37260000      49.20620000
C       43.93040000      49.33910000      48.26950000
C       56.20340000      49.42550000      51.63170000
C       43.87150000      50.68360000      51.64340000
C       49.10910000      51.75810000      56.10450000
C       50.86120000      51.73780000      43.76840000
C       49.52130000      48.27630000      43.76290000
C       44.78030000      54.35090000      49.41660000
C       49.49000000      44.92760000      54.19650000
C       54.43500000      49.65330000      44.70600000
C       55.41220000      45.76310000      49.54780000
C       55.17040000      54.29530000      50.33920000
C       44.69900000      45.72070000      50.37430000
C       50.21550000      55.25370000      54.00180000
C       50.55270000      44.79230000      45.74260000
C       49.67540000      55.30860000      45.67880000
C       46.03050000      50.33510000      44.82470000
C       45.52040000      49.60330000      55.30950000
C       54.07980000      50.58830000      55.18820000
C       54.33810000      44.80490000      49.56730000
C       44.56590000      49.60570000      54.25720000
C       49.74860000      54.25830000      44.72860000
C       45.69210000      55.44610000      49.34170000
C       54.16690000      55.30080000      50.31320000
C       45.70910000      44.72440000      50.38230000
C       55.10980000      50.60060000      54.24270000
C       45.02810000      50.34780000      45.80530000
C       55.42470000      49.66620000      45.71990000
C       50.54810000      45.77690000      44.74720000
C       49.45300000      45.88150000      55.20540000
C       50.18300000      54.24300000      54.99230000
C       53.33370000      47.60600000      56.27520000
C       56.33420000      53.62040000      47.39580000
C       47.31270000      56.40960000      53.30910000
C       46.27280000      52.65540000      56.21290000
C       46.63580000      47.40610000      43.69710000
C       53.70250000      52.64750000      43.69890000
C       43.81500000      46.48270000      47.35790000
C       43.85590000      53.58640000      52.48540000
C       56.24780000      46.59040000      52.60600000
C       52.48700000      43.92930000      53.52200000
C       52.60930000      56.40920000      46.39710000
C       47.52090000      43.73200000      46.45350000
C       47.21050000      53.60820000      56.09320000
C       53.56210000      56.38290000      47.34540000
C       56.09210000      47.57710000      53.51650000
C       52.40000000      46.63030000      56.32400000
C       47.58090000      46.46290000      43.71420000
C       52.74980000      53.59200000      43.71570000
C       46.52940000      43.72550000      47.36420000
C       53.46210000      43.95550000      52.60280000
C       46.38670000      56.50760000      52.34340000
C       43.70290000      52.64270000      53.42270000
C       56.40140000      52.66810000      46.45310000
C       43.86730000      47.43750000      46.42380000
C       50.94570000      55.15200000      52.80310000
C       52.69960000      50.92260000      54.65380000
C       55.02570000      53.09320000      51.04970000
C       48.89930000      45.31620000      52.89920000
C       48.95350000      55.17110000      46.86000000
C       51.28440000      44.96600000      46.90320000
C       46.67430000      48.79900000      55.26040000
C       47.21710000      51.07590000      44.94020000
C       53.25450000      48.88220000      44.79660000
C       44.76390000      46.89580000      51.17020000
C       44.97390000      53.12070000      48.73880000
C       55.33350000      46.96200000      48.78250000
C       54.71860000      50.98880000      52.84150000
C       50.88300000      53.03550000      54.87020000
C       52.93470000      55.19090000      50.99370000
C       44.68700000      48.80240000      53.09830000
C       55.28530000      48.92110000      46.91430000
C       45.13350000      51.10230000      46.98500000
C       48.78310000      47.13290000      54.88490000
C       51.36060000      46.93660000      44.76740000
C       49.05290000      53.04320000      44.88630000
C       46.85100000      44.84380000      51.18610000
C       53.12740000      44.97200000      48.83640000
C       46.89270000      55.38090000      48.62100000
C       54.82460000      55.85400000      47.92870000
C       47.79060000      54.86510000      55.53940000
C       55.55610000      48.15080000      54.76490000
C       45.24800000      44.23920000      47.92470000
C       45.16200000      55.92230000      51.77390000
C       54.77890000      44.37540000      52.05250000
C       51.86530000      45.36130000      55.76650000
C       52.14440000      54.86740000      44.19810000
C       48.13820000      45.18340000      44.22240000
C       44.06880000      52.06420000      54.73780000
C       44.40020000      47.99300000      45.16650000
C       55.94130000      52.09120000      45.16560000
C       55.78570000      54.88350000      47.95260000
C       54.58830000      48.16950000      55.73950000
C       47.83200000      55.83570000      54.57280000
C       44.27350000      45.19550000      47.91750000
C       55.76400000      45.31720000      52.03180000
C       44.28710000      54.88160000      51.86580000
C       44.99460000      52.06420000      55.74260000
C       54.98390000      52.08580000      44.19110000
C       45.37180000      47.98230000      44.21390000
C       51.89840000      44.40820000      54.79240000
C       48.14140000      44.23740000      45.20880000
C       52.07670000      55.86290000      45.13240000
