240
Lattice="100.0 0.0 0.0 0.0 100.0 0.0 0.0 0.0 100.0" Properties=species:S:1:pos:R:3 name=C-53965-5632-1174 pressure=0.0118954792186704 energy=-1746.50459141866 spacegroup=Oh times_found=1 pbc="T T T"
C       51.46920000      48.53130000      43.32070000
C       48.53110000      43.32060000      51.46860000
C       43.32080000      51.46890000      48.53080000
C       48.53150000      51.46910000      43.32070000
C       51.46860000      51.46870000      56.67940000
C       48.53080000      48.53090000      56.67920000
C       51.46880000      56.67930000      51.46910000
C       48.53120000      56.67940000      48.53120000
C       51.46890000      43.32070000      48.53100000
C       56.67940000      48.53120000      48.53140000
C       43.32060000      48.53110000      51.46850000
C       56.67920000      51.46880000      51.46920000
C       51.46850000      48.53090000      56.67930000
C       48.53120000      43.32070000      48.53090000
C       43.32060000      51.46880000      51.46860000
C       48.53080000      51.46870000      56.67930000
C       51.46920000      51.46910000      43.32080000
C       48.53140000      48.53130000      43.32060000
C       51.46890000      56.67940000      48.53140000
C       48.53110000      56.67930000      51.46900000
C       51.46880000      43.32060000      51.46880000
C       56.67920000      48.53110000      51.46920000
C       43.32080000      48.53120000      48.53080000
C       56.67940000      51.46890000      48.53150000
C       55.71050000      52.77880000      46.28410000
C       52.77840000      46.28360000      55.71030000
C       46.28370000      55.71020000      52.77870000
C       44.28990000      47.22140000      46.28340000
C       55.71010000      47.22120000      53.71640000
C       44.28950000      52.77860000      53.71600000
C       47.22100000      53.71600000      55.71020000
C       52.77900000      53.71640000      44.29000000
C       47.22160000      46.28400000      44.28950000
C       53.71610000      44.28960000      52.77870000
C       46.28390000      44.28980000      47.22090000
C       53.71630000      55.71040000      47.22160000
C       55.71010000      52.77860000      53.71660000
C       52.77900000      46.28400000      44.28980000
C       46.28390000      55.71040000      47.22130000
C       44.28950000      47.22120000      53.71590000
C       55.71050000      47.22140000      46.28400000
C       44.28990000      52.77880000      46.28360000
C       47.22160000      53.71640000      44.28970000
C       52.77840000      53.71600000      55.71050000
C       47.22100000      46.28360000      55.71000000
C       53.71630000      44.28980000      47.22130000
C       46.28370000      44.28960000      52.77840000
C       53.71610000      55.71020000      52.77910000
C       50.70070000      45.25230000      54.74750000
C       45.25240000      54.74760000      50.70080000
C       54.74780000      50.70100000      45.25260000
C       49.29890000      54.74750000      54.74770000
C       50.70110000      54.74770000      45.25260000
C       49.29930000      45.25250000      45.25220000
C       54.74760000      45.25240000      50.70100000
C       45.25240000      45.25240000      49.29870000
C       54.74760000      54.74760000      49.29950000
C       45.25260000      49.29920000      45.25210000
C       54.74740000      49.29900000      54.74780000
C       45.25220000      50.70080000      54.74740000
C       50.70110000      45.25250000      45.25230000
C       45.25240000      54.74760000      49.29900000
C       54.74740000      50.70080000      54.74790000
C       49.29930000      54.74770000      45.25250000
C       50.70070000      54.74750000      54.74780000
C       49.29890000      45.25230000      54.74740000
C       54.74760000      45.25240000      49.29920000
C       45.25240000      45.25240000      50.70050000
C       54.74760000      54.74760000      50.70130000
C       45.25220000      49.29900000      54.74740000
C       54.74780000      49.29920000      45.25260000
C       45.25260000      50.70100000      45.25220000
C       49.28010000      49.28000000      42.44740000
C       49.27980000      42.44750000      49.27950000
C       42.44750000      49.27980000      49.27940000
C       50.72060000      50.72050000      42.44750000
C       49.27940000      50.72000000      57.55250000
C       50.71990000      49.27950000      57.55260000
C       50.72030000      57.55260000      49.28000000
C       49.27970000      57.55250000      50.72040000
C       50.72020000      42.44740000      50.72010000
C       57.55260000      50.72030000      49.28010000
C       42.44740000      50.72020000      50.71990000
C       57.55250000      49.27970000      50.72060000
C       49.27940000      49.27950000      57.55250000
C       49.27970000      42.44740000      50.72000000
C       42.44740000      49.27970000      50.71990000
C       50.71990000      50.72000000      57.55260000
C       49.28010000      50.72050000      42.44740000
C       50.72060000      49.28000000      42.44750000
C       50.72020000      57.55250000      50.72050000
C       49.27980000      57.55260000      49.27990000
C       50.72030000      42.44750000      49.27960000
C       57.55250000      50.72020000      50.72060000
C       42.44750000      50.72030000      49.27940000
C       57.55260000      49.27980000      49.28010000
C       55.18680000      54.12860000      45.87190000
C       54.12820000      45.87140000      55.18670000
C       45.87130000      55.18650000      54.12840000
C       44.81360000      45.87170000      45.87120000
C       55.18640000      45.87140000      54.12860000
C       44.81320000      54.12830000      54.12830000
C       45.87130000      54.12830000      55.18650000
C       54.12870000      54.12860000      44.81370000
C       45.87180000      45.87170000      44.81310000
C       54.12830000      44.81330000      54.12850000
C       45.87170000      44.81350000      45.87120000
C       54.12870000      55.18670000      45.87190000
C       55.18640000      54.12830000      54.12880000
C       54.12870000      45.87170000      44.81350000
C       45.87170000      55.18670000      45.87150000
C       44.81320000      45.87140000      54.12810000
C       55.18680000      45.87170000      45.87170000
C       44.81360000      54.12860000      45.87140000
C       45.87180000      54.12860000      44.81330000
C       54.12820000      54.12830000      55.18690000
C       45.87130000      45.87140000      55.18630000
C       54.12870000      44.81350000      45.87160000
C       45.87130000      44.81330000      54.12810000
C       54.12830000      55.18650000      54.12880000
C       43.80650000      50.72400000      47.33140000
C       50.72420000      47.33190000      43.80630000
C       47.33160000      43.80630000      50.72360000
C       56.19380000      49.27610000      47.33200000
C       43.80620000      49.27600000      52.66800000
C       56.19350000      50.72380000      52.66860000
C       49.27640000      52.66850000      43.80640000
C       50.72360000      52.66810000      56.19380000
C       49.27580000      47.33150000      56.19360000
C       52.66830000      56.19370000      50.72420000
C       47.33170000      56.19370000      49.27610000
C       52.66840000      43.80630000      49.27600000
C       43.80620000      50.72390000      52.66800000
C       50.72360000      47.33150000      56.19360000
C       47.33170000      43.80630000      49.27580000
C       56.19350000      49.27600000      52.66860000
C       43.80650000      49.27620000      47.33140000
C       56.19380000      50.72400000      47.33200000
C       49.27580000      52.66810000      56.19370000
C       50.72420000      52.66850000      43.80640000
C       49.27640000      47.33190000      43.80620000
C       52.66840000      56.19370000      49.27640000
C       47.33160000      56.19370000      50.72400000
C       52.66830000      43.80630000      50.72390000
C       55.58540000      48.62790000      53.78970000
C       48.62780000      53.78940000      55.58560000
C       53.78960000      55.58560000      48.62840000
C       44.41420000      51.37190000      53.78930000
C       55.58580000      51.37210000      46.21080000
C       44.41460000      48.62810000      46.21020000
C       51.37170000      46.21030000      55.58550000
C       48.62830000      46.21060000      44.41420000
C       51.37220000      53.78970000      44.41460000
C       46.21050000      44.41450000      48.62770000
C       53.78940000      44.41440000      51.37200000
C       46.21040000      55.58550000      51.37190000
C       55.58580000      48.62810000      46.21070000
C       48.62830000      53.78970000      44.41450000
C       53.78950000      55.58550000      51.37230000
C       44.41460000      51.37210000      46.21030000
C       55.58540000      51.37190000      53.78980000
C       44.41420000      48.62790000      53.78920000
C       51.37220000      46.21060000      44.41440000
C       48.62780000      46.21030000      55.58540000
C       51.37170000      53.78940000      55.58580000
C       46.21040000      44.41440000      51.37160000
C       53.78960000      44.41450000      48.62810000
C       46.21060000      55.58560000      48.62800000
C       51.37220000      55.58570000      46.21070000
C       55.58550000      46.21040000      51.37210000
C       46.21020000      51.37180000      55.58540000
C       48.62820000      44.41450000      46.21030000
C       51.37180000      44.41430000      53.78940000
C       48.62780000      55.58550000      53.78960000
C       44.41440000      53.78950000      51.37180000
C       55.58560000      53.78960000      48.62840000
C       44.41450000      46.21050000      48.62770000
C       53.78920000      48.62790000      55.58570000
C       46.21080000      48.62820000      44.41420000
C       53.78980000      51.37210000      44.41460000
C       51.37180000      55.58550000      53.78970000
C       55.58560000      46.21050000      48.62820000
C       46.21080000      51.37210000      44.41430000
C       48.62780000      44.41430000      53.78930000
C       51.37220000      44.41450000      46.21040000
C       48.62820000      55.58570000      46.21060000
C       44.41450000      53.78960000      48.62790000
C       55.58550000      53.78950000      51.37230000
C       44.41440000      46.21040000      51.37160000
C       53.78980000      48.62820000      44.41460000
C       46.21020000      48.62790000      55.58540000
C       53.78920000      51.37180000      55.58580000
C       43.80630000      47.33170000      50.72360000
C       47.33200000      50.72410000      43.80620000
C       50.72410000      43.80640000      47.33150000
C       56.19360000      52.66830000      50.72430000
C       43.80640000      52.66830000      49.27590000
C       56.19370000      47.33170000      49.27630000
C       52.66860000      49.27620000      43.80640000
C       47.33140000      49.27590000      56.19350000
C       52.66800000      50.72370000      56.19380000
C       49.27620000      56.19380000      47.33180000
C       50.72380000      56.19360000      52.66850000
C       49.27590000      43.80620000      52.66810000
C       43.80640000      47.33170000      49.27570000
C       47.33140000      50.72380000      56.19360000
C       50.72380000      43.80620000      52.66820000
C       56.19370000      52.66830000      49.27640000
C       43.80630000      52.66830000      50.72370000
C       56.19360000      47.33170000      50.72410000
C       52.66800000      49.27590000      56.19380000
C       47.33200000      49.27630000      43.80620000
C       52.66860000      50.72410000      43.80650000
C       49.27590000      56.19360000      52.66850000
C       50.72410000      56.19380000      47.33190000
C       49.27620000      43.80640000      47.33150000
C       44.28990000      46.28390000      47.22090000
C       46.28410000      47.22150000      44.28950000
C       47.22150000      44.28980000      46.28350000
C       55.71040000      53.71630000      47.22170000
C       44.28960000      53.71610000      52.77850000
C       55.71010000      46.28370000      52.77890000
C       53.71650000      52.77890000      44.29000000
C       46.28350000      52.77850000      55.71020000
C       53.71590000      47.22110000      55.71040000
C       52.77890000      55.71040000      46.28410000
C       47.22110000      55.71020000      53.71620000
C       52.77850000      44.28960000      53.71620000
C       44.28960000      46.28370000      52.77830000
C       46.28350000      47.22110000      55.71000000
C       47.22110000      44.28960000      53.71590000
C       55.71010000      53.71610000      52.77910000
C       44.28990000      53.71630000      47.22110000
C       55.71040000      46.28390000      47.22150000
C       53.71590000      52.77850000      55.71050000
C       46.28410000      52.77890000      44.28960000
C       53.71650000      47.22150000      44.28980000
C       52.77850000      55.71020000      53.71650000
C       47.22150000      55.71040000      46.28380000
C       52.77890000      44.28980000      46.28380000
