240
Lattice="100.0 0.0 0.0 0.0 100.0 0.0 0.0 0.0 100.0" Properties=species:S:1:pos:R:3 name=C-53965-5632-1428 pressure=-17.8309922290277 energy=-1780.64312957035 spacegroup=Oh times_found=1 pbc="T T T"
C       52.56070000      56.30610000      50.74720000
C       50.74760000      52.56100000      56.30600000
C       56.30610000      50.74760000      52.56060000
C       52.56150000      43.69420000      49.25240000
C       47.43940000      43.69380000      50.74730000
C       47.43840000      56.30580000      49.25310000
C       50.74690000      47.43910000      43.69390000
C       49.25340000      47.43870000      56.30600000
C       49.25210000      52.56120000      43.69420000
C       56.30580000      49.25330000      47.43840000
C       43.69430000      49.25220000      52.56160000
C       43.69380000      50.74690000      47.43940000
C       47.43850000      56.30580000      50.74760000
C       49.25310000      52.56090000      56.30610000
C       43.69420000      50.74670000      52.56160000
C       47.43930000      43.69390000      49.25280000
C       52.56160000      43.69420000      50.74690000
C       52.56060000      56.30620000      49.25270000
C       49.25240000      47.43900000      43.69400000
C       50.74790000      47.43880000      56.30580000
C       50.74660000      52.56130000      43.69400000
C       43.69390000      49.25240000      47.43940000
C       56.30620000      49.25310000      52.56060000
C       56.30570000      50.74780000      47.43840000
C       47.38940000      45.32610000      53.63540000
C       53.63510000      47.38920000      45.32600000
C       45.32590000      53.63500000      47.38930000
C       47.38820000      54.67350000      46.36500000
C       52.61110000      54.67370000      53.63520000
C       52.61120000      45.32670000      46.36440000
C       53.63550000      52.61130000      54.67340000
C       46.36410000      52.61100000      45.32680000
C       46.36530000      47.38840000      54.67380000
C       45.32690000      46.36430000      52.61150000
C       54.67360000      46.36510000      47.38840000
C       54.67350000      53.63560000      52.61090000
C       52.61180000      45.32650000      53.63500000
C       46.36450000      47.38870000      45.32660000
C       54.67310000      53.63570000      47.38850000
C       52.61060000      54.67390000      46.36460000
C       47.38880000      54.67330000      53.63560000
C       47.38890000      45.32630000      46.36480000
C       46.36490000      52.61080000      54.67400000
C       53.63470000      52.61160000      45.32620000
C       53.63590000      47.38900000      54.67320000
C       54.67410000      46.36500000      52.61070000
C       45.32650000      46.36440000      47.38910000
C       45.32640000      53.63490000      52.61170000
C       50.71730000      42.19240000      50.71640000
C       50.71600000      50.71690000      42.19230000
C       42.19240000      50.71610000      50.71730000
C       50.71610000      57.80770000      49.28340000
C       49.28280000      57.80760000      50.71690000
C       49.28380000      42.19230000      49.28320000
C       50.71740000      49.28320000      57.80760000
C       49.28270000      49.28340000      42.19240000
C       49.28390000      50.71650000      57.80770000
C       42.19240000      49.28280000      49.28390000
C       57.80770000      49.28390000      50.71600000
C       57.80750000      50.71730000      49.28270000
C       49.28390000      42.19230000      50.71660000
C       49.28260000      50.71680000      42.19240000
C       57.80760000      50.71720000      50.71610000
C       49.28270000      57.80760000      49.28360000
C       50.71620000      57.80770000      50.71680000
C       50.71720000      42.19240000      49.28310000
C       49.28400000      49.28310000      57.80770000
C       50.71610000      49.28350000      42.19230000
C       50.71730000      50.71660000      57.80760000
C       57.80760000      49.28390000      49.28270000
C       42.19250000      49.28270000      50.71730000
C       42.19230000      50.71610000      49.28400000
C       49.26880000      54.77420000      44.22590000
C       44.22610000      49.26910000      54.77460000
C       54.77450000      44.22610000      49.26910000
C       49.27040000      45.22570000      55.77420000
C       50.73020000      45.22610000      44.22550000
C       50.73050000      54.77410000      55.77430000
C       44.22530000      50.73010000      45.22630000
C       55.77460000      50.73070000      54.77370000
C       55.77400000      49.27020000      45.22540000
C       54.77380000      55.77460000      50.73010000
C       45.22540000      55.77400000      49.27020000
C       45.22630000      44.22530000      50.73060000
C       50.72960000      54.77430000      44.22580000
C       55.77470000      49.26990000      54.77370000
C       45.22620000      44.22540000      49.26990000
C       50.73120000      45.22580000      55.77410000
C       49.26950000      45.22590000      44.22570000
C       49.26980000      54.77390000      55.77450000
C       55.77390000      50.73090000      45.22540000
C       44.22600000      50.72980000      54.77460000
C       44.22540000      49.26930000      45.22630000
C       45.22550000      55.77390000      50.73090000
C       54.77370000      55.77470000      49.26940000
C       54.77460000      44.22600000      50.72980000
C       47.38950000      46.36440000      54.67370000
C       54.67350000      47.38920000      46.36430000
C       46.36410000      54.67340000      47.38920000
C       47.38820000      53.63520000      45.32670000
C       52.61130000      53.63540000      54.67350000
C       52.61110000      46.36500000      45.32610000
C       54.67370000      52.61140000      53.63500000
C       45.32590000      52.61090000      46.36510000
C       45.32690000      47.38840000      53.63560000
C       46.36520000      45.32610000      52.61140000
C       53.63540000      45.32670000      47.38840000
C       53.63520000      54.67380000      52.61100000
C       52.61180000      46.36480000      54.67330000
C       45.32630000      47.38860000      46.36500000
C       53.63480000      54.67390000      47.38860000
C       52.61050000      53.63560000      45.32630000
C       47.38890000      53.63500000      54.67390000
C       47.38870000      46.36460000      45.32650000
C       45.32650000      52.61080000      53.63570000
C       54.67310000      52.61160000      46.36440000
C       54.67410000      47.38910000      53.63490000
C       53.63590000      45.32660000      52.61080000
C       46.36480000      45.32620000      47.38900000
C       46.36460000      54.67330000      52.61160000
C       55.61630000      48.53830000      46.38900000
C       46.38900000      55.61630000      48.53820000
C       48.53850000      46.38920000      55.61660000
C       55.61670000      51.46250000      53.61010000
C       44.38310000      51.46190000      46.39000000
C       44.38390000      48.53730000      53.61090000
C       46.39000000      44.38320000      51.46240000
C       53.61080000      44.38380000      48.53730000
C       53.61020000      55.61680000      51.46210000
C       48.53710000      53.61050000      44.38370000
C       51.46240000      53.61050000      55.61650000
C       51.46200000      46.38970000      44.38330000
C       44.38330000      48.53750000      46.38990000
C       53.61000000      55.61680000      48.53760000
C       51.46290000      46.38950000      55.61630000
C       44.38370000      51.46170000      53.61100000
C       55.61610000      51.46270000      46.38910000
C       55.61690000      48.53810000      53.61000000
C       53.61100000      44.38370000      51.46180000
C       46.38980000      44.38320000      48.53790000
C       46.38920000      55.61620000      51.46270000
C       51.46150000      53.61080000      44.38340000
C       48.53800000      53.61030000      55.61670000
C       48.53760000      46.38950000      44.38350000
C       48.53790000      44.38340000      46.38950000
C       46.38910000      48.53760000      44.38370000
C       44.38360000      46.38910000      48.53810000
C       48.53770000      55.61630000      53.61080000
C       51.46150000      55.61670000      46.38950000
C       51.46290000      44.38350000      53.61030000
C       46.38980000      51.46180000      55.61690000
C       53.61000000      51.46260000      44.38320000
C       53.61110000      48.53790000      55.61620000
C       44.38330000      53.61010000      51.46280000
C       55.61620000      53.61100000      48.53740000
C       55.61690000      46.38990000      51.46170000
C       51.46230000      44.38370000      46.38920000
C       53.61020000      48.53820000      44.38310000
C       55.61670000      46.38990000      48.53720000
C       51.46210000      55.61660000      53.61050000
C       48.53710000      55.61650000      46.38970000
C       48.53850000      44.38330000      53.61050000
C       53.61090000      51.46240000      55.61630000
C       46.38890000      51.46210000      44.38380000
C       46.39000000      48.53740000      55.61680000
C       55.61640000      53.61090000      51.46190000
C       44.38310000      53.61010000      48.53830000
C       44.38380000      46.38900000      51.46260000
C       55.77470000      45.22630000      50.72980000
C       50.72960000      55.77450000      45.22590000
C       45.22630000      50.72990000      55.77470000
C       55.77390000      54.77460000      49.26930000
C       44.22540000      54.77370000      50.73090000
C       44.22600000      45.22550000      49.27000000
C       50.73120000      44.22560000      54.77390000
C       49.26970000      44.22580000      45.22580000
C       49.26960000      55.77410000      54.77430000
C       45.22540000      49.26940000      44.22610000
C       54.77470000      49.26980000      55.77390000
C       54.77360000      50.73080000      44.22530000
C       44.22610000      45.22540000      50.73070000
C       49.26880000      55.77440000      45.22610000
C       54.77460000      50.73060000      55.77390000
C       44.22530000      54.77370000      49.27020000
C       55.77400000      54.77450000      50.73000000
C       55.77460000      45.22630000      49.26910000
C       49.27040000      44.22550000      54.77410000
C       50.73040000      44.22590000      45.22570000
C       50.73030000      55.77420000      54.77420000
C       54.77370000      49.27010000      44.22530000
C       45.22640000      49.26920000      55.77470000
C       45.22530000      50.73020000      44.22610000
C       51.40550000      48.59510000      56.81610000
C       56.81600000      51.40540000      48.59460000
C       48.59480000      56.81610000      51.40510000
C       51.40420000      51.40510000      43.18370000
C       48.59560000      51.40460000      56.81640000
C       48.59470000      48.59520000      43.18380000
C       56.81650000      48.59560000      51.40430000
C       43.18370000      48.59470000      48.59570000
C       43.18380000      51.40430000      51.40540000
C       48.59550000      43.18370000      48.59510000
C       51.40540000      43.18380000      51.40460000
C       51.40420000      56.81640000      48.59520000
C       48.59580000      48.59490000      56.81630000
C       43.18350000      51.40440000      48.59570000
C       51.40450000      56.81630000      51.40490000
C       48.59450000      51.40490000      43.18390000
C       51.40530000      51.40480000      56.81620000
C       51.40440000      48.59540000      43.18360000
C       43.18400000      48.59460000      51.40540000
C       56.81620000      48.59570000      48.59460000
C       56.81630000      51.40530000      51.40430000
C       51.40520000      43.18390000      48.59490000
C       48.59580000      43.18360000      51.40480000
C       48.59460000      56.81620000      48.59540000
C       56.30610000      47.43940000      49.25220000
C       49.25210000      56.30600000      47.43910000
C       47.43950000      49.25240000      56.30610000
C       56.30580000      52.56150000      50.74680000
C       43.69380000      52.56070000      49.25330000
C       43.69430000      47.43840000      50.74770000
C       49.25340000      43.69390000      52.56100000
C       50.74750000      43.69420000      47.43870000
C       50.74700000      56.30590000      52.56120000
C       47.43830000      50.74720000      43.69430000
C       52.56160000      50.74730000      56.30580000
C       52.56060000      49.25310000      43.69380000
C       43.69420000      47.43850000      49.25320000
C       50.74660000      56.30610000      47.43900000
C       52.56170000      49.25280000      56.30570000
C       43.69390000      52.56060000      50.74780000
C       56.30570000      52.56160000      49.25230000
C       56.30620000      47.43930000      50.74670000
C       50.74790000      43.69400000      52.56090000
C       49.25300000      43.69410000      47.43880000
C       49.25250000      56.30580000      52.56130000
C       52.56050000      50.74760000      43.69390000
C       47.43940000      50.74690000      56.30620000
C       47.43840000      49.25270000      43.69420000
