240
Lattice="100.0 0.0 0.0 0.0 100.0 0.0 0.0 0.0 100.0" Properties=species:S:1:pos:R:3 name=C-53965-5632-31 pressure=-51.819357821879 spacegroup=Td times_found=1 energy=-1720.07067643022 pbc="T T T"
C       45.15970000      47.04120000      48.79960000
C       48.80000000      45.15950000      47.04140000
C       47.04160000      48.79960000      45.15950000
C       45.15940000      52.95840000      51.20020000
C       54.84030000      52.95880000      48.79980000
C       54.84050000      47.04160000      51.20040000
C       48.79950000      54.84040000      52.95850000
C       51.20010000      54.84050000      47.04150000
C       51.20040000      45.15960000      52.95860000
C       47.04130000      51.20010000      54.84040000
C       52.95860000      51.20040000      45.15960000
C       52.95850000      48.79980000      54.84050000
C       45.15970000      48.79950000      47.04140000
C       48.79990000      47.04140000      45.15960000
C       47.04170000      45.15950000      48.79970000
C       45.15950000      51.20010000      52.95850000
C       54.84040000      48.79990000      52.95860000
C       54.84040000      51.20050000      47.04150000
C       48.79950000      52.95850000      54.84040000
C       51.20030000      47.04150000      54.84040000
C       51.20020000      52.95860000      45.15960000
C       47.04120000      54.84030000      51.20020000
C       52.95870000      45.15970000      51.20030000
C       52.95840000      54.84050000      48.79980000
C       46.50350000      56.24960000      47.45200000
C       47.45210000      46.50360000      56.24970000
C       56.24990000      47.45230000      46.50380000
C       46.50390000      43.75010000      52.54780000
C       53.49660000      43.75040000      47.45210000
C       53.49600000      56.24990000      52.54800000
C       47.45210000      53.49620000      43.75020000
C       52.54770000      53.49640000      56.24980000
C       52.54820000      46.50380000      43.75030000
C       56.24950000      52.54820000      53.49640000
C       43.75020000      52.54770000      46.50360000
C       43.75030000      47.45180000      53.49620000
C       46.50370000      47.45190000      56.24960000
C       47.45190000      56.24960000      46.50370000
C       56.24990000      46.50400000      47.45220000
C       46.50370000      52.54780000      43.75020000
C       53.49650000      47.45220000      43.75030000
C       53.49610000      52.54810000      56.24980000
C       47.45230000      43.75020000      53.49620000
C       52.54760000      56.24980000      53.49630000
C       52.54820000      43.75040000      46.50380000
C       56.24950000      53.49650000      52.54800000
C       43.75040000      46.50350000      52.54780000
C       43.75020000      53.49600000      47.45200000
C       51.67170000      43.81050000      49.36930000
C       49.36940000      51.67140000      43.81040000
C       43.81040000      49.36910000      51.67130000
C       51.67120000      56.18970000      50.63070000
C       48.32830000      56.18950000      49.36930000
C       48.32880000      43.81030000      50.63070000
C       49.36930000      48.32850000      56.18960000
C       50.63090000      48.32860000      43.81040000
C       50.63050000      51.67140000      56.18960000
C       43.81040000      50.63040000      48.32850000
C       56.18950000      50.63090000      51.67150000
C       56.18970000      49.36960000      48.32870000
C       51.67160000      49.36940000      43.81040000
C       49.36950000      43.81040000      51.67140000
C       43.81030000      51.67120000      49.36920000
C       51.67130000      50.63080000      56.18960000
C       48.32850000      49.36920000      56.18960000
C       48.32870000      50.63060000      43.81040000
C       49.36910000      56.18960000      48.32860000
C       50.63100000      43.81040000      48.32860000
C       50.63040000      56.18960000      51.67140000
C       43.81050000      48.32830000      50.63060000
C       56.18950000      51.67170000      50.63080000
C       56.18970000      48.32880000      49.36940000
C       45.38250000      46.41200000      47.38910000
C       47.38940000      45.38220000      46.41210000
C       46.41240000      47.38900000      45.38220000
C       45.38210000      53.58760000      52.61070000
C       54.61760000      53.58800000      47.38930000
C       54.61780000      46.41240000      52.61090000
C       47.38890000      54.61760000      53.58780000
C       52.61070000      54.61780000      46.41220000
C       52.61090000      45.38240000      53.58790000
C       46.41200000      52.61070000      54.61760000
C       53.58780000      52.61100000      45.38240000
C       53.58780000      47.38930000      54.61780000
C       45.38250000      47.38900000      46.41210000
C       47.38940000      46.41210000      45.38230000
C       46.41240000      45.38220000      47.38910000
C       45.38210000      52.61060000      53.58770000
C       54.61770000      47.38940000      53.58790000
C       54.61770000      52.61100000      46.41230000
C       47.38900000      53.58770000      54.61770000
C       52.61090000      46.41230000      54.61770000
C       52.61070000      53.58790000      45.38230000
C       46.41200000      54.61760000      52.61080000
C       53.58800000      45.38240000      52.61090000
C       53.58770000      54.61780000      47.38920000
C       53.35140000      51.33930000      47.63830000
C       47.63810000      53.35140000      51.33910000
C       51.33920000      47.63830000      53.35150000
C       53.35150000      48.66100000      52.36180000
C       46.64860000      48.66070000      47.63820000
C       46.64840000      51.33900000      52.36170000
C       47.63840000      46.64840000      48.66080000
C       52.36180000      46.64860000      51.33920000
C       52.36160000      53.35160000      48.66090000
C       51.33910000      52.36180000      46.64860000
C       48.66070000      52.36170000      53.35140000
C       48.66100000      47.63820000      46.64850000
C       53.35150000      47.63840000      51.33920000
C       47.63820000      51.33900000      53.35140000
C       51.33900000      53.35150000      47.63830000
C       53.35140000      52.36190000      48.66090000
C       46.64870000      47.63820000      48.66080000
C       46.64840000      52.36160000      51.33910000
C       47.63840000      48.66080000      46.64850000
C       52.36170000      51.33920000      46.64860000
C       52.36170000      48.66100000      53.35150000
C       51.33920000      46.64860000      52.36170000
C       48.66070000      53.35140000      52.36170000
C       48.66110000      46.64850000      47.63830000
C       44.32490000      50.75520000      51.73590000
C       51.73620000      44.32500000      50.75550000
C       50.75550000      51.73600000      44.32490000
C       44.32500000      49.24430000      48.26390000
C       55.67510000      49.24480000      51.73610000
C       55.67510000      50.75570000      48.26410000
C       51.73570000      55.67510000      49.24460000
C       48.26380000      55.67500000      50.75540000
C       48.26430000      44.32490000      49.24450000
C       50.75540000      48.26410000      55.67510000
C       49.24470000      48.26400000      44.32490000
C       49.24440000      51.73590000      55.67510000
C       44.32480000      51.73570000      50.75540000
C       51.73600000      50.75550000      44.32500000
C       50.75570000      44.32500000      51.73600000
C       44.32500000      48.26380000      49.24450000
C       55.67500000      51.73620000      49.24460000
C       55.67510000      48.26430000      50.75560000
C       51.73590000      49.24460000      55.67510000
C       48.26390000      50.75540000      55.67500000
C       48.26420000      49.24450000      44.32490000
C       50.75520000      55.67510000      48.26400000
C       49.24480000      44.32490000      48.26400000
C       49.24430000      55.67500000      51.73600000
C       51.97210000      45.24860000      44.28530000
C       44.28530000      51.97160000      45.24840000
C       45.24870000      44.28510000      51.97170000
C       51.97150000      54.75160000      55.71470000
C       48.02810000      54.75140000      44.28530000
C       48.02830000      45.24840000      55.71470000
C       44.28530000      48.02800000      54.75140000
C       55.71490000      48.02840000      45.24860000
C       55.71450000      51.97200000      54.75160000
C       45.24830000      55.71450000      48.02810000
C       54.75120000      55.71490000      51.97190000
C       54.75180000      44.28550000      48.02830000
C       51.97210000      44.28540000      45.24850000
C       44.28550000      45.24830000      51.97170000
C       45.24850000      51.97160000      44.28520000
C       51.97150000      55.71480000      54.75150000
C       48.02840000      44.28520000      54.75140000
C       48.02810000      55.71460000      45.24850000
C       44.28510000      54.75130000      48.02810000
C       55.71490000      45.24880000      48.02830000
C       55.71450000      54.75170000      51.97190000
C       45.24850000      48.02800000      55.71460000
C       54.75130000      51.97200000      55.71480000
C       54.75170000      48.02840000      44.28540000
C       45.84390000      50.63320000      43.99530000
C       43.99550000      45.84360000      50.63320000
C       50.63370000      43.99540000      45.84380000
C       45.84370000      49.36650000      56.00460000
C       54.15630000      49.36680000      43.99540000
C       54.15600000      50.63350000      56.00470000
C       43.99520000      54.15590000      49.36660000
C       56.00450000      54.15640000      50.63340000
C       56.00480000      45.84410000      49.36680000
C       50.63300000      56.00470000      54.15620000
C       49.36650000      56.00460000      45.84380000
C       49.36680000      43.99530000      54.15620000
C       45.84410000      43.99520000      50.63330000
C       43.99540000      50.63310000      45.84370000
C       50.63360000      45.84390000      43.99540000
C       45.84360000      56.00450000      49.36660000
C       54.15640000      43.99550000      49.36670000
C       54.15590000      56.00480000      50.63340000
C       43.99530000      49.36640000      54.15610000
C       56.00450000      50.63360000      54.15630000
C       56.00470000      49.36690000      45.84390000
C       50.63310000      54.15620000      56.00470000
C       49.36670000      45.84380000      56.00460000
C       49.36660000      54.15610000      43.99530000
C       44.89480000      45.87040000      49.59590000
C       49.59630000      44.89460000      45.87060000
C       45.87080000      49.59580000      44.89450000
C       44.89440000      54.12910000      50.40390000
C       55.10520000      54.12960000      49.59610000
C       55.10560000      45.87090000      50.40410000
C       49.59570000      55.10540000      54.12930000
C       50.40390000      55.10540000      45.87070000
C       50.40410000      44.89460000      54.12940000
C       45.87050000      50.40380000      55.10530000
C       54.12940000      50.40420000      44.89470000
C       54.12930000      49.59620000      55.10550000
C       44.89470000      49.59580000      45.87060000
C       49.59630000      45.87060000      44.89460000
C       45.87090000      44.89440000      49.59590000
C       44.89450000      50.40380000      54.12930000
C       55.10530000      49.59620000      54.12940000
C       55.10540000      50.40420000      45.87070000
C       49.59570000      54.12930000      55.10540000
C       50.40410000      45.87070000      55.10540000
C       50.40390000      54.12940000      44.89460000
C       45.87040000      55.10520000      50.40390000
C       54.12960000      44.89480000      50.40410000
C       54.12910000      55.10560000      49.59610000
C       43.55830000      48.82920000      52.93730000
C       52.93770000      43.55850000      48.82950000
C       48.82950000      52.93740000      43.55830000
C       43.55840000      51.17030000      47.06250000
C       56.44150000      51.17080000      52.93750000
C       56.44170000      48.82970000      47.06270000
C       52.93710000      56.44180000      51.17060000
C       47.06240000      56.44150000      48.82940000
C       47.06280000      43.55820000      51.17050000
C       48.82950000      47.06250000      56.44160000
C       51.17080000      47.06260000      43.55840000
C       51.17030000      52.93740000      56.44170000
C       43.55820000      52.93710000      48.82940000
C       52.93760000      48.82960000      43.55840000
C       48.82970000      43.55830000      52.93740000
C       43.55850000      47.06230000      51.17040000
C       56.44150000      52.93770000      51.17060000
C       56.44180000      47.06290000      48.82960000
C       52.93720000      51.17070000      56.44170000
C       47.06250000      48.82930000      56.44160000
C       47.06270000      51.17040000      43.55830000
C       48.82920000      56.44160000      47.06260000
C       51.17090000      43.55840000      47.06260000
C       51.17020000      56.44170000      52.93740000
