240
Lattice="100.0 0.0 0.0 0.0 100.0 0.0 0.0 0.0 100.0" Properties=species:S:1:pos:R:3 name=C-53965-5632-1303 pressure=-14.1785701293429 spacegroup=Th times_found=1 energy=-1740.03525776763 pbc="T T T"
C       49.26420000      57.01920000      46.98040000
C       57.01970000      46.98120000      49.26480000
C       46.98090000      49.26490000      57.01950000
C       49.26570000      42.98060000      53.01970000
C       50.73450000      57.01960000      53.01910000
C       50.73560000      42.98060000      46.98080000
C       57.01920000      53.02010000      50.73470000
C       42.98090000      46.98000000      50.73540000
C       42.98030000      53.01870000      49.26510000
C       46.98030000      50.73450000      42.98070000
C       53.01920000      49.26500000      42.98050000
C       53.01960000      50.73560000      57.01930000
C       50.73430000      57.01940000      46.98030000
C       42.98080000      46.97990000      49.26530000
C       53.01970000      49.26550000      57.01930000
C       50.73580000      42.98080000      53.01960000
C       49.26440000      57.01940000      53.01920000
C       49.26550000      42.98040000      46.98090000
C       42.98030000      53.01880000      50.73520000
C       57.01970000      46.98130000      50.73490000
C       57.01910000      53.02000000      49.26460000
C       53.01910000      50.73510000      42.98050000
C       46.98040000      49.26440000      42.98070000
C       46.98080000      50.73500000      57.01950000
C       54.24900000      52.55690000      45.63580000
C       52.55720000      45.63640000      54.24950000
C       45.63570000      54.24910000      52.55660000
C       54.24980000      47.44390000      54.36390000
C       45.75050000      52.55640000      54.36400000
C       45.75070000      47.44290000      45.63630000
C       52.55610000      54.36410000      45.75040000
C       47.44360000      45.63570000      45.75080000
C       47.44310000      54.36390000      54.24930000
C       45.63630000      45.75010000      47.44370000
C       54.36350000      54.24970000      47.44310000
C       54.36440000      45.75110000      52.55660000
C       45.75020000      52.55610000      45.63610000
C       47.44390000      45.63590000      54.24960000
C       54.36370000      54.24990000      52.55630000
C       45.75100000      47.44310000      54.36420000
C       54.24930000      52.55710000      54.36370000
C       54.24950000      47.44360000      45.63600000
C       47.44280000      54.36360000      45.75050000
C       52.55690000      45.63610000      45.75070000
C       52.55640000      54.36430000      54.24920000
C       54.36430000      45.75090000      47.44340000
C       45.63560000      54.24890000      47.44340000
C       45.63650000      45.75030000      52.55690000
C       50.74030000      43.20070000      49.29020000
C       43.20080000      49.28950000      50.74000000
C       49.28980000      50.73940000      43.20070000
C       50.73910000      56.79940000      50.70970000
C       49.26090000      43.20060000      50.71020000
C       49.25960000      56.79920000      49.28980000
C       43.20060000      50.70930000      49.26050000
C       56.79940000      49.29060000      49.26010000
C       56.79930000      50.71060000      50.73950000
C       49.29030000      49.26040000      56.79940000
C       50.71010000      50.74000000      56.79930000
C       50.70980000      49.26010000      43.20070000
C       49.26090000      43.20060000      49.29030000
C       56.79940000      49.29070000      50.73950000
C       50.70970000      50.73960000      43.20060000
C       49.25970000      56.79930000      50.70970000
C       50.74040000      43.20080000      50.71020000
C       50.73910000      56.79940000      49.28980000
C       56.79920000      50.71050000      49.26000000
C       43.20070000      49.28940000      49.26050000
C       43.20060000      50.70940000      50.73990000
C       50.71020000      49.26060000      56.79930000
C       49.29020000      50.73990000      56.79930000
C       49.28990000      49.26000000      43.20070000
C       45.29550000      54.97490000      51.34710000
C       54.97500000      51.34740000      45.29570000
C       51.34770000      45.29620000      54.97540000
C       45.29640000      45.02420000      48.65320000
C       54.70360000      54.97570000      48.65250000
C       54.70450000      45.02520000      51.34710000
C       54.97560000      48.65350000      54.70390000
C       45.02470000      51.34680000      54.70420000
C       45.02470000      48.65230000      45.29620000
C       51.34650000      54.70400000      45.02450000
C       48.65310000      45.29570000      45.02490000
C       48.65260000      54.70410000      54.97520000
C       54.70360000      54.97580000      51.34680000
C       45.02440000      51.34650000      45.29610000
C       48.65350000      45.29600000      54.97550000
C       54.70450000      45.02510000      48.65290000
C       45.29550000      54.97480000      48.65290000
C       45.29640000      45.02430000      51.34750000
C       45.02500000      48.65260000      54.70430000
C       54.97530000      51.34770000      54.70380000
C       54.97530000      48.65320000      45.29580000
C       48.65230000      54.70380000      45.02460000
C       51.34740000      45.29590000      45.02480000
C       51.34690000      54.70430000      54.97510000
C       49.27630000      44.05210000      54.93730000
C       44.05150000      54.93650000      49.27560000
C       54.93690000      49.27590000      44.05190000
C       49.27490000      55.94780000      45.06280000
C       50.72480000      44.05190000      45.06310000
C       50.72400000      55.94820000      54.93680000
C       44.05250000      45.06240000      50.72470000
C       55.94760000      54.93760000      50.72400000
C       55.94840000      45.06350000      49.27560000
C       54.93720000      50.72500000      55.94780000
C       45.06320000      49.27540000      55.94820000
C       45.06270000      50.72370000      44.05210000
C       50.72510000      44.05220000      54.93720000
C       55.94750000      54.93760000      49.27530000
C       45.06280000      49.27500000      44.05220000
C       50.72370000      55.94790000      45.06270000
C       49.27600000      44.05180000      45.06320000
C       49.27520000      55.94810000      54.93690000
C       55.94850000      45.06350000      50.72440000
C       44.05160000      54.93650000      50.72440000
C       44.05240000      45.06240000      49.27600000
C       45.06310000      50.72410000      55.94810000
C       54.93730000      49.27630000      55.94790000
C       54.93680000      50.72460000      44.05180000
C       46.88970000      54.86200000      46.97570000
C       54.86250000      46.97610000      46.89020000
C       46.97620000      46.89010000      54.86260000
C       46.89080000      45.13750000      53.02450000
C       53.10940000      54.86270000      53.02400000
C       53.11010000      45.13780000      46.97580000
C       54.86220000      53.02480000      53.10950000
C       45.13800000      46.97540000      53.11000000
C       45.13730000      53.02370000      46.89030000
C       46.97530000      53.10930000      45.13760000
C       53.02440000      46.89030000      45.13770000
C       53.02410000      53.11020000      54.86210000
C       53.10920000      54.86250000      46.97550000
C       45.13780000      46.97520000      46.89050000
C       53.02470000      46.89070000      54.86240000
C       53.11030000      45.13800000      53.02430000
C       46.88990000      54.86220000      53.02420000
C       46.89060000      45.13730000      46.97600000
C       45.13750000      53.02390000      53.10980000
C       54.86270000      46.97630000      53.10970000
C       54.86200000      53.02460000      46.89000000
C       53.02380000      53.10990000      45.13740000
C       46.97590000      46.88980000      45.13790000
C       46.97560000      53.10970000      54.86230000
C       51.46000000      56.55020000      51.86480000
C       56.54990000      51.86570000      51.46020000
C       51.86520000      51.46090000      56.54990000
C       51.46100000      43.45010000      48.13510000
C       48.53880000      56.54980000      48.13470000
C       48.54020000      43.44990000      51.86540000
C       56.55010000      48.13550000      48.53940000
C       43.44980000      51.86450000      48.53970000
C       43.45020000      48.13440000      51.46080000
C       51.86500000      48.53950000      43.45000000
C       48.13460000      51.46010000      43.45000000
C       48.13530000      48.53960000      56.55010000
C       48.53900000      56.54990000      51.86490000
C       43.44990000      51.86450000      51.46070000
C       48.13500000      51.46050000      56.55000000
C       48.54000000      43.44980000      48.13520000
C       51.45980000      56.55010000      48.13460000
C       51.46120000      43.45020000      51.86530000
C       43.45010000      48.13430000      48.53980000
C       56.54980000      51.86560000      48.53920000
C       56.55020000      48.13560000      51.46030000
C       48.13480000      48.53910000      43.45010000
C       51.86470000      51.46040000      43.44990000
C       51.86540000      48.53990000      56.55000000
C       55.74370000      48.09310000      47.37570000
C       48.09310000      47.37580000      55.74380000
C       47.37520000      55.74330000      48.09260000
C       55.74350000      51.90790000      52.62390000
C       44.25670000      48.09220000      52.62440000
C       44.25610000      51.90670000      47.37590000
C       48.09220000      52.62380000      44.25640000
C       51.90740000      47.37580000      44.25640000
C       51.90730000      52.62460000      55.74350000
C       47.37640000      44.25620000      51.90760000
C       52.62370000      55.74390000      51.90710000
C       52.62460000      44.25660000      48.09280000
C       44.25650000      48.09210000      47.37610000
C       51.90780000      47.37620000      55.74360000
C       52.62360000      55.74380000      48.09240000
C       44.25630000      51.90690000      52.62430000
C       55.74390000      48.09330000      52.62410000
C       55.74330000      51.90780000      47.37560000
C       51.90690000      52.62420000      44.25620000
C       48.09270000      47.37540000      44.25650000
C       48.09260000      52.62420000      55.74360000
C       52.62480000      44.25670000      51.90740000
C       47.37540000      55.74340000      51.90720000
C       47.37630000      44.25610000      48.09290000
C       53.53230000      55.54780000      49.25830000
C       55.54760000      49.25920000      53.53260000
C       49.25850000      53.53290000      55.54740000
C       53.53330000      44.45290000      50.74150000
C       46.46670000      55.54720000      50.74130000
C       46.46770000      44.45220000      49.25890000
C       55.54730000      50.74180000      46.46700000
C       44.45250000      49.25800000      46.46740000
C       44.45260000      50.74100000      53.53300000
C       49.25870000      46.46700000      44.45270000
C       50.74090000      53.53270000      44.45240000
C       50.74190000      46.46750000      55.54760000
C       46.46670000      55.54710000      49.25850000
C       44.45270000      49.25820000      53.53300000
C       50.74130000      53.53300000      55.54730000
C       46.46770000      44.45220000      50.74170000
C       53.53230000      55.54780000      50.74110000
C       53.53330000      44.45280000      49.25870000
C       44.45240000      50.74080000      46.46740000
C       55.54740000      49.25900000      46.46700000
C       55.54750000      50.74200000      53.53260000
C       50.74160000      46.46710000      44.45260000
C       49.25810000      53.53250000      44.45240000
C       49.25910000      46.46730000      55.54760000
C       51.37880000      43.00250000      54.25810000
C       43.00190000      54.25740000      51.37810000
C       54.25760000      51.37820000      43.00200000
C       51.37720000      56.99780000      45.74180000
C       48.62250000      43.00200000      45.74230000
C       48.62150000      56.99780000      54.25780000
C       43.00260000      45.74140000      48.62240000
C       56.99730000      54.25860000      48.62160000
C       56.99820000      45.74270000      51.37790000
C       54.25830000      48.62260000      56.99770000
C       45.74210000      51.37790000      56.99790000
C       45.74190000      48.62140000      43.00240000
C       48.62280000      43.00220000      54.25820000
C       56.99740000      54.25860000      51.37760000
C       45.74170000      51.37740000      43.00230000
C       48.62120000      56.99750000      45.74180000
C       51.37850000      43.00220000      45.74220000
C       51.37750000      56.99800000      54.25770000
C       56.99810000      45.74260000      48.62190000
C       43.00180000      54.25730000      48.62210000
C       43.00270000      45.74140000      51.37840000
C       45.74240000      48.62180000      56.99800000
C       54.25810000      51.37860000      56.99760000
C       54.25790000      48.62210000      43.00210000
