240
Lattice="100.0 0.0 0.0 0.0 100.0 0.0 0.0 0.0 100.0" Properties=species:S:1:pos:R:3 name=C-53965-5632-1340 pressure=4.87474335384165 spacegroup=C1 times_found=1 energy=-1764.84333396643 pbc="T T T"
C       48.11060000      43.23080000      52.59850000
C       43.34800000      52.75860000      48.43450000
C       52.82260000      48.09210000      43.07900000
C       51.51180000      56.85690000      52.82600000
C       48.31470000      56.26750000      47.19840000
C       51.70570000      43.78320000      47.16860000
C       56.75720000      47.19120000      48.37580000
C       43.67030000      47.24900000      51.90780000
C       56.73690000      52.82650000      51.81420000
C       47.39310000      51.68940000      43.34390000
C       52.73250000      51.78450000      56.20190000
C       47.25570000      48.25350000      56.84150000
C       48.20120000      43.71620000      47.10540000
C       43.66500000      52.76030000      51.92180000
C       52.75310000      48.28690000      56.17930000
C       51.78840000      56.64180000      47.27550000
C       48.05120000      56.83000000      52.68650000
C       51.58090000      43.30240000      52.68200000
C       56.83880000      47.28800000      51.83830000
C       43.32010000      47.24800000      48.42240000
C       56.23010000      52.70130000      48.34460000
C       47.23550000      51.74600000      56.86390000
C       52.95480000      51.54230000      43.14640000
C       47.27750000      48.27550000      43.22940000
C       53.54740000      44.57520000      48.25280000
C       44.47070000      48.22760000      53.83100000
C       48.55210000      53.41670000      44.24550000
C       46.35010000      55.59640000      48.21980000
C       53.42480000      55.75920000      51.93440000
C       46.29310000      44.12140000      51.57050000
C       55.95960000      51.73670000      53.64500000
C       44.53930000      51.79500000      46.65500000
C       55.64030000      48.06800000      46.47410000
C       51.67440000      46.32390000      43.92760000
C       48.12120000      46.42370000      55.61560000
C       51.65060000      53.63540000      55.43380000
C       53.48460000      44.43170000      51.82690000
C       44.50000000      48.19300000      46.62070000
C       48.08280000      53.59910000      55.66230000
C       46.27600000      55.90280000      51.61760000
C       53.48760000      55.75060000      48.45620000
C       46.27380000      44.40380000      48.15100000
C       55.47150000      51.61700000      46.47470000
C       44.45850000      51.77440000      53.84570000
C       55.99040000      48.39270000      53.63380000
C       51.69500000      46.43230000      55.38600000
C       48.34370000      46.40050000      43.97430000
C       52.00870000      53.41290000      44.26760000
C       55.92100000      47.19630000      52.90740000
C       46.90640000      52.88410000      56.04560000
C       52.85360000      55.73010000      47.21040000
C       44.60370000      52.98570000      53.03770000
C       55.28990000      52.84410000      47.22380000
C       44.12590000      46.97510000      47.26910000
C       52.94200000      47.17410000      55.24770000
C       47.18350000      47.17500000      44.10810000
C       53.20270000      52.67670000      44.00370000
C       47.07360000      44.65160000      46.94580000
C       52.73110000      44.10660000      52.99570000
C       46.99270000      55.91090000      52.82020000
C       55.94820000      46.89340000      47.22370000
C       47.33240000      52.73980000      44.27360000
C       52.67100000      56.04490000      53.11340000
C       44.18420000      53.01940000      47.30190000
C       55.85640000      52.92890000      52.91250000
C       44.61780000      47.02240000      53.01480000
C       52.88280000      47.02850000      44.00530000
C       46.93790000      47.12090000      56.01130000
C       52.90560000      52.91030000      55.28320000
C       47.03380000      44.12440000      52.75920000
C       52.82960000      44.70480000      46.99290000
C       47.19020000      55.31160000      47.05780000
C       43.81840000      50.71820000      47.33670000
C       50.72880000      47.02820000      43.11260000
C       46.99670000      43.43520000      50.52780000
C       56.32640000      49.19340000      47.16460000
C       43.78230000      49.27570000      53.09320000
C       56.77330000      50.78090000      52.94640000
C       49.51370000      52.76020000      43.43230000
C       50.66530000      52.88250000      56.16840000
C       49.25830000      47.12220000      56.25980000
C       52.76080000      56.52020000      50.84970000
C       47.05840000      56.43550000      49.16130000
C       52.79050000      43.85560000      49.24650000
C       43.77890000      50.72790000      53.09770000
C       50.69900000      47.16340000      56.13000000
C       47.02050000      43.60300000      49.10070000
C       56.79420000      49.35450000      52.94280000
C       43.80910000      49.28250000      47.32600000
C       56.22810000      50.63830000      47.20650000
C       49.22530000      52.90560000      56.29930000
C       50.95230000      52.76060000      43.45980000
C       49.29940000      47.07010000      43.14150000
C       52.79280000      56.54030000      49.41380000
C       46.98580000      56.60860000      50.58860000
C       52.80230000      43.76000000      50.69140000
C       49.19090000      57.66260000      49.15960000
C       57.68210000      49.33360000      49.26580000
C       49.39190000      49.26690000      57.57960000
C       50.68130000      42.56150000      49.09130000
C       49.20170000      42.31940000      50.50530000
C       50.60950000      57.79850000      50.67440000
C       42.46940000      50.72700000      49.47980000
C       57.80860000      50.80220000      50.71950000
C       42.54160000      49.28100000      50.94940000
C       50.82060000      50.75120000      57.43210000
C       49.38530000      50.70670000      42.09230000
C       50.79720000      49.20920000      41.99770000
C       49.14080000      57.78740000      50.61010000
C       57.86800000      49.33930000      50.72540000
C       49.33540000      49.24130000      42.01430000
C       50.67490000      42.42510000      50.52990000
C       49.21670000      42.47740000      49.05660000
C       50.65590000      57.75050000      49.22360000
C       42.54110000      50.72900000      50.95250000
C       57.59230000      50.77620000      49.26660000
C       42.47080000      49.28610000      49.47750000
C       50.83610000      50.67240000      42.09790000
C       49.38310000      50.74570000      57.58970000
C       50.82900000      49.28010000      57.42210000
C       48.23350000      56.92120000      48.47620000
C       57.05240000      48.58440000      48.29500000
C       48.65970000      48.23750000      57.02020000
C       51.68960000      43.29100000      48.50180000
C       48.13420000      42.81760000      51.21650000
C       51.59780000      57.19740000      51.44280000
C       43.08750000      51.37740000      48.43460000
C       57.29360000      51.49720000      51.79540000
C       43.21260000      48.59820000      51.94550000
C       51.40740000      51.77100000      56.71250000
C       48.73890000      51.69720000      42.78630000
C       51.47720000      48.13990000      42.54480000
C       48.08540000      57.25230000      51.30570000
C       57.35430000      48.63850000      51.80310000
C       48.60190000      48.23600000      42.61700000
C       51.65840000      43.03350000      51.28460000
C       48.18630000      43.13650000      48.40380000
C       51.72980000      57.15410000      48.62040000
C       43.21030000      51.40950000      51.95140000
C       56.80250000      51.38540000      48.31190000
C       43.07980000      48.63150000      48.42870000
C       51.58160000      51.63380000      42.76000000
C       48.63900000      51.77410000      57.04460000
C       51.42760000      48.27670000      56.68930000
C       45.69360000      50.72390000      44.81730000
C       50.71560000      44.43740000      45.08810000
C       44.28240000      45.20240000      50.81960000
C       54.61440000      48.96730000      44.46460000
C       45.17190000      49.27270000      56.05470000
C       54.81060000      50.78480000      55.54400000
C       49.53370000      55.25000000      45.37830000
C       50.39120000      55.67700000      54.68520000
C       49.01810000      44.48160000      54.46530000
C       55.33190000      54.59560000      50.93710000
C       44.16530000      54.85500000      49.39340000
C       55.58260000      45.33630000      49.50550000
C       45.16380000      50.71370000      56.06240000
C       50.45590000      44.39930000      54.58800000
C       44.12660000      45.14850000      49.37300000
C       54.81730000      49.32150000      55.53250000
C       45.66140000      49.26410000      44.78910000
C       54.76290000      50.40140000      44.38900000
C       48.95670000      55.57280000      54.54770000
C       50.98200000      55.30540000      45.42740000
C       49.25260000      44.44580000      45.07290000
C       55.27300000      54.59030000      49.48770000
C       44.28990000      54.80650000      50.84220000
C       55.48930000      45.48020000      50.94030000
C       47.08070000      45.60900000      45.84420000
C       44.67730000      45.76000000      47.12820000
C       46.40950000      46.91220000      45.26040000
C       53.16330000      54.62030000      46.38970000
C       46.74100000      54.82250000      53.68620000
C       52.79520000      44.73550000      54.18250000
C       54.35470000      53.95220000      47.17100000
C       45.49300000      54.13650000      53.01870000
C       54.77620000      46.40080000      53.15020000
C       54.32610000      52.72530000      44.73670000
C       45.69280000      52.96190000      55.46680000
C       54.10820000      47.12960000      54.37760000
C       46.77780000      45.20390000      53.63360000
C       45.51200000      45.87670000      52.98290000
C       45.72340000      47.03660000      55.43530000
C       52.73340000      55.36900000      54.27130000
C       47.22740000      54.29310000      46.01740000
C       52.90670000      45.56610000      45.82330000
C       54.70850000      53.71850000      53.17830000
C       44.77380000      54.21840000      47.17970000
C       55.28940000      45.72260000      47.15750000
C       54.06830000      52.97860000      54.40930000
C       46.51820000      53.02620000      45.38670000
C       53.66080000      46.77690000      45.16210000
C       44.99730000      44.99020000      48.25840000
C       45.49530000      48.09500000      45.59700000
C       48.26190000      45.40040000      44.93970000
C       54.44080000      54.76170000      48.41370000
C       45.27400000      54.95750000      51.78680000
C       54.54400000      45.40470000      52.00670000
C       54.93640000      51.54510000      45.18990000
C       44.99930000      51.77710000      55.14460000
C       54.99080000      48.32020000      54.59900000
C       52.09010000      54.40970000      45.32180000
C       47.89270000      54.63100000      54.66790000
C       51.61240000      45.16850000      54.80970000
C       45.28080000      45.05420000      51.75290000
C       45.01680000      48.21720000      55.12710000
C       47.93860000      45.40290000      54.60800000
C       54.44900000      54.73170000      52.05250000
C       45.07120000      55.00140000      48.30360000
C       54.82190000      45.12420000      48.34320000
C       54.96940000      51.79740000      54.61980000
C       45.55620000      51.87410000      45.65740000
C       54.66970000      47.90080000      45.40840000
C       51.55500000      54.91100000      54.88620000
C       48.48010000      54.38680000      45.21940000
C       51.72600000      45.35980000      44.92850000
C       56.66760000      46.33640000      50.88110000
C       46.29920000      50.72940000      56.96970000
C       50.83560000      56.44930000      46.31620000
C       43.42140000      53.66350000      50.91090000
C       56.32930000      53.62380000      49.36670000
C       43.25240000      46.30170000      49.43250000
C       53.65860000      49.30230000      56.38120000
C       46.39710000      49.27830000      43.53180000
C       53.86100000      50.48990000      43.24970000
C       49.23310000      43.57440000      46.21470000
C       50.53340000      43.33390000      53.59950000
C       49.00290000      56.72600000      53.65790000
C       56.68940000      46.27860000      49.42730000
C       46.44150000      50.72670000      43.56680000
C       50.45760000      56.77300000      53.73050000
C       43.28180000      53.70770000      49.44110000
C       56.48170000      53.71270000      50.81480000
C       43.41770000      46.34760000      50.89890000
C       53.78860000      49.03520000      43.26410000
C       46.30800000      49.25860000      56.96070000
C       53.65120000      50.77880000      56.39260000
C       49.07790000      43.34890000      53.55090000
C       50.70790000      43.58060000      46.24110000
C       49.38100000      56.31790000      46.32750000
