240
Lattice="100.0 0.0 0.0 0.0 100.0 0.0 0.0 0.0 100.0" Properties=species:S:1:pos:R:3 name=C-53965-5632-248 pressure=-2.70454982784229 spacegroup=C1 times_found=1 energy=-1690.427732435 pbc="T T T"
C       53.70090000      54.62760000      45.22000000
C       55.54600000      44.52530000      52.58050000
C       45.38990000      53.55180000      54.66310000
C       53.84790000      45.15280000      54.73450000
C       45.75120000      54.78750000      54.05260000
C       45.68180000      45.16190000      45.87330000
C       55.29080000      55.10850000      46.95800000
C       44.86190000      44.77770000      46.98180000
C       44.90860000      55.18870000      52.95770000
C       45.33900000      46.40280000      45.24210000
C       54.92330000      54.26910000      45.85030000
C       54.87400000      46.18400000      54.77430000
C       46.79910000      55.20130000      44.77240000
C       45.79630000      45.22150000      54.31590000
C       55.01750000      53.19660000      55.36570000
C       46.87770000      44.80640000      55.15650000
C       54.14980000      54.25790000      54.92370000
C       53.04670000      44.87740000      44.93630000
C       45.72330000      54.78610000      45.61950000
C       54.12890000      45.30080000      45.77370000
C       54.49590000      54.82240000      53.67690000
C       54.74350000      46.54740000      45.43770000
C       45.13620000      53.52900000      45.27950000
C       45.21830000      46.48970000      54.64210000
C       47.09540000      55.35120000      53.71050000
C       55.95560000      54.23990000      47.89590000
C       54.27740000      47.06640000      55.79550000
C       47.01440000      44.57490000      46.23360000
C       52.81660000      55.49610000      45.98960000
C       52.96690000      44.58360000      53.76940000
C       55.87690000      45.76170000      52.03080000
C       44.19060000      54.20320000      52.21690000
C       44.17870000      45.77760000      47.72490000
C       54.20560000      52.14670000      43.75570000
C       46.07320000      47.30940000      44.39640000
C       46.16490000      52.64570000      55.45260000
C       52.01150000      56.29310000      54.11400000
C       43.82520000      53.88180000      47.87850000
C       46.04060000      47.36340000      55.47370000
C       52.13160000      44.12990000      45.78500000
C       47.70630000      55.96050000      45.61140000
C       47.79650000      44.05260000      54.31700000
C       43.86290000      46.11280000      52.06020000
C       55.31420000      53.97400000      52.82820000
C       55.94990000      46.26650000      48.08930000
C       45.94350000      52.66880000      44.41650000
C       53.93170000      47.40280000      44.58440000
C       54.16570000      52.29350000      56.08550000
C       52.97860000      52.68660000      43.67120000
C       53.07560000      43.97250000      52.52560000
C       43.88780000      52.92040000      52.66140000
C       53.48310000      46.46820000      56.74180000
C       47.36320000      52.80370000      56.14990000
C       47.28460000      47.21050000      43.67870000
C       52.99620000      56.12810000      47.21480000
C       46.99760000      43.77960000      47.44270000
C       47.06850000      56.10110000      52.48640000
C       43.87790000      47.05470000      47.27010000
C       56.20620000      52.95070000      47.43640000
C       56.07270000      47.01330000      52.61240000
C       47.18020000      52.90690000      43.81830000
C       47.34980000      43.80690000      53.02040000
C       55.99710000      52.79310000      53.07740000
C       47.25660000      47.11140000      56.09570000
C       52.83460000      52.71230000      56.22760000
C       52.69550000      47.16670000      43.99070000
C       47.25880000      56.23070000      46.90370000
C       52.59000000      43.86670000      47.07610000
C       52.54470000      56.34680000      52.88450000
C       56.27310000      47.37670000      47.41830000
C       43.60570000      52.72880000      47.24000000
C       43.65460000      47.26790000      52.69590000
C       47.16270000      44.80930000      49.62380000
C       44.79380000      49.23080000      47.23300000
C       49.15530000      47.47120000      45.07600000
C       47.18270000      55.12290000      50.31130000
C       52.71200000      44.99510000      50.42900000
C       52.73930000      55.23990000      49.39370000
C       44.83890000      50.75630000      52.64020000
C       55.05710000      49.18410000      52.86450000
C       55.14030000      50.90740000      47.34040000
C       49.41010000      52.69140000      55.02890000
C       50.92570000      47.21320000      55.41250000
C       50.78060000      52.73180000      44.71570000
C       52.45430000      45.12360000      49.07260000
C       55.21600000      49.53080000      47.29360000
C       50.51250000      47.29370000      44.90440000
C       52.54350000      55.16550000      50.76570000
C       47.37790000      44.95790000      50.97790000
C       47.34530000      55.04350000      48.94580000
C       55.19090000      50.56320000      53.01430000
C       44.78660000      49.37870000      52.69440000
C       44.72250000      50.61150000      47.18290000
C       50.78910000      52.67680000      55.04550000
C       49.52140000      47.12080000      55.38430000
C       49.39360000      52.82060000      44.66520000
C       55.48450000      52.92150000      46.19150000
C       52.92570000      45.71310000      55.74290000
C       45.77280000      55.87220000      52.02870000
C       55.47440000      47.09700000      53.86060000
C       44.51100000      52.68990000      53.89090000
C       44.46210000      47.26870000      46.01870000
C       52.81680000      53.87160000      44.39350000
C       47.94330000      46.07350000      43.90780000
C       47.84050000      54.06510000      56.12840000
C       45.71910000      44.06740000      47.91240000
C       54.27110000      55.81060000      47.68290000
C       54.33760000      44.16890000      51.96540000
C       44.31500000      52.61900000      46.02460000
C       47.64580000      45.79100000      55.84630000
C       53.71170000      55.57870000      52.76420000
C       44.40170000      47.39200000      53.88880000
C       55.75400000      52.41430000      54.39970000
C       55.56860000      47.46070000      46.19000000
C       47.57680000      54.21260000      44.09200000
C       52.27910000      45.86610000      44.26020000
C       52.78670000      53.90020000      55.43720000
C       53.73820000      44.74320000      47.11460000
C       46.09260000      55.38810000      46.95200000
C       46.16450000      44.62760000      52.98590000
C       51.74370000      51.60090000      55.85400000
C       51.46190000      55.81870000      51.62020000
C       55.67550000      51.64350000      51.95940000
C       51.60410000      48.30650000      44.31780000
C       48.32220000      51.74330000      44.14600000
C       48.40970000      48.22040000      55.79250000
C       51.46560000      44.28820000      48.21200000
C       48.38060000      55.80320000      48.05690000
C       48.45560000      44.24470000      51.86820000
C       55.75610000      48.62670000      48.36920000
C       44.13910000      51.52270000      48.23120000
C       44.17260000      48.46420000      51.67480000
C       48.39580000      51.63020000      55.69480000
C       48.21360000      55.71630000      51.44800000
C       44.18780000      51.73800000      51.56290000
C       48.27150000      48.45540000      44.20820000
C       51.67990000      51.62730000      44.17430000
C       51.54800000      48.44060000      55.80000000
C       48.16810000      44.22460000      48.52370000
C       51.76200000      55.80440000      48.29370000
C       51.82090000      44.36130000      51.56130000
C       44.18600000      48.24460000      48.34260000
C       55.77060000      51.79890000      48.48700000
C       55.66940000      48.27970000      51.68290000
C       50.98390000      45.94200000      44.87910000
C       46.20840000      45.32840000      51.76120000
C       44.95700000      51.34600000      45.98290000
C       51.53030000      53.92780000      54.76550000
C       48.94820000      45.83150000      55.26010000
C       48.85960000      54.14860000      44.71400000
C       46.16610000      54.67930000      48.17300000
C       53.59420000      45.53940000      48.27940000
C       53.67120000      54.85600000      51.56200000
C       45.06560000      48.65240000      53.88650000
C       55.16840000      51.10610000      54.34650000
C       54.93330000      48.73390000      46.14310000
C       48.43620000      46.22260000      45.26400000
C       54.07730000      45.02340000      50.83460000
C       54.86300000      51.64470000      46.10100000
C       48.66150000      53.95090000      54.91760000
C       51.69090000      46.01830000      55.08100000
C       51.54060000      53.90410000      44.99030000
C       54.10060000      55.15960000      48.94270000
C       45.80360000      44.84180000      49.10460000
C       45.82650000      55.11510000      50.83290000
C       54.82180000      48.35620000      54.01860000
C       45.11340000      51.41640000      53.85320000
C       45.03140000      48.55780000      46.01500000
C       56.26160000      50.77160000      50.94710000
C       50.73430000      50.74640000      56.41760000
C       50.60070000      56.37560000      50.61870000
C       56.37530000      49.43130000      49.38880000
C       43.52850000      50.66610000      49.20420000
C       43.53960000      49.31190000      50.70750000
C       50.70700000      49.24340000      43.65980000
C       49.26840000      50.77230000      43.58990000
C       49.23830000      49.24650000      56.38650000
C       50.64510000      43.70890000      49.26130000
C       49.26600000      56.34930000      49.06730000
C       49.34090000      43.70760000      50.85450000
C       43.55190000      50.76640000      50.66440000
C       49.26930000      50.72540000      56.36800000
C       49.15310000      56.33130000      50.53220000
C       43.55410000      49.21040000      49.24680000
C       56.33060000      50.87250000      49.46890000
C       56.29070000      49.31930000      50.85550000
C       49.24350000      49.31480000      43.60160000
C       50.72950000      50.69870000      43.62590000
C       50.66830000      49.31230000      56.40050000
C       49.19660000      43.67980000      49.39620000
C       50.72570000      56.37660000      49.16130000
C       50.79560000      43.74630000      50.71890000
C       51.22940000      55.03870000      53.94650000
C       54.64050000      53.84690000      51.61230000
C       54.17540000      51.05230000      55.39790000
C       50.90650000      44.86310000      45.84680000
C       48.92260000      55.21800000      45.68010000
C       49.01680000      44.78600000      54.26190000
C       54.54630000      46.50680000      48.45700000
C       45.18300000      53.74330000      48.37890000
C       45.21670000      46.25220000      51.54330000
C       53.89250000      48.67220000      45.19000000
C       45.98110000      51.39330000      45.00650000
C       46.10560000      48.62390000      54.84620000
C       48.37750000      54.75570000      53.79510000
C       44.81220000      54.07660000      50.92440000
C       46.13540000      51.37920000      54.82990000
C       48.23200000      45.28920000      46.25250000
C       51.55300000      54.89230000      45.99470000
C       51.71210000      45.23730000      53.89870000
C       44.81830000      45.90480000      49.00510000
C       55.13570000      54.15900000      49.05510000
C       55.02770000      46.04890000      50.90200000
C       46.01050000      48.60000000      44.99720000
C       54.02450000      51.38710000      45.00180000
C       53.99430000      48.31930000      55.16560000
C       52.86880000      50.47320000      55.44730000
C       50.52760000      55.14080000      52.66230000
C       54.96230000      52.64970000      50.92560000
C       52.67350000      49.35420000      44.97000000
C       47.21960000      50.74550000      44.77920000
C       47.35060000      49.27190000      55.05400000
C       50.37390000      44.81170000      47.19670000
C       49.45110000      55.25820000      47.03200000
C       49.53800000      44.80170000      52.90370000
C       54.79280000      47.70900000      49.21900000
C       44.98270000      52.51510000      49.12120000
C       45.00920000      47.47170000      50.79000000
C       47.34950000      50.66240000      55.05680000
C       49.15110000      55.05190000      52.57720000
C       44.79070000      52.72010000      50.47240000
C       47.19820000      49.35880000      44.74850000
C       52.70460000      50.73450000      44.91760000
C       52.78480000      49.07620000      55.46670000
C       49.02170000      44.94110000      47.42210000
C       50.82120000      55.16810000      47.18010000
C       50.90120000      44.97970000      52.73150000
C       44.81420000      47.26540000      49.44120000
C       55.11650000      52.79280000      49.55900000
C       54.99630000      47.42100000      50.56450000
