240
Lattice="100.0 0.0 0.0 0.0 100.0 0.0 0.0 0.0 100.0" Properties=species:S:1:pos:R:3 name=C-53965-5632-1168 pressure=-0.0245350398461733 energy=-1739.11762489373 spacegroup=C1 times_found=1 pbc="T T T"
C       45.66920000      45.13990000      48.36610000
C       47.94480000      45.59860000      45.38510000
C       44.92650000      48.12310000      45.09000000
C       45.59650000      54.61720000      52.03290000
C       54.69480000      54.91980000      48.43280000
C       54.52440000      45.38090000      52.12380000
C       48.27600000      54.80690000      55.06900000
C       51.55670000      54.29890000      45.18670000
C       51.77650000      45.19080000      55.08360000
C       45.04560000      51.64830000      54.30860000
C       54.46490000      51.94930000      45.72930000
C       55.01610000      48.34460000      54.43660000
C       54.73500000      45.04520000      48.43200000
C       51.59850000      45.74450000      45.23010000
C       54.51210000      48.14470000      45.79670000
C       54.52110000      54.64750000      52.11150000
C       45.63750000      54.89610000      48.37670000
C       45.59160000      45.34410000      52.01280000
C       51.90230000      54.97280000      55.06600000
C       47.90430000      54.41060000      45.39830000
C       48.14560000      45.02260000      55.05650000
C       55.00160000      51.83670000      54.54740000
C       44.86990000      51.76020000      45.15040000
C       45.05740000      48.16510000      54.41230000
C       57.81830000      50.25080000      54.00090000
C       53.98490000      57.26470000      50.22120000
C       50.21210000      53.82180000      57.33270000
C       57.78990000      49.15680000      46.10740000
C       42.25020000      49.74850000      53.76160000
C       42.11360000      50.84850000      46.05370000
C       53.95360000      42.22520000      49.14880000
C       46.09410000      42.54410000      50.40830000
C       46.23240000      58.19340000      49.47290000
C       50.64000000      46.13000000      41.89060000
C       49.77800000      46.17940000      57.33060000
C       49.49850000      53.95650000      42.59420000
C       41.60640000      50.83460000      53.65260000
C       46.10720000      57.43900000      50.48330000
C       49.06720000      53.70810000      57.84420000
C       42.60920000      49.69400000      46.06150000
C       58.46920000      49.16680000      53.91880000
C       57.14280000      50.24420000      46.10490000
C       46.23360000      41.79550000      49.39400000
C       53.96930000      42.72830000      50.30470000
C       53.95770000      57.77120000      49.06580000
C       49.59110000      46.03930000      42.59510000
C       50.91260000      46.29300000      57.86420000
C       50.53190000      53.87350000      41.86690000
C       46.83030000      45.34750000      46.31080000
C       45.45050000      46.95470000      44.56510000
C       45.73010000      45.90660000      47.11750000
C       47.09570000      55.31730000      54.52470000
C       52.76760000      54.18460000      46.00540000
C       52.95860000      44.68720000      54.53470000
C       45.85940000      52.87580000      54.23790000
C       53.56250000      53.07300000      45.46110000
C       54.20140000      47.12040000      54.33530000
C       45.31800000      53.69060000      53.13470000
C       55.21120000      54.41210000      47.24640000
C       54.77280000      46.30200000      53.24320000
C       52.80050000      45.86680000      46.06330000
C       53.58790000      47.00700000      45.54180000
C       55.22480000      45.61140000      47.25330000
C       53.07420000      55.51030000      54.54240000
C       46.79740000      54.67310000      46.32800000
C       46.97850000      44.48140000      54.52910000
C       54.22150000      53.04660000      54.41090000
C       45.42420000      52.93780000      44.65790000
C       45.83780000      46.95250000      54.30380000
C       54.77470000      53.78920000      53.25830000
C       45.69010000      54.11850000      47.12970000
C       45.31260000      46.21190000      53.14040000
C       52.83430000      47.39360000      44.41230000
C       44.76650000      53.00210000      47.28720000
C       47.27300000      44.06920000      53.24190000
C       53.04920000      52.83930000      55.24100000
C       46.68860000      52.68900000      44.17710000
C       46.98870000      47.15910000      55.16860000
C       44.26130000      47.03120000      52.67810000
C       55.72610000      46.86560000      47.47260000
C       55.84170000      52.96200000      52.83550000
C       47.24980000      55.76050000      47.11420000
C       52.79710000      55.92400000      53.24820000
C       52.63910000      44.91730000      47.15400000
C       46.71600000      47.24360000      44.08930000
C       55.69200000      53.14700000      47.46960000
C       52.72440000      44.21580000      53.26190000
C       47.00000000      52.68480000      55.12380000
C       52.80930000      52.67320000      44.33440000
C       53.04030000      47.31160000      55.19180000
C       55.89620000      47.06630000      52.83910000
C       44.82700000      47.02780000      47.27680000
C       44.21370000      52.93030000      52.68400000
C       52.61040000      55.09810000      47.11870000
C       47.34670000      55.79010000      53.25770000
C       47.27910000      44.26110000      47.10310000
C       47.04880000      42.84920000      48.87540000
C       48.79740000      46.89830000      43.34050000
C       43.38360000      48.87750000      46.89970000
C       46.96130000      56.62650000      51.21590000
C       52.99220000      56.74680000      48.74540000
C       53.12450000      43.43320000      51.16610000
C       48.70880000      52.89740000      56.71320000
C       51.05020000      53.00380000      42.87440000
C       51.29390000      47.09700000      56.73690000
C       42.74650000      51.23370000      52.85780000
C       56.48770000      51.07760000      47.00410000
C       57.36310000      48.76460000      53.08020000
C       53.00290000      43.24800000      48.78930000
C       51.11620000      47.01740000      42.90380000
C       56.79260000      48.73590000      47.06200000
C       53.14550000      56.58890000      51.11030000
C       47.03940000      57.15410000      48.92000000
C       46.94180000      43.33500000      51.16880000
C       51.08370000      53.07470000      56.52420000
C       48.73770000      53.08530000      43.36120000
C       48.92250000      46.92810000      56.50650000
C       57.09150000      51.07950000      53.17270000
C       43.16070000      51.27120000      46.95420000
C       43.01140000      48.92050000      52.96340000
C       53.56120000      44.33480000      52.15800000
C       51.72740000      53.48380000      44.01830000
C       43.90210000      51.82200000      53.44610000
C       53.44790000      55.57520000      48.14180000
C       46.53860000      55.66240000      52.13800000
C       46.50570000      43.97970000      48.21560000
C       52.01230000      46.49050000      55.68330000
C       47.85050000      46.47640000      44.28390000
C       48.01770000      53.50120000      55.64380000
C       44.32700000      47.99780000      46.38780000
C       56.19030000      48.16720000      53.62180000
C       55.54330000      52.03850000      46.63890000
C       46.50040000      44.26970000      52.10940000
C       47.80870000      53.49240000      44.32730000
C       56.11890000      51.91340000      53.67540000
C       46.48470000      56.04790000      48.22980000
C       53.59720000      55.72900000      52.13130000
C       53.47890000      44.39840000      48.15890000
C       48.00790000      46.32900000      55.63780000
C       51.77390000      46.56420000      44.06990000
C       52.01810000      53.67340000      55.67240000
C       55.62960000      48.00430000      46.66270000
C       43.96840000      48.08880000      53.50050000
C       44.24160000      52.00100000      46.43390000
C       46.88680000      48.65580000      43.89950000
C       44.44320000      47.09540000      48.66280000
C       48.67020000      44.06950000      47.04390000
C       47.02020000      51.28460000      55.48280000
C       52.86740000      51.29750000      44.09760000
C       53.01130000      48.71270000      55.55290000
C       44.02350000      53.00970000      51.29370000
C       55.92390000      52.95790000      48.87120000
C       56.14490000      46.99660000      51.45980000
C       48.75120000      55.99600000      53.07370000
C       51.25030000      55.55980000      47.09950000
C       51.31720000      44.01120000      53.07460000
C       52.88670000      48.76160000      44.15060000
C       56.01790000      46.95830000      48.87530000
C       51.27660000      44.46290000      47.12440000
C       52.98640000      51.43710000      55.58900000
C       46.86820000      51.28470000      43.95870000
C       47.04350000      48.56060000      55.51540000
C       56.04350000      52.92090000      51.45440000
C       44.37810000      52.98200000      48.67310000
C       44.10470000      47.05640000      51.28750000
C       51.37960000      56.07960000      53.06110000
C       48.64190000      55.94590000      47.04960000
C       48.68920000      43.90920000      53.06600000
C       48.33590000      43.29730000      50.73700000
C       50.64800000      48.37710000      43.08150000
C       43.32110000      50.76960000      48.30310000
C       48.40550000      56.89040000      49.33530000
C       51.74110000      56.61110000      50.70260000
C       51.65520000      43.34390000      49.29790000
C       50.67940000      51.68550000      56.39630000
C       49.17830000      51.69350000      43.27690000
C       49.33120000      48.31420000      56.38300000
C       43.13440000      49.33100000      51.56390000
C       56.76720000      49.22620000      48.42690000
C       57.01190000      50.66290000      51.77150000
C       51.72460000      43.41180000      50.73630000
C       49.21550000      48.29620000      43.26290000
C       56.62940000      50.65160000      48.38770000
C       51.64910000      56.67050000      49.26630000
C       48.35020000      56.67260000      50.76380000
C       48.41160000      43.10070000      49.30860000
C       49.24180000      51.57320000      56.46730000
C       50.60840000      51.63690000      43.06920000
C       50.76750000      48.42230000      56.47990000
C       57.14720000      49.23010000      51.71920000
C       43.42700000      49.33190000      48.27080000
C       43.00640000      50.76960000      51.50410000
C       49.15630000      44.89910000      45.95610000
C       45.71820000      49.26330000      44.48780000
C       44.99100000      45.92250000      49.38880000
C       49.39290000      55.43710000      54.24160000
C       50.52860000      55.00890000      45.92540000
C       50.66880000      44.56080000      54.24850000
C       45.81810000      50.61850000      54.99060000
C       53.91410000      50.75310000      44.97910000
C       54.22660000      49.37810000      55.09560000
C       44.86800000      54.08840000      50.81880000
C       55.30040000      54.08610000      49.55060000
C       55.31560000      45.91350000      50.95260000
C       50.56700000      45.01920000      45.94810000
C       53.93030000      49.33210000      45.01410000
C       55.36520000      45.83880000      49.55720000
C       50.77070000      55.51740000      54.24310000
C       49.11800000      55.12020000      45.95310000
C       49.29070000      44.47820000      54.24530000
C       54.21470000      50.79000000      55.15280000
C       45.70420000      50.64230000      44.52940000
C       45.82800000      49.20800000      55.04430000
C       55.26130000      54.02770000      50.94230000
C       44.95330000      54.13810000      49.40520000
C       44.90040000      45.95250000      50.79990000
C       43.70750000      51.82280000      49.21900000
C       49.28560000      43.60390000      51.80560000
C       51.69070000      49.30880000      43.52510000
C       43.63920000      48.26870000      50.65760000
C       56.52790000      48.18160000      49.39610000
C       56.53340000      51.70880000      50.83840000
C       49.28520000      56.42230000      48.25130000
C       50.78680000      56.37380000      51.79670000
C       50.72950000      43.75160000      48.26080000
C       51.78680000      50.79750000      56.04310000
C       48.12390000      50.71820000      43.57200000
C       48.23150000      49.20070000      56.00180000
C       56.39290000      51.71100000      49.38750000
C       50.75140000      43.65270000      51.81270000
C       48.13910000      49.25020000      43.55240000
C       56.66720000      48.18350000      50.82720000
C       43.80400000      48.27420000      49.21750000
C       43.53020000      51.82450000      50.63950000
C       50.71190000      56.26270000      48.24500000
C       49.31970000      56.36440000      51.81440000
C       49.30370000      43.58440000      48.24650000
C       48.20630000      50.65950000      56.02030000
C       51.67550000      50.72420000      43.50600000
C       51.81220000      49.33770000      56.06030000
