240
Lattice="100.0 0.0 0.0 0.0 100.0 0.0 0.0 0.0 100.0" Properties=species:S:1:pos:R:3 name=C-53965-5632-1313 pressure=-0.0300032506207805 energy=-1696.66652030071 spacegroup=Td times_found=1 pbc="T T T"
C       54.64670000      53.61860000      47.34590000
C       47.34390000      54.64610000      53.61780000
C       53.61750000      47.34490000      54.64700000
C       45.35460000      46.38130000      47.34380000
C       45.35320000      53.61840000      52.65410000
C       54.64560000      46.38160000      52.65630000
C       52.65450000      45.35400000      53.61920000
C       52.65590000      54.64620000      46.38210000
C       47.34580000      45.35380000      46.38090000
C       46.38030000      52.65520000      54.64520000
C       46.38260000      47.34470000      45.35310000
C       53.61950000      52.65520000      45.35470000
C       53.61900000      54.64620000      47.34560000
C       54.64530000      47.34500000      53.61960000
C       47.34360000      53.61850000      54.64550000
C       46.38220000      45.35380000      47.34400000
C       53.61800000      45.35400000      52.65610000
C       46.38070000      54.64610000      52.65430000
C       45.35300000      52.65510000      53.61740000
C       54.64690000      52.65530000      46.38250000
C       45.35480000      47.34470000      46.38040000
C       52.65420000      46.38160000      54.64680000
C       47.34600000      46.38140000      45.35330000
C       52.65620000      53.61850000      45.35450000
C       54.84190000      48.73760000      52.96530000
C       52.96440000      54.84270000      48.73810000
C       48.73630000      52.96420000      54.84230000
C       45.15670000      51.26240000      52.96310000
C       45.15810000      48.73730000      47.03470000
C       54.84330000      51.26260000      47.03690000
C       47.03620000      45.15730000      48.73690000
C       47.03540000      54.84250000      51.26180000
C       52.96400000      45.15750000      51.26330000
C       51.26150000      47.03590000      54.84290000
C       51.26360000      52.96420000      45.15770000
C       48.73870000      47.03570000      45.15710000
C       48.73670000      54.84260000      52.96390000
C       54.84280000      52.96430000      48.73860000
C       52.96310000      48.73760000      54.84330000
C       51.26190000      45.15750000      52.96450000
C       48.73830000      45.15730000      47.03560000
C       51.26310000      54.84260000      47.03600000
C       45.15780000      47.03570000      48.73640000
C       54.84240000      47.03590000      51.26370000
C       45.15700000      52.96410000      51.26130000
C       47.03460000      51.26250000      54.84190000
C       52.96530000      51.26250000      45.15810000
C       47.03700000      48.73740000      45.15670000
C       54.60330000      55.58000000      53.55600000
C       53.55360000      54.60440000      55.58060000
C       55.57870000      53.55520000      54.60550000
C       45.39510000      44.42010000      53.55400000
C       45.39650000      55.57970000      46.44390000
C       54.60520000      44.42020000      46.44610000
C       46.44380000      45.39570000      55.57910000
C       46.44620000      54.60410000      44.41930000
C       53.55640000      45.39580000      44.42100000
C       44.41920000      46.44490000      54.60300000
C       44.42110000      53.55480000      45.39440000
C       55.58100000      46.44510000      45.39710000
C       55.57890000      54.60440000      53.55630000
C       54.60280000      53.55520000      55.58090000
C       53.55380000      55.58000000      54.60500000
C       44.41940000      45.39570000      53.55380000
C       55.58080000      45.39590000      46.44630000
C       44.42090000      54.60410000      46.44360000
C       45.39450000      46.44490000      55.57880000
C       54.60560000      46.44500000      44.42130000
C       45.39700000      53.55480000      44.41900000
C       46.44400000      44.42010000      54.60350000
C       53.55620000      44.42020000      45.39670000
C       46.44590000      55.57970000      45.39490000
C       55.20090000      50.68980000      45.80380000
C       45.80230000      55.19980000      50.68870000
C       50.68860000      45.80270000      55.20010000
C       44.80110000      49.31010000      45.80140000
C       44.79910000      50.68970000      54.19610000
C       55.19900000      49.31040000      54.19860000
C       54.19730000      44.80020000      50.69080000
C       54.19740000      55.20000000      49.31120000
C       45.80290000      44.80000000      49.30930000
C       49.30890000      54.19740000      55.19970000
C       49.31160000      45.80260000      44.80000000
C       50.69090000      54.19730000      44.80020000
C       50.69060000      55.19990000      45.80270000
C       55.19990000      45.80280000      50.69100000
C       45.80140000      50.68970000      55.19890000
C       49.31140000      44.80000000      45.80250000
C       50.68890000      44.80010000      54.19760000
C       49.30910000      55.19990000      54.19710000
C       44.79980000      54.19720000      50.68850000
C       55.20000000      54.19750000      49.31140000
C       44.80030000      45.80250000      49.30910000
C       54.19620000      49.31040000      55.20090000
C       45.80390000      49.31010000      44.79910000
C       54.19860000      50.68980000      44.80110000
C       48.67170000      44.16310000      53.22820000
C       53.22980000      48.67230000      44.16390000
C       44.16330000      53.22830000      48.67090000
C       51.32680000      55.83700000      53.22870000
C       51.32860000      44.16310000      46.77190000
C       48.67290000      55.83680000      46.77120000
C       46.77290000      51.32760000      44.16230000
C       46.77020000      48.67230000      55.83620000
C       53.22700000      51.32790000      55.83770000
C       55.83730000      46.77170000      48.67370000
C       55.83650000      53.22860000      51.32900000
C       44.16290000      46.77140000      51.32640000
C       44.16240000      48.67220000      53.22710000
C       48.67360000      53.22830000      44.16270000
C       53.22890000      44.16320000      48.67310000
C       55.83610000      51.32790000      53.22980000
C       44.16380000      51.32750000      46.77020000
C       55.83770000      48.67240000      46.77290000
C       51.32920000      46.77150000      44.16340000
C       48.67100000      46.77160000      55.83660000
C       51.32630000      53.22850000      55.83720000
C       46.77170000      55.83680000      48.67150000
C       53.22800000      55.83700000      51.32840000
C       46.77140000      44.16300000      51.32700000
C       53.32980000      51.34030000      47.65710000
C       47.65590000      53.32930000      51.33970000
C       51.33950000      47.65640000      53.32960000
C       46.67130000      48.65960000      47.65560000
C       46.67010000      51.34020000      52.34290000
C       53.32880000      48.65980000      52.34440000
C       52.34340000      46.67080000      51.34080000
C       52.34390000      53.32940000      48.66030000
C       47.65670000      46.67060000      48.65920000
C       48.65890000      52.34370000      53.32900000
C       48.66060000      47.65630000      46.67040000
C       51.34100000      52.34370000      46.67100000
C       51.34070000      53.32930000      47.65660000
C       53.32910000      47.65640000      51.34110000
C       47.65550000      51.34020000      53.32870000
C       48.66040000      46.67060000      47.65610000
C       51.33980000      46.67070000      52.34400000
C       48.65910000      53.32930000      52.34330000
C       46.67030000      52.34360000      51.33950000
C       53.32960000      52.34370000      48.66050000
C       46.67110000      47.65620000      48.65900000
C       52.34290000      48.65980000      53.32990000
C       47.65720000      48.65960000      46.67020000
C       52.34440000      51.34030000      46.67120000
C       46.38780000      47.38510000      56.11060000
C       56.11210000      46.38930000      47.38660000
C       47.38590000      56.11130000      46.38850000
C       53.60930000      52.61500000      56.11220000
C       53.61230000      47.38520000      43.88950000
C       46.39060000      52.61470000      43.88780000
C       43.88920000      53.61060000      47.38370000
C       43.88810000      46.38910000      52.61340000
C       56.11070000      53.61100000      52.61620000
C       52.61580000      43.88870000      46.38990000
C       52.61380000      56.11150000      53.61130000
C       47.38450000      43.88860000      53.61020000
C       47.38380000      46.38920000      56.11080000
C       46.38970000      56.11130000      47.38430000
C       56.11230000      47.38530000      46.39070000
C       52.61330000      53.61090000      56.11190000
C       47.38650000      53.61070000      43.88800000
C       52.61630000      46.38920000      43.88930000
C       53.61160000      43.88870000      47.38610000
C       46.38870000      43.88860000      52.61410000
C       53.61000000      56.11150000      52.61560000
C       43.88940000      52.61460000      46.38780000
C       56.11050000      52.61500000      53.61220000
C       43.88790000      47.38510000      53.60940000
C       49.31460000      44.45840000      48.29070000
C       48.29210000      49.31390000      44.45810000
C       44.45870000      48.29070000      49.31280000
C       50.68620000      55.54150000      48.29090000
C       50.68570000      44.45850000      51.70940000
C       49.31350000      55.54160000      51.70890000
C       51.71040000      50.68590000      44.45880000
C       51.70790000      49.31410000      55.54200000
C       48.28950000      50.68600000      55.54110000
C       55.54170000      51.70930000      49.31530000
C       55.54140000      48.29100000      50.68730000
C       44.45820000      51.70900000      50.68460000
C       44.45890000      49.31390000      48.28950000
C       49.31540000      48.29080000      44.45830000
C       48.29110000      44.45840000      49.31370000
C       55.54190000      50.68610000      48.29210000
C       44.45800000      50.68580000      51.70790000
C       55.54120000      49.31420000      51.71050000
C       50.68720000      51.70910000      44.45860000
C       49.31270000      51.70920000      55.54140000
C       50.68470000      48.29090000      55.54170000
C       51.70920000      55.54160000      49.31440000
C       48.29050000      55.54150000      50.68550000
C       51.70910000      44.45850000      50.68640000
C       50.67600000      44.54310000      45.60100000
C       45.60200000      50.67470000      44.54210000
C       44.54300000      45.60060000      50.67360000
C       49.32600000      55.45680000      45.60060000
C       49.32430000      44.54310000      54.39910000
C       50.67370000      55.45700000      54.39930000
C       54.40050000      49.32520000      44.54410000
C       54.39790000      50.67500000      55.45790000
C       45.59950000      49.32510000      55.45590000
C       55.45660000      54.39940000      50.67610000
C       55.45720000      45.60090000      49.32650000
C       44.54310000      54.39910000      49.32380000
C       44.54410000      50.67470000      45.59950000
C       50.67620000      45.60070000      44.54330000
C       45.60080000      44.54300000      50.67390000
C       55.45790000      49.32520000      45.60210000
C       44.54210000      49.32510000      54.39800000
C       55.45590000      50.67500000      54.40050000
C       49.32630000      54.39920000      44.54290000
C       50.67350000      54.39930000      55.45700000
C       49.32400000      45.60080000      55.45680000
C       54.39890000      55.45700000      50.67580000
C       45.60080000      55.45680000      49.32410000
C       54.39950000      44.54320000      49.32620000
C       51.81710000      55.80520000      50.77920000
C       50.77750000      51.81750000      55.80530000
C       55.80470000      50.77900000      51.81880000
C       48.18250000      44.19480000      50.77850000
C       48.18260000      55.80510000      49.22070000
C       51.81780000      44.19490000      49.22160000
C       49.21980000      48.18260000      55.80500000
C       49.22240000      51.81730000      44.19470000
C       50.78030000      48.18250000      44.19510000
C       44.19450000      49.22100000      51.81610000
C       44.19530000      50.77870000      48.18120000
C       55.80560000      49.22130000      48.18390000
C       55.80490000      51.81760000      50.78020000
C       51.81610000      50.77900000      55.80560000
C       50.77830000      55.80520000      51.81750000
C       44.19470000      48.18240000      50.77750000
C       55.80540000      48.18270000      49.22250000
C       44.19500000      51.81730000      49.21980000
C       48.18120000      49.22120000      55.80470000
C       51.81880000      49.22110000      44.19530000
C       48.18390000      50.77880000      44.19440000
C       49.22090000      44.19490000      51.81730000
C       50.77940000      44.19490000      48.18280000
C       49.22140000      55.80510000      48.18230000
