240
Lattice="100.0 0.0 0.0 0.0 100.0 0.0 0.0 0.0 100.0" Properties=species:S:1:pos:R:3 name=C-53965-5632-1003 pressure=-60.5278063965928 spacegroup=C1 times_found=1 energy=-1751.56237544984 pbc="T T T"
C       51.62400000      54.79200000      55.05310000
C       54.40340000      54.72680000      52.17820000
C       55.12110000      51.77110000      54.65150000
C       52.12040000      45.59800000      45.11450000
C       47.87840000      54.36800000      45.17400000
C       48.04580000      45.75310000      54.57930000
C       54.46980000      44.76350000      48.16240000
C       45.50280000      55.20460000      48.20950000
C       45.47940000      44.85590000      51.81390000
C       54.98960000      48.41260000      45.28140000
C       45.02610000      51.54450000      45.30010000
C       44.88690000      48.25300000      54.98620000
C       47.89400000      54.61070000      54.77050000
C       45.48880000      55.30360000      51.76240000
C       44.87380000      51.89330000      54.96770000
C       48.43350000      45.55910000      44.93710000
C       51.55570000      54.36080000      45.03760000
C       51.92990000      45.71360000      54.52410000
C       45.21900000      44.72810000      48.24860000
C       54.61510000      54.98210000      48.44850000
C       54.44320000      44.72850000      51.69470000
C       45.35690000      47.81580000      45.55340000
C       54.65670000      52.11750000      45.60670000
C       55.16250000      48.19440000      54.84230000
C       57.01770000      50.52920000      51.61490000
C       50.69460000      51.64750000      56.85170000
C       51.52310000      57.00240000      50.77110000
C       56.64360000      49.24350000      48.53630000
C       43.53470000      50.66080000      48.61300000
C       43.46730000      49.31320000      51.66380000
C       50.87720000      48.48090000      42.72220000
C       49.12720000      51.50790000      42.74470000
C       49.29070000      48.57220000      56.89940000
C       51.47410000      42.63560000      49.16450000
C       48.47820000      57.34460000      49.22730000
C       48.41110000      42.78600000      50.56060000
C       43.51280000      50.76090000      51.63220000
C       49.24800000      51.66740000      56.95490000
C       48.45010000      57.42310000      50.67950000
C       43.41230000      49.21800000      48.61290000
C       56.78600000      50.69220000      48.54200000
C       56.83310000      49.09090000      51.55820000
C       49.42010000      48.42340000      42.69390000
C       50.58410000      51.56410000      42.71660000
C       50.73510000      48.58800000      56.83990000
C       48.42260000      42.88110000      49.10050000
C       51.50440000      56.87570000      49.31490000
C       51.48040000      42.59540000      50.62420000
C       54.12660000      51.00450000      43.40130000
C       50.67210000      43.62510000      54.01670000
C       43.69350000      54.17520000      50.73620000
C       54.22480000      49.42460000      56.72350000
C       45.74020000      50.80640000      56.94840000
C       45.87820000      48.97530000      43.37870000
C       50.61820000      56.32140000      45.85290000
C       49.38370000      43.60060000      45.72040000
C       49.09170000      56.74310000      54.16760000
C       43.38850000      45.74410000      49.50270000
C       56.56950000      54.16890000      49.57110000
C       56.31610000      45.73420000      50.67810000
C       45.73290000      50.39910000      43.31760000
C       49.25220000      43.64920000      54.01170000
C       56.53190000      54.06820000      50.99680000
C       45.75720000      49.36470000      56.94750000
C       54.17860000      50.86210000      56.60870000
C       54.27350000      49.58290000      43.31320000
C       49.19690000      56.44230000      45.82830000
C       50.80770000      43.51270000      45.73950000
C       50.51920000      56.76080000      54.25580000
C       56.31610000      45.77260000      49.23990000
C       43.70150000      54.12940000      49.29870000
C       43.52660000      45.81410000      50.93440000
C       45.65560000      54.19010000      47.14520000
C       54.26460000      47.40380000      44.71920000
C       47.00370000      45.34800000      53.58470000
C       45.65940000      45.83280000      52.89490000
C       54.70370000      53.63080000      53.18340000
C       54.34840000      45.77050000      47.09440000
C       54.17160000      52.87440000      54.50860000
C       45.75860000      47.26840000      55.36530000
C       45.73440000      52.56570000      44.73910000
C       46.91830000      54.71480000      46.30730000
C       53.07540000      45.25290000      46.25040000
C       52.63510000      55.26490000      54.26980000
C       55.09650000      54.19800000      47.44110000
C       46.43740000      46.83240000      45.23710000
C       52.96710000      45.26470000      53.52290000
C       54.31150000      45.72520000      52.77820000
C       45.63440000      54.35010000      52.88350000
C       44.83320000      45.64170000      47.30840000
C       45.72230000      52.88980000      55.36410000
C       54.24720000      47.25660000      55.22740000
C       53.54900000      53.08330000      45.32490000
C       52.70320000      54.33080000      45.92560000
C       47.26380000      45.54760000      45.80520000
C       46.90590000      54.92410000      53.67570000
C       44.47030000      44.75190000      50.89080000
C       44.94730000      50.34380000      44.52890000
C       51.01420000      44.70440000      44.97160000
C       44.57160000      55.24360000      49.22900000
C       55.39640000      44.70030000      49.18110000
C       55.33770000      54.85970000      51.11100000
C       44.75340000      49.33270000      55.90330000
C       55.21220000      50.81800000      55.63490000
C       55.06330000      49.61940000      44.52240000
C       50.44770000      55.59410000      55.10070000
C       49.22890000      44.95160000      54.61390000
C       48.99080000      55.25630000      45.04710000
C       55.39000000      44.66480000      50.68840000
C       54.85150000      51.08710000      44.64050000
C       49.52410000      44.73210000      44.87550000
C       55.41350000      55.03120000      49.63010000
C       44.34800000      44.67820000      49.39650000
C       44.56460000      55.29080000      50.73620000
C       55.26230000      49.32320000      55.73160000
C       44.74120000      50.81950000      55.89840000
C       45.15560000      48.87150000      44.61600000
C       48.96810000      55.53490000      54.93400000
C       50.73510000      44.93100000      54.60960000
C       50.47900000      55.20380000      44.98830000
C       43.55490000      51.86610000      50.82200000
C       51.77910000      50.84120000      42.73630000
C       50.66690000      42.76460000      51.73170000
C       43.26370000      48.13340000      49.45340000
C       56.97460000      51.77010000      49.39180000
C       56.63670000      48.01440000      50.73460000
C       51.84250000      49.41420000      56.95120000
C       48.15500000      50.84490000      57.16050000
C       48.22460000      49.14530000      42.72230000
C       50.74580000      56.86250000      48.15870000
C       49.22410000      42.99040000      47.98900000
C       49.23030000      57.33130000      51.81840000
C       57.03150000      51.68900000      50.85600000
C       48.07660000      50.61050000      42.71290000
C       49.21190000      42.83060000      51.69990000
C       56.58090000      48.07880000      49.27110000
C       43.57130000      51.81600000      49.35550000
C       43.37570000      48.16240000      50.92040000
C       48.17720000      49.36540000      57.13910000
C       51.84010000      50.88580000      56.86860000
C       51.92840000      49.37780000      42.70460000
C       49.29660000      57.09840000      48.13660000
C       50.68310000      42.84200000      48.03940000
C       50.69380000      57.21040000      51.86630000
C       51.79060000      53.49430000      55.59210000
C       53.29590000      55.69160000      52.01140000
C       55.95180000      51.62920000      53.53730000
C       52.05670000      46.69460000      44.11770000
C       47.94650000      53.28000000      44.16300000
C       48.10220000      46.80720000      55.58040000
C       53.39870000      43.85760000      48.16790000
C       46.56160000      56.12540000      48.21160000
C       46.57700000      44.00440000      51.66640000
C       55.44150000      48.20400000      46.60780000
C       44.61580000      51.73820000      46.64270000
C       44.48330000      48.17510000      53.62290000
C       48.03000000      53.48830000      55.70950000
C       46.53720000      56.23540000      51.71850000
C       44.50100000      51.95550000      53.59000000
C       48.44510000      46.59300000      44.01580000
C       51.55420000      53.35710000      44.08520000
C       51.88900000      46.80480000      55.48810000
C       46.53210000      44.17750000      48.04760000
C       53.31870000      55.52500000      48.26240000
C       53.36260000      43.83440000      51.65940000
C       44.49260000      47.96760000      46.72220000
C       55.57330000      51.95480000      46.74110000
C       55.64050000      48.01340000      53.50250000
C       48.55770000      43.40910000      52.85560000
C       43.97100000      52.97790000      48.59600000
C       53.15170000      48.77070000      43.15000000
C       48.54240000      56.62880000      46.99970000
C       51.44640000      43.33580000      46.92250000
C       51.30360000      56.81870000      53.09980000
C       43.80150000      46.97760000      51.62800000
C       56.60800000      52.84900000      51.60050000
C       56.09950000      46.93250000      48.52880000
C       53.01910000      51.57420000      56.37190000
C       46.96060000      48.67190000      56.85270000
C       46.85430000      51.21360000      43.16520000
C       51.36110000      43.33780000      52.87170000
C       56.62740000      53.01710000      48.78320000
C       47.10710000      48.39230000      43.25380000
C       51.38330000      56.22760000      47.00890000
C       48.57610000      43.63110000      46.84820000
C       48.47370000      56.86910000      52.96170000
C       56.13750000      46.85750000      51.44650000
C       43.94400000      53.06920000      51.51680000
C       43.46550000      46.91020000      48.76160000
C       46.92840000      51.52210000      56.87320000
C       53.04130000      48.70860000      56.65550000
C       52.89540000      51.58320000      43.28700000
C       46.88450000      52.71400000      56.05200000
C       52.56080000      55.32960000      47.04070000
C       55.31270000      46.84130000      52.67580000
C       47.23650000      47.26800000      44.09820000
C       52.76090000      52.67870000      44.16540000
C       53.06790000      47.50450000      55.86080000
C       52.55680000      44.08260000      52.77670000
C       47.30400000      56.07730000      52.87720000
C       47.36000000      44.48840000      46.87570000
C       55.84870000      53.07230000      47.57520000
C       44.19490000      46.82850000      47.52030000
C       44.73500000      53.15550000      52.76160000
C       53.02260000      52.74100000      55.45590000
C       47.33740000      55.89040000      47.07100000
C       44.69560000      46.96890000      52.80940000
C       53.18210000      47.54130000      43.91110000
C       46.82150000      52.43730000      43.93660000
C       46.93420000      47.49590000      56.01090000
C       47.39310000      44.19150000      52.78490000
C       52.49440000      56.01230000      53.14040000
C       52.64270000      44.08520000      47.01480000
C       44.78170000      52.99580000      47.36200000
C       55.26210000      46.94260000      47.31280000
C       55.81580000      52.78750000      52.76610000
C       52.87430000      43.04320000      50.63120000
C       43.98170000      50.80100000      53.00610000
C       50.50350000      52.88540000      43.33340000
C       52.77690000      56.19440000      49.34890000
C       47.08600000      43.44290000      49.09190000
C       47.04840000      56.98300000      50.66940000
C       43.97030000      49.16170000      47.25020000
C       56.14900000      50.76180000      47.21660000
C       56.36390000      49.05390000      52.93310000
C       50.73910000      47.30680000      56.11630000
C       49.21210000      52.98480000      56.29100000
C       49.50110000      47.09160000      43.28880000
C       47.05360000      43.32590000      50.55400000
C       56.55830000      50.50170000      53.00810000
C       49.05330000      52.82670000      43.41100000
C       47.07240000      56.92290000      49.22170000
C       52.87360000      43.07040000      49.17890000
C       52.81160000      56.28710000      50.82210000
C       56.05010000      49.29020000      47.21860000
C       44.06100000      50.63270000      47.26530000
C       43.95800000      49.32120000      53.03180000
C       49.27300000      47.29720000      56.16400000
C       50.68160000      52.94890000      56.21870000
C       50.95130000      47.15290000      43.36830000
