240
Lattice="100.0 0.0 0.0 0.0 100.0 0.0 0.0 0.0 100.0" Properties=species:S:1:pos:R:3 name=C-53965-5632-746 pressure=-33.8121173396824 energy=-1756.67331534371 spacegroup=C1 times_found=1 pbc="T T T"
C       48.24120000      49.12230000      57.28130000
C       57.30570000      48.37770000      49.38580000
C       49.14700000      57.19000000      48.43020000
C       48.38170000      51.02230000      43.01750000
C       51.72590000      50.89180000      57.19070000
C       51.93770000      49.25830000      42.79020000
C       56.98540000      51.75500000      50.75810000
C       42.93560000      51.68570000      49.35860000
C       42.80740000      48.37610000      50.59220000
C       49.40240000      42.66120000      51.67620000
C       50.55750000      42.43300000      48.34370000
C       50.75520000      57.25390000      51.61620000
C       51.59100000      49.42940000      56.98550000
C       42.72850000      48.39040000      49.13350000
C       50.57420000      57.02320000      48.34200000
C       52.06950000      50.73030000      42.76190000
C       48.31470000      50.55830000      57.35420000
C       48.43010000      49.53240000      42.95440000
C       42.88540000      51.68850000      50.79950000
C       56.98200000      51.72440000      49.29420000
C       57.32340000      48.41030000      50.83300000
C       50.87680000      42.63490000      51.76390000
C       49.06510000      42.41080000      48.27220000
C       49.29830000      57.18170000      51.68820000
C       56.91580000      49.34060000      48.28850000
C       48.11390000      56.77720000      49.43460000
C       49.28310000      48.14580000      56.86760000
C       57.03570000      50.69340000      51.61150000
C       43.06840000      50.64380000      48.50130000
C       43.09170000      49.40550000      51.43340000
C       48.75570000      42.09680000      50.61610000
C       51.21810000      42.10740000      49.48890000
C       51.71900000      56.73590000      50.63310000
C       49.65230000      51.60070000      42.79490000
C       50.61690000      51.56240000      57.70870000
C       50.73370000      48.70560000      42.37010000
C       43.19650000      49.39190000      48.15790000
C       51.64440000      56.60530000      49.24940000
C       50.47870000      48.66520000      57.03310000
C       43.29570000      50.64990000      51.77730000
C       57.03910000      50.63280000      48.48500000
C       56.92340000      49.41530000      51.89190000
C       51.60480000      42.17230000      50.65110000
C       48.40130000      42.02810000      49.44330000
C       48.41330000      56.89240000      50.70010000
C       50.86730000      51.48100000      42.72050000
C       49.45010000      51.17430000      57.77530000
C       49.53860000      48.91530000      42.42970000
C       45.32540000      52.64390000      44.27960000
C       44.18110000      45.53640000      52.29100000
C       52.51880000      44.18260000      45.85940000
C       46.02810000      47.42550000      55.27810000
C       53.87010000      47.33720000      45.28500000
C       54.57810000      52.65640000      55.81980000
C       44.72780000      54.18030000      47.37240000
C       55.07170000      54.16080000      52.72940000
C       55.42860000      46.04430000      47.72940000
C       52.70110000      55.74620000      54.01790000
C       47.01150000      55.88390000      46.05500000
C       47.33890000      45.05530000      53.64120000
C       55.01520000      52.40920000      44.05910000
C       55.60260000      46.07770000      52.69420000
C       47.42920000      44.15970000      45.53940000
C       53.99000000      47.37020000      55.04380000
C       46.23310000      47.39850000      45.07530000
C       46.34740000      52.55900000      54.92580000
C       54.98160000      53.97680000      47.19940000
C       44.69770000      53.93810000      52.61020000
C       44.39910000      46.04350000      47.28520000
C       47.67080000      55.75150000      54.50880000
C       52.22280000      55.14720000      45.81740000
C       52.52180000      44.24830000      54.53510000
C       55.84900000      53.97430000      50.64560000
C       50.80840000      56.93280000      54.08870000
C       53.98150000      50.65770000      56.36240000
C       56.78080000      45.92320000      49.48720000
C       43.11270000      45.90880000      50.47350000
C       43.73800000      54.06870000      49.35290000
C       50.65290000      43.12970000      46.06930000
C       49.24380000      43.97850000      53.70390000
C       49.04460000      56.89370000      45.96520000
C       54.06100000      49.11790000      43.98420000
C       45.96450000      49.39370000      56.37080000
C       46.13060000      50.67220000      43.77340000
C       43.54510000      54.09160000      50.69990000
C       49.45160000      56.88150000      54.14540000
C       46.17610000      50.71630000      56.10120000
C       43.10660000      45.93980000      49.10950000
C       56.82690000      45.95500000      50.84220000
C       55.81560000      53.92810000      49.28870000
C       49.28160000      43.12110000      46.00330000
C       50.53750000      43.61810000      53.92280000
C       50.38230000      56.57710000      45.89290000
C       46.33160000      49.36810000      44.10520000
C       53.85920000      49.35010000      56.02520000
C       54.37090000      50.36680000      43.52040000
C       45.59070000      51.34000000      54.94110000
C       55.76740000      45.33030000      51.50860000
C       50.87490000      55.39230000      45.19780000
C       45.55570000      48.66360000      45.08380000
C       54.64630000      48.65570000      55.02880000
C       55.36480000      51.04650000      44.22670000
C       54.81720000      54.57130000      48.49470000
C       44.53550000      54.71850000      51.43260000
C       44.13300000      45.26470000      48.43220000
C       51.16600000      44.30180000      54.93590000
C       48.72560000      43.97290000      45.04690000
C       48.94940000      55.93690000      55.05450000
C       55.00820000      51.31310000      55.73160000
C       44.01340000      44.98330000      51.01340000
C       48.17900000      56.05520000      45.28160000
C       54.65710000      48.52830000      45.15370000
C       45.32910000      48.65820000      55.37880000
C       45.04090000      51.27010000      44.37630000
C       44.80660000      54.79260000      48.68460000
C       54.89330000      54.70330000      51.40920000
C       55.66220000      45.29360000      48.90580000
C       48.55700000      45.03760000      54.39760000
C       51.30910000      43.97530000      45.17790000
C       51.52380000      55.92910000      54.77260000
C       50.70870000      45.52890000      55.53710000
C       55.82900000      50.68700000      45.54980000
C       45.66390000      55.46080000      51.01070000
C       49.92400000      54.66340000      44.47120000
C       49.59740000      54.69880000      55.60230000
C       49.32780000      45.19630000      44.44990000
C       55.58260000      49.41020000      54.15810000
C       44.55590000      49.38390000      45.92280000
C       44.69240000      50.58180000      53.99160000
C       45.28020000      44.50720000      48.92560000
C       54.58440000      44.63060000      51.02700000
C       53.81480000      55.34470000      49.18230000
C       49.27180000      45.89820000      55.39570000
C       44.40160000      50.83010000      45.58300000
C       53.88700000      55.44970000      50.66820000
C       48.54180000      54.87990000      44.52790000
C       51.08680000      54.74860000      55.50530000
C       50.77210000      45.18830000      44.50160000
C       44.64770000      49.07500000      54.21520000
C       55.61730000      49.26860000      46.00670000
C       55.66040000      50.87770000      54.51160000
C       54.51330000      44.61640000      49.47640000
C       45.26350000      44.41780000      50.40040000
C       45.81600000      55.56590000      49.48440000
C       47.50960000      48.72170000      43.65630000
C       42.88490000      47.17700000      48.47710000
C       48.43630000      42.95450000      47.16420000
C       47.38300000      51.33540000      56.59550000
C       53.32780000      51.26050000      43.03700000
C       52.66620000      48.71530000      56.40830000
C       43.16040000      52.90200000      51.40260000
C       56.42320000      52.82810000      48.63650000
C       57.13010000      47.18610000      51.49030000
C       48.66170000      56.98990000      52.93850000
C       51.11540000      56.74250000      47.06440000
C       51.45190000      43.23240000      52.85780000
C       52.84640000      48.50650000      43.55250000
C       57.07030000      47.12800000      48.78820000
C       51.34180000      42.98950000      47.32540000
C       52.86130000      51.51650000      56.71980000
C       47.17880000      51.61530000      43.42760000
C       47.03940000      48.59270000      56.86790000
C       56.45290000      52.90000000      51.36190000
C       43.33520000      52.87580000      48.68670000
C       43.01830000      47.13530000      51.24970000
C       51.42290000      57.17960000      52.84590000
C       48.43870000      57.16700000      47.22410000
C       48.63500000      43.50490000      52.51540000
C       44.07460000      52.15160000      46.23710000
C       46.15370000      44.31160000      51.64450000
C       51.97450000      46.08480000      44.47620000
C       44.50040000      47.68480000      53.46930000
C       56.21870000      48.61810000      47.17790000
C       55.87360000      52.20930000      53.85860000
C       46.89520000      56.24920000      48.77030000
C       52.87510000      56.19060000      51.34430000
C       53.59400000      44.50410000      48.07700000
C       52.45790000      53.96070000      55.58650000
C       47.24550000      54.11890000      44.46930000
C       48.61350000      47.00520000      56.08950000
C       55.95310000      52.04890000      46.17240000
C       53.81080000      44.51070000      52.41110000
C       48.14990000      46.12530000      44.33400000
C       56.26200000      48.72400000      53.05020000
C       43.85270000      48.70490000      46.99140000
C       44.01520000      51.30220000      52.92500000
C       52.69040000      55.91340000      48.49100000
C       46.45880000      55.51780000      52.37400000
C       46.13840000      44.42620000      47.62280000
C       48.33660000      53.76950000      55.71090000
C       52.95460000      53.61700000      44.01530000
C       52.00990000      46.21800000      55.75900000
C       53.21960000      54.31380000      45.21030000
C       46.35180000      53.82260000      54.33270000
C       54.50220000      45.51720000      53.29330000
C       53.00830000      45.37510000      55.11720000
C       47.10970000      45.37550000      45.02430000
C       47.35660000      54.51990000      54.96730000
C       46.12000000      46.10970000      45.63130000
C       54.03600000      46.06660000      54.49220000
C       55.32260000      53.00070000      45.25300000
C       54.49440000      53.97830000      45.86790000
C       45.82060000      54.43710000      53.20580000
C       45.54490000      45.51230000      46.75390000
C       46.37100000      54.79790000      45.47600000
C       55.18020000      53.17360000      54.71540000
C       45.38300000      45.03050000      52.64380000
C       46.07390000      45.64610000      53.66550000
C       52.87800000      45.39030000      45.36990000
C       53.32530000      54.65490000      54.58340000
C       53.80560000      46.14060000      46.02850000
C       45.50750000      46.81380000      54.16600000
C       44.68420000      53.15010000      45.37490000
C       45.23290000      54.24170000      46.05270000
C       54.52730000      54.19370000      54.03490000
C       54.25020000      45.57560000      47.23000000
C       43.92280000      52.93810000      47.42700000
C       47.38250000      44.17510000      52.41140000
C       52.73280000      47.30010000      44.30780000
C       43.78460000      46.94100000      52.47290000
C       56.25190000      47.22630000      47.61630000
C       55.95490000      52.98920000      52.66480000
C       47.15830000      56.49600000      47.35130000
C       52.64160000      56.43440000      52.76190000
C       52.60840000      43.77480000      47.27960000
C       53.15520000      52.85240000      56.18480000
C       46.70850000      52.93300000      43.90190000
C       47.20180000      47.39430000      56.10050000
C       55.92410000      52.84640000      47.33710000
C       52.74630000      43.85740000      53.12780000
C       47.48270000      47.41120000      44.23590000
C       56.35730000      47.30970000      52.69390000
C       43.69320000      47.29600000      47.29320000
C       43.92890000      52.73090000      52.60330000
C       52.26280000      55.90720000      47.07690000
C       47.45380000      56.20900000      53.13010000
C       47.18740000      43.73060000      46.92870000
C       47.53700000      52.54280000      55.86930000
C       53.70140000      52.58840000      43.48730000
C       52.74370000      47.43280000      55.85080000
