240
Lattice="100.0 0.0 0.0 0.0 100.0 0.0 0.0 0.0 100.0" Properties=species:S:1:pos:R:3 name=C-53965-5632-436 pressure=0.000225380483180541 spacegroup=Th times_found=1 energy=-1663.38606601549 pbc="T T T"
C       51.88090000      47.03380000      45.18630000
C       47.03370000      45.18560000      51.87910000
C       45.18630000      51.87920000      47.03260000
C       48.11780000      47.03760000      54.81560000
C       48.12400000      52.96320000      45.18250000
C       51.87730000      52.96540000      54.81560000
C       52.96420000      45.18310000      48.12400000
C       52.96440000      54.81560000      51.87910000
C       47.03770000      54.81570000      48.11790000
C       54.81450000      51.87900000      52.96620000
C       54.81670000      48.11890000      47.03880000
C       45.18250000      48.12290000      52.96240000
C       51.88220000      52.96240000      45.18440000
C       47.03580000      54.81690000      51.87600000
C       45.18550000      48.12100000      47.03380000
C       48.11910000      52.96620000      54.81370000
C       48.12270000      47.03460000      45.18440000
C       51.87600000      47.03680000      54.81750000
C       52.96630000      54.81440000      48.12090000
C       52.96230000      45.18430000      51.88210000
C       47.03560000      45.18440000      48.12090000
C       54.81370000      48.12080000      52.96740000
C       54.81750000      51.87710000      47.03760000
C       45.18330000      51.88110000      52.96120000
C       55.01880000      47.04570000      47.95860000
C       47.04440000      47.95740000      55.01750000
C       47.95770000      55.01780000      47.04480000
C       44.98000000      47.04920000      52.04320000
C       44.98330000      52.95300000      47.95160000
C       55.01790000      52.95220000      52.04650000
C       52.95470000      47.95290000      44.98380000
C       52.95040000      52.04580000      55.01920000
C       47.05040000      52.04390000      44.97950000
C       52.04440000      55.01890000      52.95200000
C       52.04530000      44.98030000      47.05010000
C       47.95260000      44.98300000      52.95310000
C       55.02000000      52.95080000      47.95680000
C       47.04530000      52.04710000      55.01620000
C       47.95560000      44.98110000      47.04800000
C       44.98120000      52.95430000      52.04140000
C       44.98210000      47.04780000      47.95350000
C       55.01670000      47.04700000      52.04840000
C       52.95560000      52.04260000      44.98250000
C       52.94960000      47.95610000      55.02050000
C       47.04960000      47.95420000      44.98080000
C       52.04230000      44.98220000      52.95520000
C       52.04740000      55.01700000      47.04690000
C       47.95470000      55.01970000      52.94990000
C       54.34460000      45.69230000      48.01460000
C       45.69120000      48.01330000      54.34290000
C       48.01420000      54.34360000      45.69150000
C       45.65350000      45.69540000      51.98810000
C       45.65740000      54.30640000      48.00740000
C       54.34440000      54.30590000      51.98980000
C       54.30790000      48.00870000      45.65830000
C       54.30430000      51.98940000      54.34610000
C       45.69650000      51.98850000      45.65260000
C       51.98770000      54.34550000      54.30580000
C       51.99020000      45.65370000      45.69630000
C       48.00790000      45.65730000      54.30650000
C       54.34650000      54.30460000      48.01190000
C       45.69210000      51.99130000      54.34170000
C       48.01230000      45.65450000      45.69420000
C       45.65540000      54.30770000      51.98540000
C       45.65560000      45.69410000      48.01020000
C       54.34260000      45.69360000      51.99260000
C       54.30880000      51.98670000      45.65710000
C       54.30350000      48.01150000      54.34740000
C       45.69570000      48.01060000      45.65390000
C       51.98580000      45.65640000      54.30850000
C       51.99210000      54.34270000      45.69350000
C       48.00980000      54.34630000      54.30370000
C       51.46070000      56.46780000      49.28600000
C       56.46740000      49.28640000      51.46250000
C       49.28430000      51.46120000      56.46750000
C       48.54210000      56.46880000      50.70990000
C       48.54000000      43.53180000      49.28860000
C       51.45720000      43.53160000      50.71550000
C       43.53230000      49.28820000      48.53800000
C       43.53110000      50.71460000      51.45540000
C       56.46920000      50.71090000      48.54410000
C       50.71630000      51.45670000      43.53160000
C       50.70910000      48.54300000      56.46910000
C       49.29030000      48.53910000      43.53180000
C       51.45790000      43.53120000      49.29010000
C       56.46770000      50.71180000      51.46200000
C       49.28370000      48.54330000      56.46840000
C       48.53930000      43.53220000      50.71400000
C       48.54280000      56.46840000      49.28450000
C       51.46000000      56.46820000      50.71140000
C       43.53260000      50.71360000      48.53750000
C       43.53080000      49.28910000      51.45590000
C       56.46890000      49.28540000      48.54460000
C       50.71570000      48.53880000      43.53250000
C       50.70970000      51.46090000      56.46820000
C       49.29090000      51.45700000      43.53090000
C       43.58700000      45.74820000      50.69960000
C       45.75010000      50.70040000      43.58580000
C       50.70230000      43.58670000      45.74900000
C       56.41120000      45.74500000      49.30310000
C       56.41230000      54.25220000      50.70350000
C       43.58950000      54.25450000      49.29380000
C       54.25020000      50.70270000      56.41370000
C       54.25650000      49.29550000      43.59060000
C       45.74320000      49.30140000      56.40980000
C       49.29490000      43.58970000      54.25500000
C       49.30200000      56.41060000      45.74420000
C       50.70070000      56.41300000      54.25170000
C       43.58880000      54.25500000      50.69690000
C       45.74980000      49.29730000      43.58630000
C       50.70510000      56.41030000      45.74500000
C       56.41300000      54.25180000      49.30040000
C       56.41050000      45.74550000      50.70620000
C       43.58770000      45.74780000      49.29650000
C       54.24990000      49.29960000      56.41420000
C       54.25680000      50.69860000      43.59020000
C       45.74350000      50.70450000      56.40940000
C       49.29770000      56.41330000      54.25100000
C       49.29930000      43.58700000      45.74830000
C       50.69800000      43.58940000      54.25580000
C       44.51650000      49.27830000      52.53800000
C       49.27970000      52.53900000      44.51680000
C       52.53980000      44.51720000      49.27940000
C       55.48320000      49.27430000      47.46240000
C       55.48090000      50.72330000      52.54320000
C       44.51940000      50.72400000      47.45640000
C       50.72140000      52.54220000      55.48160000
C       50.72590000      47.45750000      44.51910000
C       49.27300000      47.46130000      55.48250000
C       47.45790000      44.51870000      50.72410000
C       47.46090000      55.48230000      49.27330000
C       52.54140000      55.48170000      50.72320000
C       44.51680000      50.72570000      52.53760000
C       49.27860000      47.45780000      44.51840000
C       52.54210000      55.48130000      49.27590000
C       55.48350000      50.72170000      47.46200000
C       55.48060000      49.27600000      52.54360000
C       44.51910000      49.27670000      47.45680000
C       50.72030000      47.46100000      55.48320000
C       50.72700000      52.53870000      44.51750000
C       49.27410000      52.54250000      55.48090000
C       47.46020000      55.48280000      50.72060000
C       47.45860000      44.51830000      49.27680000
C       52.53910000      44.51770000      50.72670000
C       52.99610000      48.65700000      56.23980000
C       48.65550000      56.23910000      52.99690000
C       56.23920000      52.99790000      48.65790000
C       47.00330000      48.65430000      43.76100000
C       46.99750000      51.34700000      56.23590000
C       53.00310000      51.34170000      43.76330000
C       51.34720000      56.23660000      46.99910000
C       51.34150000      43.76280000      53.00230000
C       48.65590000      43.76150000      47.00170000
C       43.76210000      53.00140000      51.34020000
C       43.76220000      47.00130000      48.65340000
C       56.23650000      46.99950000      51.34850000
C       52.99670000      51.34570000      56.23900000
C       48.65280000      43.76340000      53.00090000
C       56.23790000      46.99860000      48.65980000
C       47.00390000      51.34300000      43.76020000
C       46.99690000      48.65830000      56.23670000
C       53.00250000      48.65300000      43.76410000
C       51.34450000      43.76090000      47.00310000
C       51.34410000      56.23850000      52.99830000
C       48.65850000      56.23720000      46.99770000
C       43.76080000      47.00210000      51.34210000
C       43.76350000      53.00050000      48.65150000
C       56.23780000      52.99870000      51.34660000
C       43.22110000      51.83450000      50.72480000
C       51.83640000      50.72630000      43.22180000
C       50.72650000      43.22150000      51.83540000
C       56.77970000      51.83110000      49.27400000
C       56.77820000      48.16600000      50.73290000
C       43.22100000      48.16840000      49.26830000
C       48.16390000      50.73140000      56.77780000
C       48.17050000      49.26940000      43.22040000
C       51.82920000      49.27290000      56.78010000
C       49.27070000      43.22060000      48.16900000
C       49.27170000      56.77970000      51.83030000
C       50.73120000      56.77820000      48.16540000
C       43.22030000      48.16890000      50.72600000
C       51.83610000      49.26860000      43.22220000
C       50.72930000      56.77940000      51.83100000
C       56.77890000      48.16550000      49.27520000
C       56.77900000      51.83160000      50.73170000
C       43.22180000      51.83400000      49.26710000
C       48.16360000      49.27370000      56.77820000
C       48.17080000      50.72710000      43.21990000
C       51.82950000      50.73060000      56.77960000
C       49.27350000      56.77850000      48.16460000
C       49.26880000      43.22180000      51.83460000
C       50.72830000      43.22030000      48.16970000
C       45.41890000      53.63490000      54.63680000
C       53.63580000      54.63810000      45.42090000
C       54.63750000      45.42070000      53.63630000
C       54.58270000      53.63000000      45.36090000
C       54.57640000      46.36810000      54.64380000
C       45.42210000      46.36710000      45.35850000
C       46.36620000      54.64260000      54.57620000
C       46.36890000      45.35900000      45.42010000
C       53.62910000      45.36040000      54.58290000
C       45.36060000      45.42030000      46.36670000
C       45.35880000      54.58170000      53.62860000
C       54.64320000      54.57740000      46.36850000
C       45.41730000      46.37000000      54.63910000
C       53.63380000      45.35740000      45.42380000
C       54.63940000      54.57970000      53.63330000
C       54.58110000      46.36510000      45.36320000
C       54.57790000      53.63290000      54.64150000
C       45.42360000      53.63190000      45.35620000
C       46.36420000      45.36190000      54.57910000
C       46.37090000      54.63960000      45.41710000
C       53.63110000      54.64100000      54.57990000
C       45.36250000      54.57930000      46.36370000
C       45.35680000      45.42260000      53.63150000
C       54.64120000      45.41830000      46.37140000
C       49.26370000      55.12390000      45.07340000
C       55.12470000      45.07410000      49.26430000
C       45.07270000      49.26280000      55.12300000
C       50.73850000      55.12670000      54.92330000
C       50.74140000      44.87290000      45.07740000
C       49.25650000      44.87640000      54.92580000
C       44.87320000      45.07680000      50.73890000
C       44.87610000      54.92540000      49.25590000
C       55.12600000      54.92370000      50.74100000
C       54.92700000      49.25740000      44.87740000
C       54.92210000      50.74050000      55.12760000
C       45.07820000      50.73930000      44.87190000
C       49.26150000      44.87330000      45.07670000
C       55.12680000      54.92320000      49.26110000
C       45.07300000      50.74260000      55.12260000
C       50.73630000      44.87610000      54.92660000
C       50.74350000      55.12360000      45.07420000
C       49.25860000      55.12710000      54.92260000
C       44.87530000      54.92590000      50.73570000
C       44.87400000      45.07630000      49.25900000
C       55.12390000      45.07460000      50.74410000
C       54.92730000      50.73720000      44.87700000
C       54.92180000      49.26070000      55.12810000
C       45.07790000      49.25950000      44.87240000
