240
Lattice="100.0 0.0 0.0 0.0 100.0 0.0 0.0 0.0 100.0" Properties=species:S:1:pos:R:3 name=C-53965-5632-1485 pressure=58.5688296752204 spacegroup=C1 times_found=1 energy=-1764.63756460117 pbc="T T T"
C       45.14150000      44.26180000      49.19430000
C       49.59930000      45.37610000      44.42050000
C       44.52530000      48.95120000      45.48260000
C       45.41110000      55.23670000      50.57070000
C       54.59230000      55.39950000      49.03720000
C       54.45740000      44.52370000      50.98340000
C       49.34710000      54.90690000      55.97220000
C       50.72050000      54.89370000      44.46070000
C       50.42900000      45.44570000      55.30340000
C       44.59200000      50.92430000      54.58660000
C       55.92370000      50.66800000      45.02970000
C       55.59200000      49.53600000      54.62120000
C       54.62290000      44.42020000      49.55400000
C       51.03390000      45.52450000      44.51700000
C       55.74790000      49.22950000      45.14590000
C       54.63150000      55.31060000      50.48610000
C       45.44130000      55.29780000      49.12010000
C       45.01270000      44.10350000      50.63310000
C       50.78740000      54.89430000      55.94870000
C       49.25860000      54.84580000      44.49750000
C       48.98110000      45.47390000      55.38290000
C       55.53080000      50.96920000      54.47190000
C       44.41630000      50.38490000      45.34060000
C       44.62000000      49.47460000      54.64710000
C       50.77680000      43.70870000      47.15130000
C       47.21480000      50.67950000      43.87360000
C       43.48350000      47.02280000      50.84240000
C       50.75820000      56.19520000      52.94700000
C       49.27520000      56.74590000      47.13710000
C       49.01270000      43.50600000      52.85310000
C       47.12910000      49.45250000      56.56500000
C       53.01700000      49.48000000      43.40950000
C       52.89180000      50.80120000      56.28630000
C       43.49080000      52.74490000      49.15900000
C       56.61350000      52.84890000      50.47380000
C       56.22860000      47.16060000      49.30860000
C       49.32770000      43.77380000      47.15920000
C       52.99340000      50.91040000      43.55620000
C       56.28390000      47.15120000      50.75600000
C       49.30610000      56.18740000      52.96050000
C       50.70160000      56.76230000      47.12150000
C       50.44450000      43.45000000      52.85150000
C       52.81430000      49.35870000      56.18280000
C       47.21210000      49.23660000      43.76070000
C       47.14890000      50.88500000      56.53470000
C       56.54590000      52.86070000      49.04180000
C       43.44440000      52.77150000      50.59420000
C       43.35810000      46.96770000      49.40930000
C       48.28230000      55.48830000      53.72110000
C       53.51100000      48.35950000      55.41660000
C       55.77320000      53.55200000      47.97700000
C       48.34120000      44.51860000      46.42370000
C       51.41920000      44.23230000      53.52030000
C       51.67220000      56.00640000      46.38080000
C       53.75640000      51.87710000      44.32280000
C       46.47510000      51.94860000      55.76810000
C       46.53820000      48.09140000      44.42250000
C       55.55330000      46.50280000      51.87440000
C       44.10000000      46.26780000      48.40250000
C       44.21790000      53.45920000      51.57140000
C       51.80280000      55.50050000      53.68370000
C       46.42320000      48.47270000      55.80720000
C       44.27310000      53.41110000      48.09030000
C       51.91260000      44.41370000      46.49200000
C       47.94540000      44.28590000      53.52500000
C       48.31540000      55.95360000      46.42630000
C       46.45550000      51.65550000      44.61190000
C       53.59320000      51.90700000      55.59320000
C       53.72280000      48.45560000      44.11540000
C       44.27670000      46.29040000      51.80720000
C       55.48270000      46.43360000      48.31680000
C       55.85370000      53.52590000      51.46160000
C       50.80920000      53.80690000      56.91380000
C       56.68320000      50.88570000      53.58160000
C       53.63830000      56.33510000      50.65360000
C       50.96790000      46.42900000      43.37490000
C       49.12880000      46.39510000      56.49890000
C       49.26660000      53.70650000      43.62260000
C       56.65690000      49.17660000      46.25860000
C       43.56540000      49.33670000      53.68090000
C       43.29760000      50.44900000      46.26840000
C       53.65650000      43.33540000      49.46250000
C       46.12390000      43.17300000      50.61770000
C       46.33780000      56.43320000      49.26690000
C       49.33930000      53.82810000      56.94650000
C       43.46220000      50.79420000      53.67950000
C       46.38800000      56.27930000      50.71560000
C       49.51490000      46.35680000      43.34800000
C       50.58110000      46.43490000      56.33560000
C       50.74000000      53.76360000      43.57430000
C       43.34770000      48.99550000      46.34200000
C       56.68010000      49.42930000      53.65840000
C       56.85510000      50.63590000      46.13890000
C       46.25960000      43.35880000      49.15800000
C       53.56810000      43.36840000      50.91690000
C       53.67400000      56.51220000      49.20620000
C       53.49470000      45.31480000      53.14260000
C       52.97780000      54.19850000      45.51120000
C       45.29590000      53.12130000      53.66160000
C       53.70650000      54.81860000      46.77250000
C       45.98410000      54.32400000      52.91160000
C       45.92420000      45.49620000      47.08060000
C       52.74180000      46.02570000      54.33540000
C       47.25760000      45.75040000      44.73520000
C       47.11030000      54.31550000      55.39820000
C       45.26450000      46.74580000      46.38170000
C       55.18620000      47.21960000      54.20810000
C       55.41100000      52.93000000      45.60000000
C       45.57840000      44.65830000      52.87880000
C       47.08130000      54.07280000      45.63700000
C       54.79310000      53.15700000      53.54770000
C       46.33440000      54.69600000      46.87670000
C       54.09230000      54.36260000      52.81880000
C       54.24580000      44.75640000      47.21830000
C       46.74960000      46.38190000      54.72320000
C       53.24860000      46.41680000      45.25270000
C       53.00610000      54.29820000      55.32360000
C       54.50890000      47.10800000      45.90950000
C       45.51660000      47.12450000      54.06200000
C       44.70620000      52.72700000      45.76160000
C       52.65670000      44.21030000      52.87460000
C       52.95870000      53.08250000      44.56930000
C       44.20690000      52.81830000      52.81330000
C       52.87820000      55.92110000      47.09370000
C       47.08950000      55.26840000      52.90660000
C       47.07570000      44.61110000      47.12830000
C       52.73030000      47.14750000      55.25690000
C       47.30680000      46.93300000      44.09860000
C       47.18370000      53.15340000      56.06870000
C       44.14260000      46.99250000      47.20530000
C       55.86370000      47.25380000      53.04750000
C       56.06070000      52.83920000      46.77130000
C       46.74350000      43.99420000      52.80870000
C       47.16370000      52.91870000      44.75620000
C       55.88260000      52.87390000      52.69520000
C       47.12530000      55.83620000      47.16200000
C       52.98050000      55.29630000      52.84330000
C       53.07470000      44.09840000      47.25810000
C       47.07220000      47.23450000      55.80340000
C       52.98870000      47.26260000      44.15140000
C       52.91800000      53.11190000      55.95570000
C       55.39670000      47.14550000      47.05740000
C       44.53250000      47.11480000      52.98650000
C       44.00590000      52.66240000      46.90420000
C       49.28190000      57.45190000      50.84750000
C       50.76030000      49.28490000      57.56510000
C       57.76180000      50.67130000      49.13190000
C       49.17080000      42.39710000      49.21870000
C       50.57380000      42.20640000      50.71360000
C       50.72630000      57.72380000      49.38950000
C       50.77740000      50.92090000      42.47330000
C       49.32940000      50.76780000      57.77460000
C       49.33480000      49.42960000      42.42690000
C       57.68910000      49.22320000      50.61410000
C       42.19740000      49.12990000      49.36290000
C       42.21660000      50.63960000      50.75330000
C       50.73080000      57.46270000      50.83550000
C       49.29800000      49.31460000      57.73540000
C       42.19920000      50.59860000      49.30200000
C       50.61410000      42.33060000      49.24320000
C       49.12190000      42.26660000      50.68130000
C       49.26210000      57.71420000      49.40130000
C       49.31450000      50.86810000      42.56940000
C       50.79610000      50.72780000      57.65700000
C       50.80620000      49.47230000      42.31240000
C       42.28990000      49.17360000      50.81630000
C       57.61890000      49.21000000      49.17010000
C       57.82960000      50.69270000      50.58290000
C       54.60570000      52.04820000      54.57220000
C       54.85480000      54.46990000      51.54500000
C       51.82820000      55.00150000      54.99880000
C       54.74000000      48.30170000      45.04470000
C       45.44690000      48.39650000      54.83910000
C       45.17930000      51.55170000      45.15390000
C       54.86620000      45.18710000      48.40050000
C       44.84970000      44.99880000      51.73190000
C       45.30970000      54.42900000      47.99400000
C       52.09980000      45.41530000      45.45830000
C       47.85420000      45.33710000      54.51390000
C       48.25570000      54.98120000      45.43450000
C       45.48560000      52.03350000      54.71390000
C       45.20950000      54.40890000      51.64220000
C       48.28520000      55.00520000      55.04200000
C       45.48130000      47.89540000      45.39490000
C       54.77920000      48.40640000      54.83630000
C       55.05110000      51.78460000      44.87550000
C       45.04620000      45.26430000      48.26360000
C       54.53740000      45.48340000      52.03680000
C       54.73330000      54.55740000      47.89290000
C       48.43940000      45.13170000      45.17670000
C       51.48700000      45.24000000      54.45510000
C       51.75130000      55.05700000      45.36610000
C       48.30550000      51.44020000      43.31180000
C       42.99450000      48.20160000      51.51850000
C       51.37090000      42.97640000      48.28730000
C       48.21540000      48.68840000      57.17220000
C       51.88110000      48.77280000      42.81040000
C       51.80820000      51.44020000      57.05070000
C       42.82110000      51.58570000      48.54900000
C       57.26340000      51.76760000      51.22760000
C       56.86310000      48.22800000      48.56070000
C       51.43270000      56.75000000      51.78770000
C       48.56570000      57.23990000      48.30670000
C       48.39440000      42.83660000      51.71250000
C       51.81210000      51.59250000      43.10740000
C       57.02870000      48.27120000      51.36310000
C       48.57070000      43.14830000      48.22740000
C       51.69650000      48.64570000      56.77330000
C       48.36230000      48.65890000      43.03190000
C       48.29320000      51.50360000      57.21560000
C       57.19850000      51.71420000      48.41510000
C       42.80860000      51.70820000      51.37010000
C       42.74550000      48.07520000      48.67740000
C       48.60470000      56.73090000      51.81200000
C       51.41640000      57.26590000      48.28300000
C       51.20930000      42.79140000      51.78500000
C       52.57380000      43.25890000      51.84410000
C       51.79770000      52.89670000      43.67650000
C       43.29400000      51.75530000      52.72420000
C       52.76250000      56.75830000      48.22690000
C       47.27660000      56.18540000      51.76630000
C       47.22640000      43.62490000      48.21080000
C       51.62520000      47.32790000      56.21060000
C       48.45630000      47.26110000      43.29970000
C       48.32340000      52.88820000      56.91770000
C       43.21580000      48.04640000      47.31130000
C       56.71600000      48.37290000      52.75110000
C       56.87670000      51.68190000      47.04230000
C       47.02070000      43.15740000      51.66860000
C       48.28190000      52.76630000      43.82300000
C       56.80960000      51.82290000      52.59680000
C       47.23240000      56.69450000      48.27760000
C       52.76570000      56.22060000      51.71470000
C       52.76010000      43.27910000      48.39630000
C       48.15940000      47.33600000      56.68860000
C       51.91690000      47.39730000      43.24900000
C       51.80010000      52.83980000      56.82140000
C       56.38820000      48.22230000      47.21620000
C       43.60930000      48.26360000      52.81750000
C       43.18940000      51.50200000      47.17250000
