240
Lattice="100.0 0.0 0.0 0.0 100.0 0.0 0.0 0.0 100.0" Properties=species:S:1:pos:R:3 name=C-53965-5632-1195 pressure=-65.7612845547926 spacegroup=Th times_found=1 energy=-1733.65662868532 pbc="T T T"
C       51.45050000      51.49190000      43.51110000
C       51.49100000      43.51060000      51.44930000
C       43.51070000      51.44980000      51.49080000
C       48.55000000      48.51020000      43.51050000
C       51.45010000      48.50820000      56.48900000
C       48.54940000      51.48980000      56.48940000
C       48.50890000      56.48890000      51.45120000
C       51.49060000      56.48950000      48.55080000
C       48.50950000      43.51100000      48.54870000
C       56.48920000      48.54970000      51.49080000
C       43.51090000      48.54970000      48.50880000
C       56.48920000      51.45070000      48.50960000
C       51.45000000      51.48980000      56.48950000
C       51.49110000      43.51110000      48.54880000
C       43.51080000      51.45030000      48.50920000
C       48.54950000      48.50810000      56.48890000
C       51.45060000      48.51030000      43.51060000
C       48.54990000      51.49180000      43.51100000
C       48.50900000      56.48940000      48.55070000
C       51.49050000      56.48900000      51.45130000
C       48.50940000      43.51050000      51.44920000
C       56.48930000      48.55010000      48.50920000
C       43.51080000      48.54930000      51.49040000
C       56.48910000      51.45030000      51.49120000
C       49.28610000      56.17380000      52.65990000
C       56.17420000      52.65930000      49.28700000
C       52.65880000      49.28560000      56.17420000
C       50.71370000      43.82540000      52.65800000
C       49.28670000      43.82620000      47.34000000
C       50.71350000      56.17470000      47.34200000
C       43.82590000      47.34090000      49.28580000
C       56.17430000      47.34110000      50.71340000
C       43.82560000      52.65870000      50.71380000
C       47.34080000      50.71250000      56.17430000
C       52.65920000      50.71460000      43.82600000
C       47.34130000      49.28730000      43.82560000
C       49.28630000      56.17460000      47.34190000
C       56.17410000      52.65910000      50.71420000
C       52.65920000      49.28750000      43.82580000
C       50.71390000      43.82620000      47.34010000
C       49.28650000      43.82530000      52.65800000
C       50.71330000      56.17380000      52.65990000
C       43.82580000      47.34070000      50.71300000
C       56.17440000      47.34130000      49.28620000
C       43.82570000      52.65890000      49.28660000
C       47.34120000      50.71450000      43.82580000
C       52.65880000      50.71270000      56.17440000
C       47.34080000      49.28540000      56.17400000
C       50.72890000      42.63180000      50.70470000
C       42.63180000      50.70550000      50.72860000
C       50.70600000      50.72990000      42.63200000
C       49.27100000      57.36800000      50.70690000
C       50.72850000      57.36830000      49.29530000
C       49.27150000      42.63200000      49.29300000
C       57.36810000      49.29430000      50.72890000
C       42.63190000      49.29410000      49.27090000
C       57.36810000      50.70620000      49.27160000
C       49.29450000      49.27240000      42.63170000
C       50.70560000      49.27020000      57.36800000
C       49.29390000      50.72760000      57.36820000
C       50.72900000      42.63200000      49.29310000
C       42.63190000      50.70570000      49.27120000
C       50.70560000      50.72760000      57.36830000
C       49.27110000      57.36820000      49.29530000
C       50.72840000      57.36800000      50.70700000
C       49.27150000      42.63170000      50.70470000
C       57.36820000      49.29450000      49.27140000
C       42.63190000      49.29380000      50.72840000
C       57.36810000      50.70590000      50.72910000
C       49.29400000      49.27010000      57.36800000
C       50.70610000      49.27250000      42.63180000
C       49.29440000      50.72990000      42.63200000
C       52.55430000      43.63400000      54.32440000
C       43.63440000      54.32460000      52.55470000
C       54.32540000      52.55540000      43.63520000
C       47.44540000      56.36460000      54.32620000
C       52.55420000      56.36610000      45.67580000
C       47.44610000      43.63520000      45.67360000
C       56.36540000      45.67460000      52.55380000
C       43.63490000      45.67490000      47.44490000
C       56.36530000      54.32590000      47.44670000
C       45.67500000      47.44670000      43.63410000
C       54.32510000      47.44490000      56.36510000
C       45.67440000      52.55310000      56.36570000
C       52.55460000      43.63540000      45.67380000
C       43.63450000      54.32550000      47.44620000
C       54.32500000      52.55340000      56.36590000
C       47.44570000      56.36600000      45.67560000
C       52.55390000      56.36480000      54.32630000
C       47.44580000      43.63380000      54.32420000
C       56.36560000      45.67540000      47.44530000
C       43.63470000      45.67410000      52.55330000
C       56.36510000      54.32510000      52.55510000
C       45.67460000      47.44460000      56.36480000
C       54.32550000      47.44690000      43.63440000
C       45.67480000      52.55510000      43.63490000
C       50.68450000      54.79140000      45.30440000
C       54.79080000      45.30370000      50.68390000
C       45.30350000      50.68360000      54.79060000
C       49.31580000      45.21010000      45.30290000
C       50.68450000      45.20860000      54.69560000
C       49.31520000      54.78990000      54.69700000
C       45.20920000      54.69610000      50.68510000
C       54.79050000      54.69660000      49.31640000
C       45.20950000      45.30360000      49.31460000
C       54.69620000      49.31490000      54.79070000
C       45.30390000      49.31610000      45.20910000
C       54.69650000      50.68540000      45.20960000
C       50.68420000      54.78990000      54.69710000
C       54.79080000      45.30390000      49.31490000
C       45.30380000      50.68510000      45.20930000
C       49.31550000      45.20860000      54.69560000
C       50.68480000      45.21010000      45.30290000
C       49.31550000      54.79140000      45.30440000
C       45.20920000      54.69630000      49.31610000
C       54.79050000      54.69640000      50.68540000
C       45.20950000      45.30340000      50.68360000
C       54.69650000      49.31640000      45.20940000
C       45.30350000      49.31460000      54.79040000
C       54.69620000      50.68390000      54.79090000
C       46.85950000      55.11520000      54.04100000
C       55.11600000      54.04100000      46.86060000
C       54.04020000      46.85910000      55.11560000
C       53.14030000      44.88350000      54.03960000
C       46.86010000      44.88460000      45.95880000
C       53.14020000      55.11670000      45.96060000
C       44.88430000      45.96000000      46.85900000
C       55.11600000      45.95940000      53.13980000
C       44.88380000      54.03960000      53.14070000
C       45.95940000      53.13930000      55.11640000
C       54.04040000      53.14120000      44.88470000
C       45.96000000      46.86050000      44.88340000
C       46.85970000      55.11650000      45.96040000
C       55.11570000      54.04000000      53.14100000
C       54.04060000      46.86070000      44.88370000
C       53.14050000      44.88470000      45.95900000
C       46.85980000      44.88330000      54.03940000
C       53.13990000      55.11550000      54.04120000
C       44.88410000      45.95900000      53.13940000
C       55.11620000      45.96030000      46.85930000
C       44.88400000      54.04060000      46.86020000
C       45.95980000      53.14090000      44.88440000
C       54.04000000      53.13960000      55.11660000
C       45.95960000      46.85880000      55.11530000
C       53.76960000      44.72440000      51.48600000
C       44.72430000      51.48600000      53.76950000
C       51.48680000      53.77030000      44.72510000
C       46.23030000      55.27520000      51.48740000
C       53.76930000      55.27590000      48.51420000
C       46.23080000      44.72460000      48.51230000
C       55.27540000      48.51280000      53.76940000
C       44.72470000      48.51370000      46.23020000
C       55.27560000      51.48750000      46.23100000
C       48.51360000      46.23140000      44.72390000
C       51.48670000      46.22980000      55.27500000
C       48.51300000      53.76860000      55.27600000
C       53.76970000      44.72480000      48.51260000
C       44.72460000      51.48720000      46.23060000
C       51.48640000      53.76870000      55.27610000
C       46.23040000      55.27560000      48.51400000
C       53.76920000      55.27540000      51.48770000
C       46.23070000      44.72410000      51.48580000
C       55.27570000      48.51400000      46.23050000
C       44.72440000      48.51250000      53.76900000
C       55.27530000      51.48630000      53.76980000
C       48.51320000      46.22970000      55.27490000
C       51.48700000      46.23140000      44.72400000
C       48.51330000      53.77020000      44.72500000
C       49.23790000      47.32330000      55.92640000
C       47.32410000      55.92690000      49.23890000
C       55.92700000      49.23860000      47.32440000
C       50.76170000      52.67480000      55.92730000
C       49.23820000      52.67660000      44.07350000
C       50.76220000      47.32530000      44.07280000
C       52.67590000      44.07330000      49.23720000
C       47.32450000      44.07290000      50.76090000
C       52.67550000      55.92680000      50.76290000
C       44.07320000      50.76220000      47.32420000
C       55.92670000      50.76170000      52.67600000
C       44.07310000      49.23750000      52.67540000
C       49.23830000      47.32520000      44.07270000
C       47.32410000      55.92670000      50.76280000
C       55.92680000      49.23780000      52.67580000
C       50.76210000      52.67670000      44.07360000
C       49.23780000      52.67480000      55.92720000
C       50.76180000      47.32340000      55.92650000
C       52.67590000      44.07310000      50.76110000
C       47.32450000      44.07320000      49.23700000
C       52.67550000      55.92710000      49.23900000
C       44.07300000      50.76140000      52.67560000
C       55.92690000      50.76260000      47.32460000
C       44.07330000      49.23830000      47.32400000
C       55.82990000      46.09020000      48.66520000
C       46.08970000      48.66450000      55.82940000
C       48.66550000      55.83030000      46.09070000
C       44.17020000      53.91020000      48.66600000
C       55.82950000      53.91010000      51.33520000
C       44.17040000      46.08940000      51.33360000
C       53.90990000      51.33360000      55.83010000
C       46.09000000      51.33520000      44.17040000
C       53.91040000      48.66660000      44.17020000
C       51.33470000      44.17090000      46.08900000
C       48.66560000      44.16960000      53.90920000
C       51.33410000      55.82920000      53.91110000
C       55.82980000      46.08980000      51.33400000
C       46.09010000      48.66640000      44.17000000
C       48.66530000      55.82910000      53.91100000
C       44.17010000      53.90980000      51.33480000
C       55.82960000      53.91050000      48.66640000
C       44.17050000      46.08990000      48.66480000
C       53.91030000      51.33550000      44.17060000
C       46.08960000      51.33340000      55.82980000
C       53.91000000      48.66480000      55.82970000
C       51.33450000      44.16970000      53.90930000
C       48.66590000      44.17090000      46.08890000
C       51.33440000      55.83040000      46.09080000
C       53.97430000      45.08550000      47.11740000
C       45.08490000      47.11720000      53.97340000
C       47.11810000      53.97460000      45.08550000
C       46.02590000      54.91540000      47.11860000
C       53.97370000      54.91470000      52.88290000
C       46.02610000      45.08440000      52.88110000
C       54.91480000      52.88150000      53.97460000
C       45.08500000      52.88240000      46.02630000
C       54.91530000      47.11880000      46.02570000
C       52.88230000      46.02690000      45.08440000
C       47.11800000      46.02510000      54.91430000
C       52.88170000      53.97330000      54.91570000
C       53.97410000      45.08460000      52.88140000
C       45.08520000      47.11850000      46.02540000
C       47.11770000      53.97310000      54.91560000
C       46.02580000      54.91450000      52.88260000
C       53.97390000      54.91560000      47.11890000
C       46.02630000      45.08530000      47.11710000
C       54.91510000      52.88280000      46.02660000
C       45.08470000      52.88120000      53.97430000
C       54.91500000      47.11750000      53.97370000
C       52.88200000      46.02530000      54.91450000
C       47.11830000      46.02670000      45.08420000
C       52.88200000      53.97490000      45.08570000
