240
Lattice="100.0 0.0 0.0 0.0 100.0 0.0 0.0 0.0 100.0" Properties=species:S:1:pos:R:3 name=C-53965-5632-750 pressure=-0.0187942149400139 energy=-1764.70613553624 spacegroup=C1 times_found=1 pbc="T T T"
C       49.45880000      46.26000000      43.28870000
C       43.34750000      48.97400000      46.32310000
C       46.24360000      43.34270000      49.16340000
C       50.65580000      46.44550000      56.28370000
C       49.45390000      53.83340000      56.78420000
C       50.81390000      53.70550000      43.52900000
C       56.89610000      49.24370000      53.69070000
C       43.50980000      50.83040000      53.65040000
C       56.39850000      50.77980000      46.34710000
C       53.56530000      43.31670000      50.86850000
C       46.33790000      56.36100000      50.64570000
C       53.74310000      56.78080000      49.53680000
C       49.36730000      53.60830000      43.69170000
C       43.31510000      50.42780000      46.24350000
C       46.33550000      56.45610000      49.18850000
C       50.91650000      53.74020000      56.60710000
C       49.20400000      46.43280000      56.44560000
C       50.91260000      46.32290000      43.30190000
C       56.92030000      50.71390000      53.70500000
C       43.61970000      49.37280000      53.65500000
C       56.39480000      49.30350000      46.33140000
C       53.66830000      56.73750000      50.99110000
C       46.12190000      43.17160000      50.62620000
C       53.64090000      43.29130000      49.41230000
C       48.30600000      44.47510000      46.40440000
C       46.51140000      48.03080000      44.37970000
C       44.09130000      46.25630000      48.39900000
C       51.45290000      44.19410000      53.50050000
C       48.22150000      55.69220000      53.69630000
C       51.94210000      55.75880000      46.57780000
C       53.70830000      48.25040000      55.45480000
C       46.53990000      51.99790000      55.69160000
C       53.65210000      51.73770000      44.03760000
C       55.57100000      46.42720000      51.84090000
C       44.23830000      53.49590000      51.52740000
C       55.43540000      53.63350000      48.35030000
C       48.46650000      55.73480000      46.53500000
C       46.49550000      51.58230000      44.57220000
C       44.30620000      53.38850000      48.05770000
C       51.62930000      55.94660000      53.72680000
C       47.97580000      44.29510000      53.51050000
C       51.87400000      44.38010000      46.45700000
C       53.79350000      51.78770000      55.52750000
C       46.49790000      48.51530000      55.75650000
C       53.65300000      48.39110000      43.99180000
C       55.65380000      53.59950000      51.91840000
C       44.30100000      46.30770000      51.80180000
C       55.40090000      46.42170000      48.27730000
C       47.21630000      49.49930000      56.49170000
C       56.13220000      47.15580000      49.28080000
C       49.42320000      56.53630000      47.21660000
C       52.95600000      49.35500000      43.19560000
C       47.22540000      50.61070000      43.80390000
C       53.02650000      50.74880000      56.19870000
C       43.50140000      47.03470000      50.83800000
C       56.29150000      52.90210000      50.77790000
C       43.51490000      52.74090000      49.12340000
C       50.60290000      56.65880000      53.02070000
C       49.03150000      43.50080000      52.83790000
C       50.74500000      43.67350000      47.12410000
C       47.22860000      50.92970000      56.44470000
C       56.16600000      52.87920000      49.33710000
C       49.29700000      43.73670000      47.13960000
C       52.95430000      50.78170000      43.22320000
C       47.18980000      49.16540000      43.69610000
C       52.98740000      49.29590000      56.16580000
C       43.47100000      52.78780000      50.55740000
C       56.24190000      47.11870000      50.72190000
C       43.36250000      46.96880000      49.40610000
C       50.46250000      43.42860000      52.83170000
C       49.17200000      56.50180000      52.96290000
C       50.85860000      56.52130000      47.24210000
C       42.75050000      48.07420000      48.67030000
C       48.54690000      43.11910000      48.21700000
C       48.31540000      48.56630000      42.95450000
C       56.99530000      48.23040000      51.33530000
C       42.84460000      51.72740000      51.34180000
C       56.71100000      51.76730000      48.59570000
C       51.21260000      42.76070000      51.76020000
C       48.48680000      56.97550000      51.78310000
C       51.45410000      57.20570000      48.39980000
C       51.81880000      48.63050000      56.71240000
C       48.38870000      51.54370000      57.09070000
C       51.79970000      51.49590000      42.70840000
C       42.84200000      51.58030000      48.52010000
C       48.63230000      57.15770000      48.27690000
C       48.32090000      51.36640000      43.22260000
C       57.02720000      51.76530000      51.36700000
C       43.02370000      48.22080000      51.50880000
C       56.69500000      48.27210000      48.56070000
C       51.32080000      57.28660000      51.91210000
C       48.39970000      42.83020000      51.70510000
C       51.34640000      42.94380000      48.25740000
C       51.90280000      51.45120000      56.78670000
C       48.31330000      48.74000000      57.09190000
C       51.81850000      48.63750000      42.63340000
C       54.83320000      45.15260000      48.34800000
C       48.42220000      54.74010000      45.58820000
C       45.51020000      48.43710000      54.80080000
C       44.86760000      45.01330000      51.73450000
C       54.66530000      54.63870000      52.10650000
C       45.34760000      54.39600000      47.96400000
C       51.79400000      55.00420000      54.73160000
C       47.90240000      45.35760000      54.48820000
C       52.04860000      45.37180000      45.41200000
C       54.61940000      48.31790000      44.99010000
C       45.21930000      51.49800000      45.12560000
C       55.09250000      51.77620000      54.98890000
C       54.89140000      54.91090000      48.44400000
C       48.39300000      45.07230000      45.14930000
C       45.53040000      52.08600000      54.66240000
C       45.20770000      54.47000000      51.59470000
C       54.55970000      45.40970000      51.99820000
C       45.03010000      45.24570000      48.26210000
C       51.54360000      45.20390000      54.43340000
C       48.31140000      55.11670000      54.98560000
C       52.05800000      54.72830000      45.55620000
C       54.62720000      51.79820000      45.02770000
C       45.46490000      47.84930000      45.36750000
C       55.01800000      48.22240000      54.93870000
C       45.12970000      44.25110000      49.20120000
C       49.54760000      45.30290000      44.38200000
C       44.52050000      48.91310000      45.45810000
C       54.45880000      44.46720000      50.93150000
C       45.39100000      55.29000000      50.51120000
C       54.69190000      55.67960000      49.60620000
C       50.48510000      45.44070000      55.27100000
C       49.41500000      54.96120000      55.87500000
C       50.93900000      54.58820000      44.67870000
C       55.96900000      49.26250000      54.81100000
C       44.64590000      50.96730000      54.54770000
C       55.55260000      50.78690000      45.18580000
C       45.45080000      55.30730000      49.06200000
C       49.49040000      54.57450000      44.74770000
C       44.43080000      50.34740000      45.31230000
C       54.55160000      55.57920000      51.04080000
C       45.01470000      44.10670000      50.64280000
C       54.60890000      44.37530000      49.49950000
C       50.85830000      54.87320000      55.72480000
C       49.03700000      45.49550000      55.34700000
C       50.98190000      45.45170000      44.46890000
C       55.99640000      50.70260000      54.82700000
C       44.68400000      49.51700000      54.60930000
C       55.54740000      49.32370000      45.17150000
C       56.78910000      48.24450000      52.73650000
C       52.83770000      56.86520000      48.48330000
C       48.41690000      52.92150000      56.78940000
C       43.21180000      48.03290000      47.30050000
C       56.20460000      51.78230000      47.26870000
C       43.33370000      51.78810000      52.69320000
C       47.19970000      56.33670000      51.72110000
C       52.58280000      43.20960000      51.80980000
C       47.20360000      43.59770000      48.20650000
C       51.81590000      52.82380000      43.26780000
C       48.40480000      47.17060000      43.23700000
C       51.72860000      47.30460000      56.16950000
C       56.83550000      51.73430000      52.76960000
C       52.73620000      43.24480000      48.35340000
C       48.24270000      47.38240000      56.62900000
C       43.21580000      51.48370000      47.14460000
C       56.19500000      48.28340000      47.23150000
C       43.65170000      48.29260000      52.80080000
C       47.02810000      43.16050000      51.66910000
C       52.69840000      56.85260000      51.94260000
C       47.29000000      56.63890000      48.23020000
C       51.86270000      47.28300000      43.13790000
C       48.35080000      52.68060000      43.79880000
C       51.89910000      52.80950000      56.34770000
C       50.72380000      50.79930000      42.19570000
C       42.24940000      50.65490000      50.73380000
C       50.56590000      42.18140000      50.69280000
C       49.44200000      50.81760000      57.62330000
C       50.87280000      49.33020000      57.43770000
C       49.27740000      49.32410000      42.32230000
C       57.42680000      50.74600000      49.18440000
C       42.21100000      49.13490000      49.35340000
C       57.56480000      49.25920000      50.61060000
C       49.15280000      42.37280000      49.20780000
C       50.68720000      57.81270000      49.38580000
C       49.17400000      57.69330000      50.81020000
C       50.73590000      49.33690000      42.12790000
C       42.31650000      49.18980000      50.80570000
C       50.62490000      57.81590000      50.85450000
C       49.41190000      49.36440000      57.62890000
C       50.90170000      50.77850000      57.45780000
C       49.27240000      50.76590000      42.42170000
C       57.41810000      49.27530000      49.17140000
C       42.21780000      50.60320000      49.28260000
C       57.57410000      50.73780000      50.62300000
C       49.23620000      57.76570000      49.34400000
C       50.59600000      42.30190000      49.22170000
C       49.11450000      42.24870000      50.67130000
C       52.85600000      47.07880000      55.24690000
C       55.28660000      52.90850000      47.09490000
C       47.04460000      55.41550000      52.87380000
C       47.26280000      46.86200000      44.05460000
C       52.91690000      52.92800000      44.14460000
C       47.26080000      53.20070000      55.97540000
C       44.23540000      52.86370000      52.77370000
C       55.93860000      47.12180000      53.03420000
C       44.12990000      46.97140000      47.19570000
C       53.12270000      56.04850000      47.32670000
C       47.04720000      44.57510000      47.11750000
C       52.68560000      44.15070000      52.84860000
C       53.01040000      53.01480000      55.39730000
C       55.26940000      47.16620000      47.03290000
C       46.76590000      44.00790000      52.80470000
C       47.23690000      52.81560000      44.74930000
C       52.93360000      47.18950000      44.05320000
C       47.14330000      47.27510000      55.75840000
C       44.57200000      47.14180000      52.97100000
C       56.02500000      52.87950000      53.09530000
C       44.05010000      52.62990000      46.87480000
C       53.04300000      44.06610000      47.21340000
C       47.22450000      55.71440000      47.17590000
C       52.82800000      55.93700000      53.00380000
C       46.40710000      54.59950000      46.88050000
C       46.80430000      46.41270000      54.69300000
C       54.40450000      47.12000000      45.86410000
C       53.68410000      54.84100000      53.25690000
C       45.60580000      44.68020000      52.87740000
C       54.21770000      44.71860000      47.16120000
C       53.18310000      46.38480000      45.19060000
C       47.18430000      53.92490000      45.68510000
C       53.01110000      54.16620000      54.50900000
C       45.56650000      47.15690000      54.03580000
C       55.43650000      52.95990000      54.30400000
C       44.76670000      52.67520000      45.74160000
C       45.89980000      45.46350000      47.07060000
C       47.17380000      54.37310000      55.32750000
C       54.41470000      52.97750000      45.93100000
C       53.54260000      45.24040000      53.11580000
C       45.98110000      54.41760000      52.86820000
C       54.27920000      55.37000000      47.26430000
C       53.18340000      53.71640000      45.29330000
C       47.20930000      45.68760000      44.70700000
C       52.82100000      45.96060000      54.31750000
C       45.31870000      53.18810000      53.61970000
C       55.32690000      47.04360000      54.23110000
C       45.24470000      46.71040000      46.36610000
