240
Lattice="100.0 0.0 0.0 0.0 100.0 0.0 0.0 0.0 100.0" Properties=species:S:1:pos:R:3 name=C-53965-5632-1437 pressure=-5.68464867255489 spacegroup=Td times_found=1 energy=-1707.18949991546 pbc="T T T"
C       54.94280000      52.91430000      46.06240000
C       52.91380000      46.06190000      54.94270000
C       46.06170000      54.94250000      52.91400000
C       45.05680000      52.91300000      53.93810000
C       45.05730000      47.08630000      46.06180000
C       54.94310000      47.08640000      53.93770000
C       47.08670000      46.06230000      45.05670000
C       47.08610000      53.93730000      54.94320000
C       52.91340000      53.93850000      45.05740000
C       53.93760000      54.94350000      47.08680000
C       53.93820000      45.05710000      52.91330000
C       46.06240000      45.05700000      47.08590000
C       46.06190000      52.91300000      54.94320000
C       54.94320000      46.06220000      52.91340000
C       52.91340000      54.94350000      46.06250000
C       53.93780000      52.91430000      45.05730000
C       46.06230000      47.08650000      45.05680000
C       53.93800000      47.08620000      54.94280000
C       45.05730000      46.06200000      47.08600000
C       54.94270000      53.93850000      47.08670000
C       45.05670000      53.93740000      52.91390000
C       47.08600000      54.94250000      53.93830000
C       52.91390000      45.05690000      53.93750000
C       47.08670000      45.05720000      46.06170000
C       51.53330000      49.44470000      56.14070000
C       49.44470000      56.14060000      51.53380000
C       56.14070000      51.53380000      49.44530000
C       48.46670000      49.44550000      43.85920000
C       48.46650000      50.55430000      56.14080000
C       51.53340000      50.55550000      43.85930000
C       50.55450000      56.14090000      48.46710000
C       50.55530000      43.85920000      51.53290000
C       49.44550000      43.85930000      48.46610000
C       43.85910000      51.53290000      50.55490000
C       43.85930000      48.46630000      49.44490000
C       56.14090000      48.46700000      50.55480000
C       56.14080000      49.44540000      51.53340000
C       51.53300000      56.14090000      49.44560000
C       49.44500000      51.53280000      56.14090000
C       43.85930000      49.44480000      48.46650000
C       56.14070000      50.55540000      48.46670000
C       43.85920000      50.55440000      51.53330000
C       48.46620000      56.14060000      50.55530000
C       51.53380000      43.85930000      50.55440000
C       48.46700000      43.85920000      49.44460000
C       50.55480000      51.53390000      43.85940000
C       49.44530000      48.46710000      43.85910000
C       50.55490000      48.46620000      56.14060000
C       44.12930000      46.22260000      48.10560000
C       46.22310000      48.10620000      44.12880000
C       48.10640000      44.12920000      46.22240000
C       55.87120000      46.22310000      51.89380000
C       55.87080000      53.77760000      48.10630000
C       44.12880000      53.77660000      51.89430000
C       53.77720000      48.10580000      55.87090000
C       53.77710000      51.89470000      44.12920000
C       46.22270000      51.89330000      55.87110000
C       51.89440000      44.12880000      53.77670000
C       51.89370000      55.87140000      46.22340000
C       48.10550000      55.87060000      53.77760000
C       48.10630000      46.22320000      44.12870000
C       44.12920000      48.10590000      46.22270000
C       46.22330000      44.12890000      48.10550000
C       51.89420000      46.22250000      55.87070000
C       48.10570000      53.77650000      55.87130000
C       51.89390000      53.77770000      44.12930000
C       55.87110000      48.10610000      53.77700000
C       44.12890000      51.89340000      53.77720000
C       55.87090000      51.89470000      46.22310000
C       53.77750000      44.12910000      51.89360000
C       46.22250000      55.87060000      51.89450000
C       53.77680000      55.87140000      48.10650000
C       57.51630000      49.31970000      53.56080000
C       49.31910000      53.56010000      57.51660000
C       53.56030000      57.51660000      49.32010000
C       42.48380000      49.31920000      46.43910000
C       42.48360000      50.67980000      53.56080000
C       57.51630000      50.68130000      46.43930000
C       50.68040000      53.56140000      42.48400000
C       50.68070000      46.43870000      57.51600000
C       49.31980000      46.43980000      42.48340000
C       46.43870000      57.51600000      50.68110000
C       46.43970000      42.48350000      49.31880000
C       53.56130000      42.48390000      50.68000000
C       53.56080000      49.31910000      57.51630000
C       57.51610000      53.56130000      49.31980000
C       49.31890000      57.51600000      53.56140000
C       46.43930000      49.31980000      42.48360000
C       53.56080000      50.68140000      42.48380000
C       46.43910000      50.67970000      57.51630000
C       42.48350000      53.56020000      50.68080000
C       57.51650000      46.43970000      50.68040000
C       42.48390000      46.43880000      49.31910000
C       50.68010000      57.51660000      46.43980000
C       49.32000000      42.48390000      46.43860000
C       50.68100000      42.48350000      53.56020000
C       45.63460000      43.67700000      49.34790000
C       43.67730000      49.34830000      45.63400000
C       49.34880000      45.63460000      43.67680000
C       54.36630000      43.67740000      50.65110000
C       54.36550000      56.32310000      49.34890000
C       45.63370000      56.32250000      50.65200000
C       56.32280000      49.34850000      54.36590000
C       56.32280000      50.65240000      45.63430000
C       43.67710000      50.65080000      54.36580000
C       50.65180000      45.63370000      56.32250000
C       50.65140000      54.36640000      43.67750000
C       49.34810000      54.36530000      56.32310000
C       49.34890000      43.67750000      45.63360000
C       45.63420000      49.34860000      43.67710000
C       43.67750000      45.63380000      49.34800000
C       50.65200000      43.67690000      54.36540000
C       49.34790000      56.32240000      54.36640000
C       50.65120000      56.32320000      45.63460000
C       54.36580000      49.34820000      56.32280000
C       45.63400000      50.65080000      56.32280000
C       54.36590000      50.65240000      43.67730000
C       56.32310000      45.63450000      50.65130000
C       43.67690000      54.36540000      50.65190000
C       56.32250000      54.36630000      49.34880000
C       44.86360000      53.09890000      48.89150000
C       53.09930000      48.89190000      44.86380000
C       48.89160000      44.86350000      53.09880000
C       55.13600000      53.09940000      51.10900000
C       55.13640000      46.90120000      48.89110000
C       44.86400000      46.90040000      51.10840000
C       46.90080000      48.89070000      55.13600000
C       46.90080000      51.10890000      44.86390000
C       53.09910000      51.10850000      55.13630000
C       51.10900000      44.86420000      46.90040000
C       51.10830000      55.13600000      53.09960000
C       48.89100000      55.13630000      46.90120000
C       48.89120000      53.09950000      44.86410000
C       44.86390000      48.89080000      53.09900000
C       53.09950000      44.86410000      48.89100000
C       51.10840000      53.09890000      55.13640000
C       48.89150000      46.90030000      55.13590000
C       51.10890000      46.90130000      44.86360000
C       55.13630000      48.89190000      46.90080000
C       44.86380000      51.10860000      46.90090000
C       55.13610000      51.10880000      53.09930000
C       46.90110000      44.86350000      51.10820000
C       53.09880000      55.13630000      51.10910000
C       46.90050000      55.13600000      48.89170000
C       44.33450000      50.76490000      48.20950000
C       50.76530000      48.21000000      44.33440000
C       48.20990000      44.33440000      50.76470000
C       55.66540000      50.76530000      51.79060000
C       55.66550000      49.23540000      48.20950000
C       44.33460000      49.23440000      51.79040000
C       49.23490000      48.20900000      55.66530000
C       49.23480000      51.79090000      44.33470000
C       50.76490000      51.79010000      55.66560000
C       51.79090000      44.33470000      49.23450000
C       51.79010000      55.66550000      50.76560000
C       48.20920000      55.66540000      49.23530000
C       48.20950000      50.76540000      44.33460000
C       44.33470000      48.20910000      50.76490000
C       50.76550000      44.33480000      48.20910000
C       51.79040000      50.76480000      55.66550000
C       48.20950000      49.23430000      55.66540000
C       51.79060000      49.23540000      44.33450000
C       55.66560000      48.20990000      49.23480000
C       44.33450000      51.79020000      49.23500000
C       55.66530000      51.79080000      50.76530000
C       49.23520000      44.33440000      51.79000000
C       50.76470000      55.66530000      51.79090000
C       49.23450000      55.66550000      48.20990000
C       47.42250000      48.51280000      43.27310000
C       48.51290000      43.27330000      47.42180000
C       43.27340000      47.42200000      48.51220000
C       52.57770000      48.51210000      56.72670000
C       52.57770000      51.48830000      43.27340000
C       47.42210000      51.48690000      56.72690000
C       51.48800000      43.27310000      52.57720000
C       51.48720000      56.72710000      47.42280000
C       48.51200000      56.72650000      52.57820000
C       56.72690000      47.42260000      51.48740000
C       56.72660000      52.57830000      48.51270000
C       43.27310000      52.57720000      51.48770000
C       43.27340000      48.51220000      47.42210000
C       47.42270000      43.27320000      48.51190000
C       48.51270000      47.42270000      43.27300000
C       56.72680000      48.51270000      52.57770000
C       43.27310000      51.48690000      52.57780000
C       56.72670000      51.48820000      47.42250000
C       52.57810000      43.27330000      51.48710000
C       47.42180000      56.72650000      51.48810000
C       52.57730000      56.72700000      48.51300000
C       51.48770000      47.42190000      56.72660000
C       48.51220000      52.57710000      56.72700000
C       51.48750000      52.57830000      43.27350000
C       44.67720000      50.41040000      45.66090000
C       50.41070000      45.66140000      44.67690000
C       45.66130000      44.67690000      50.40990000
C       55.32270000      50.41040000      54.33920000
C       55.32290000      49.59030000      45.66100000
C       44.67720000      49.58890000      54.33900000
C       49.58980000      45.66050000      55.32240000
C       49.58940000      54.33950000      44.67750000
C       50.41000000      54.33870000      55.32310000
C       54.33940000      44.67750000      49.58920000
C       54.33870000      55.32300000      50.41080000
C       45.66060000      55.32250000      49.59000000
C       45.66100000      50.41050000      44.67720000
C       44.67750000      45.66050000      50.41000000
C       50.41080000      44.67760000      45.66050000
C       54.33900000      50.41020000      55.32290000
C       45.66090000      49.58890000      55.32270000
C       54.33920000      49.59030000      44.67720000
C       55.32310000      45.66130000      49.58930000
C       44.67690000      54.33880000      49.58990000
C       55.32250000      54.33940000      50.41080000
C       49.58990000      44.67680000      54.33870000
C       50.41000000      55.32250000      54.33950000
C       49.58930000      55.32310000      45.66130000
C       54.16340000      47.84230000      46.84540000
C       47.84190000      46.84500000      54.16300000
C       46.84530000      54.16320000      47.84210000
C       45.83690000      47.84130000      53.15430000
C       45.83660000      52.15820000      46.84560000
C       54.16310000      52.15820000      53.15470000
C       52.15850000      46.84600000      45.83650000
C       52.15800000      53.15430000      54.16350000
C       47.84160000      53.15470000      45.83700000
C       53.15420000      54.16330000      52.15860000
C       53.15480000      45.83710000      47.84150000
C       46.84580000      45.83640000      52.15790000
C       46.84560000      47.84120000      54.16310000
C       54.16350000      46.84590000      47.84160000
C       47.84150000      54.16340000      46.84580000
C       53.15470000      47.84230000      45.83660000
C       46.84540000      52.15830000      45.83690000
C       53.15430000      52.15810000      54.16350000
C       45.83690000      46.84510000      52.15790000
C       54.16300000      53.15460000      52.15850000
C       45.83660000      53.15440000      47.84200000
C       52.15790000      54.16320000      53.15480000
C       47.84200000      45.83640000      53.15410000
C       52.15850000      45.83710000      46.84520000
