240
Lattice="100.0 0.0 0.0 0.0 100.0 0.0 0.0 0.0 100.0" Properties=species:S:1:pos:R:3 name=C-53965-5632-312 pressure=0.00365763587972764 energy=-1693.94048347936 spacegroup=C1 times_found=1 pbc="T T T"
C       55.23620000      48.97010000      45.67910000
C       48.41240000      46.20030000      55.16170000
C       45.95810000      55.30690000      48.97020000
C       54.81260000      51.24240000      53.70730000
C       45.24450000      48.45900000      54.05380000
C       45.23690000      51.40170000      46.14110000
C       48.64330000      53.67100000      45.14860000
C       51.62380000      45.81240000      45.14860000
C       51.05530000      54.34690000      55.12430000
C       45.92020000      45.05720000      50.92960000
C       53.93920000      54.66880000      51.61120000
C       53.82330000      44.92990000      48.37240000
C       45.07230000      48.62670000      46.19990000
C       51.26060000      46.28190000      55.08400000
C       54.18740000      55.00810000      48.88520000
C       44.77980000      51.15830000      54.33580000
C       54.55560000      48.43840000      53.62740000
C       54.74750000      51.60880000      46.06970000
C       51.32200000      53.69890000      44.99420000
C       48.89390000      45.62600000      44.87640000
C       48.19660000      54.16130000      54.77140000
C       54.05600000      44.81010000      51.09250000
C       46.21170000      55.16460000      51.74470000
C       46.33660000      45.47000000      48.33970000
C       45.07840000      52.85340000      50.92620000
C       52.57650000      50.61660000      44.96210000
C       50.57760000      45.11130000      52.81880000
C       45.19190000      47.66270000      49.27810000
C       55.30150000      52.69520000      49.35030000
C       55.17350000      47.07490000      50.31590000
C       52.34260000      49.42600000      54.77100000
C       47.07490000      50.64470000      55.48360000
C       47.34120000      49.11220000      44.96660000
C       50.66670000      54.90140000      47.27270000
C       49.52190000      44.45290000      47.13770000
C       49.24020000      55.38810000      52.68890000
C       55.06440000      52.47700000      50.68020000
C       47.34000000      50.49230000      44.84870000
C       49.18540000      45.17970000      52.78100000
C       55.06100000      47.19450000      48.94470000
C       44.95160000      52.92490000      49.53820000
C       45.00220000      47.42780000      50.63180000
C       47.21770000      49.25340000      55.53650000
C       52.46590000      50.79890000      54.82340000
C       52.80210000      49.26900000      44.77620000
C       49.27940000      54.94020000      47.34980000
C       50.92080000      44.50730000      47.29210000
C       50.60910000      55.46750000      52.84120000
C       50.92530000      56.38730000      50.66090000
C       56.44170000      50.55360000      50.57980000
C       50.66610000      51.06480000      56.32070000
C       50.60120000      43.66750000      49.47660000
C       49.43990000      56.35280000      49.16560000
C       49.15380000      43.78330000      50.85360000
C       56.35950000      49.19040000      49.04210000
C       43.80240000      50.93070000      49.45810000
C       43.77820000      49.39210000      50.87450000
C       50.79530000      48.98580000      43.65040000
C       49.28510000      50.39950000      43.58390000
C       49.28690000      49.59240000      56.49750000
C       49.49480000      56.40810000      50.59160000
C       43.84050000      50.85320000      50.93410000
C       49.19740000      51.03190000      56.41830000
C       49.18540000      43.61110000      49.38130000
C       50.91910000      56.27140000      49.18700000
C       50.62630000      43.78430000      50.91520000
C       43.69870000      49.47960000      49.41700000
C       56.43650000      50.65350000      49.12640000
C       56.35220000      49.10040000      50.50050000
C       49.32480000      48.93680000      43.69880000
C       50.72800000      50.44810000      43.53120000
C       50.70790000      49.58870000      56.45550000
C       48.65180000      55.74900000      51.45510000
C       55.88280000      51.69560000      48.27900000
C       51.45170000      48.54750000      55.81090000
C       48.42520000      44.11260000      48.25390000
C       51.79290000      55.55430000      48.30520000
C       51.63820000      44.39910000      51.73760000
C       55.71540000      48.17420000      51.41160000
C       44.38410000      51.74030000      51.94040000
C       44.26310000      48.58900000      48.43700000
C       51.54800000      51.46810000      44.13150000
C       48.38260000      48.03150000      44.33280000
C       48.12670000      51.82380000      55.87490000
C       51.72700000      55.85780000      51.73990000
C       44.40140000      51.84150000      48.48300000
C       48.45720000      48.65070000      55.90990000
C       51.44000000      44.31250000      48.59870000
C       48.38190000      55.79050000      48.36760000
C       48.19370000      44.49690000      51.67030000
C       44.37420000      48.34240000      51.71840000
C       55.81420000      51.40170000      51.55080000
C       55.77030000      48.31710000      48.05100000
C       48.39190000      51.35080000      44.19640000
C       51.82570000      48.14490000      44.23630000
C       51.53920000      51.92080000      55.57610000
C       44.66890000      52.67860000      46.07370000
C       52.82560000      45.87980000      44.39790000
C       45.72500000      44.25950000      52.11160000
C       44.59920000      47.19820000      53.93330000
C       55.56200000      52.45010000      53.75650000
C       56.01560000      47.78930000      45.60430000
C       52.37380000      54.26940000      55.69060000
C       47.18880000      45.87190000      55.83100000
C       48.04710000      53.75970000      43.82410000
C       45.93840000      55.96970000      47.70960000
C       53.93580000      43.85120000      47.47950000
C       53.99430000      55.34880000      52.85490000
C       55.42590000      52.84660000      46.00840000
C       47.58170000      45.62620000      44.30440000
C       54.08760000      44.30120000      52.42860000
C       55.26750000      47.21580000      53.75050000
C       44.10890000      52.42030000      54.37790000
C       44.37790000      47.38470000      46.26270000
C       46.94960000      54.06680000      55.48350000
C       52.57560000      46.38290000      55.63060000
C       52.58120000      53.71190000      44.32630000
C       54.19030000      55.62130000      47.59700000
C       46.12930000      44.63770000      47.20950000
C       45.95630000      55.78980000      53.02440000
C       54.95550000      49.12360000      52.41910000
C       49.01110000      52.96660000      55.08490000
C       52.87950000      55.04190000      49.46740000
C       55.13040000      50.82410000      47.23290000
C       44.84900000      49.42770000      47.36110000
C       44.86280000      50.64180000      52.99990000
C       49.47300000      46.93640000      44.85080000
C       50.63880000      52.48260000      44.77640000
C       50.50360000      47.43030000      55.40680000
C       52.74450000      44.78950000      50.58710000
C       47.38640000      55.43090000      50.91790000
C       47.49820000      45.06450000      49.10990000
C       45.01030000      49.26250000      52.87320000
C       50.39610000      53.07130000      55.13170000
C       47.26550000      55.39660000      49.51970000
C       44.99330000      50.79840000      47.39430000
C       55.22300000      49.46290000      47.04280000
C       55.09890000      50.49100000      52.52750000
C       50.86270000      47.01240000      44.93570000
C       49.29190000      52.37960000      44.98040000
C       49.10620000      47.43020000      55.49180000
C       47.27160000      45.04520000      50.48360000
C       52.74720000      55.02470000      50.84850000
C       52.62950000      44.78130000      49.20290000
C       53.79220000      51.38960000      45.10840000
C       51.25200000      45.30080000      54.05740000
C       45.27960000      54.07990000      51.64870000
C       53.62070000      48.72580000      54.59950000
C       45.73780000      51.14640000      55.41810000
C       46.08800000      48.51710000      45.22140000
C       51.33150000      54.66540000      46.03530000
C       48.93880000      44.54030000      45.83460000
C       48.38510000      55.22250000      53.86370000
C       45.40480000      46.45400000      48.52590000
C       55.29410000      54.06180000      48.89590000
C       55.13670000      45.76380000      50.94060000
C       46.17440000      51.28030000      45.09230000
C       48.41460000      45.40530000      53.97750000
C       54.90240000      53.70360000      51.44200000
C       46.04700000      48.45380000      55.21770000
C       53.75490000      51.34980000      54.64530000
C       54.17260000      48.86830000      44.69600000
C       48.51100000      54.61630000      46.14530000
C       51.75510000      44.76910000      46.12500000
C       51.10990000      55.43420000      54.17020000
C       54.72410000      45.99010000      48.14450000
C       44.97830000      54.24170000      48.95700000
C       44.95200000      46.06560000      50.99650000
C       45.15960000      46.43310000      45.51260000
C       46.77060000      44.68690000      45.01260000
C       45.72580000      45.17110000      45.86270000
C       44.74820000      53.21530000      55.40090000
C       54.68980000      45.91080000      54.18530000
C       54.76960000      54.16730000      45.68230000
C       45.53970000      54.33850000      55.00640000
C       53.44180000      45.60570000      54.80810000
C       53.48040000      54.47110000      45.13690000
C       45.14520000      54.90420000      53.77450000
C       55.09020000      45.01030000      53.14630000
C       55.17960000      54.99320000      46.77850000
C       55.35290000      46.88200000      44.69920000
C       53.80240000      45.10790000      45.10580000
C       54.99740000      45.75330000      45.50280000
C       54.79650000      53.41020000      54.49970000
C       45.21580000      46.30290000      54.86320000
C       45.53250000      53.48790000      45.22160000
C       53.24470000      55.19480000      55.02640000
C       46.27090000      45.29830000      54.83760000
C       45.92070000      54.74430000      45.76880000
C       54.31050000      54.71660000      54.18720000
C       44.52830000      44.60730000      52.75230000
C       45.08690000      55.20700000      46.83910000
C       52.71630000      47.64240000      56.25650000
C       46.49950000      57.04930000      53.56580000
C       56.28440000      52.89260000      47.16770000
C       52.71190000      52.51800000      43.57930000
C       47.22450000      46.94330000      44.03940000
C       46.96800000      52.87600000      56.25270000
C       47.23480000      43.71070000      47.16680000
C       52.87100000      55.85810000      47.21330000
C       52.76540000      44.10420000      52.84480000
C       56.08250000      47.10060000      52.56210000
C       43.93350000      52.81300000      53.03750000
C       43.67780000      47.33790000      47.49700000
C       46.60330000      46.62990000      56.81160000
C       52.86420000      56.22460000      52.89420000
C       44.08570000      52.96070000      47.31210000
C       47.41910000      52.58550000      43.65730000
C       52.99460000      47.12590000      43.82710000
C       52.68640000      52.93010000      55.88590000
C       53.66620000      43.00510000      46.55620000
C       47.24860000      56.17330000      47.25720000
C       47.00690000      44.12460000      52.64430000
C       43.97200000      47.09020000      52.70380000
C       56.36360000      52.54130000      52.59900000
C       56.17440000      47.29460000      46.90520000
C       44.49640000      54.05480000      52.82490000
C       53.88630000      51.90510000      43.74720000
C       52.54370000      44.72880000      54.06100000
C       43.98980000      46.23780000      48.18610000
C       55.99040000      54.16660000      47.64640000
C       55.85010000      45.78230000      52.17880000
C       53.83730000      48.30770000      55.97280000
C       45.66090000      52.37180000      56.12070000
C       45.99840000      47.24110000      44.63800000
C       52.60170000      55.27780000      45.98020000
C       47.65840000      43.89670000      45.84550000
C       47.45330000      56.27170000      53.92550000
C       56.24080000      53.74530000      52.01810000
C       46.23070000      52.52930000      44.40940000
C       47.15490000      44.73680000      53.87610000
C       55.44610000      46.07310000      46.90480000
C       44.37570000      54.26950000      47.66180000
C       44.15050000      45.81570000      52.16400000
C       45.78870000      47.20640000      55.86990000
C       53.89450000      52.59900000      55.28730000
C       54.30250000      47.59680000      44.03950000
C       47.27700000      55.32730000      46.10430000
C       53.08000000      44.21650000      45.93940000
C       52.40700000      56.02650000      54.20200000
