240
Lattice="100.0 0.0 0.0 0.0 100.0 0.0 0.0 0.0 100.0" Properties=species:S:1:pos:R:3 name=C-53965-5632-1390 pressure=141.852380574923 spacegroup=Th times_found=1 energy=-1740.03428383348 pbc="T T T"
C       43.20060000      49.29130000      50.74060000
C       50.73870000      43.20040000      49.29200000
C       49.28960000      50.73780000      43.20050000
C       43.20070000      50.71070000      49.26060000
C       56.79950000      50.70920000      50.73890000
C       56.79910000      49.28880000      49.25990000
C       50.74080000      56.79940000      50.70780000
C       49.26120000      56.79920000      49.28800000
C       49.25930000      43.20100000      50.71210000
C       49.29050000      49.26240000      56.79960000
C       50.70930000      49.25810000      43.20080000
C       50.71070000      50.74170000      56.79900000
C       56.79930000      49.28930000      50.73940000
C       49.25920000      43.20060000      49.29220000
C       50.70950000      50.73760000      43.20040000
C       56.79940000      50.70870000      49.25940000
C       43.20090000      50.71120000      50.74010000
C       43.20050000      49.29080000      49.26110000
C       49.26130000      56.79970000      50.70790000
C       50.74070000      56.79900000      49.28790000
C       50.73880000      43.20080000      50.71190000
C       50.71040000      49.26220000      56.79950000
C       49.28940000      49.25830000      43.20100000
C       49.29080000      50.74190000      56.79920000
C       44.25650000      51.90740000      47.37570000
C       47.37510000      44.25740000      51.90930000
C       51.90640000      47.37380000      44.25700000
C       44.25630000      48.09430000      52.62530000
C       55.74310000      48.09100000      47.37590000
C       55.74410000      51.90730000      52.62310000
C       47.37650000      55.74340000      48.09110000
C       52.62520000      55.74380000      51.90540000
C       52.62320000      44.25540000      48.09420000
C       51.90820000      52.62570000      55.74260000
C       48.09260000      52.62270000      44.25580000
C       48.09280000      47.37780000      55.74460000
C       55.74370000      51.90570000      47.37470000
C       52.62350000      44.25660000      51.90880000
C       48.09180000      47.37430000      44.25740000
C       55.74350000      48.09260000      52.62430000
C       44.25590000      48.09270000      47.37690000
C       44.25690000      51.90900000      52.62410000
C       52.62490000      55.74260000      48.09070000
C       47.37680000      55.74460000      51.90580000
C       47.37480000      44.25620000      48.09460000
C       48.09360000      52.62620000      55.74300000
C       51.90720000      52.62220000      44.25540000
C       51.90740000      47.37730000      55.74420000
C       54.36360000      45.75070000      52.55750000
C       52.55690000      54.36230000      45.74900000
C       45.75140000      52.55860000      54.36360000
C       54.36440000      54.24800000      47.44170000
C       45.63690000      54.25080000      52.55570000
C       45.63520000      45.75050000      47.44510000
C       52.55630000      45.63690000      54.25050000
C       47.44240000      45.63510000      45.75220000
C       47.44440000      54.36560000      54.24830000
C       45.74980000      47.44270000      45.63720000
C       54.24940000      47.44410000      54.36440000
C       54.24940000      52.55460000      45.63490000
C       45.63560000      45.75200000      52.55830000
C       47.44370000      54.36310000      45.74950000
C       54.25020000      52.55730000      54.36280000
C       45.63650000      54.24930000      47.44250000
C       54.36480000      54.24950000      52.55490000
C       54.36310000      45.74920000      47.44430000
C       47.44310000      45.63770000      54.25090000
C       52.55560000      45.63440000      45.75170000
C       52.55760000      54.36490000      54.24780000
C       54.24860000      47.44140000      45.63640000
C       45.75060000      47.44540000      54.36510000
C       45.75060000      52.55590000      45.63560000
C       55.94880000      54.93640000      50.72240000
C       50.72570000      55.94940000      54.93520000
C       54.93770000      50.72550000      55.94730000
C       55.94720000      45.06180000      49.27660000
C       44.05130000      45.06410000      50.72640000
C       44.05270000      54.93770000      49.27460000
C       50.72310000      44.05040000      45.06470000
C       49.27510000      44.05360000      54.93890000
C       49.27610000      55.94660000      45.06120000
C       54.93640000      49.27310000      44.05180000
C       45.06340000      49.27820000      55.94860000
C       45.06260000      50.72330000      44.05220000
C       44.05280000      54.93810000      50.72340000
C       49.27690000      55.94960000      54.93530000
C       45.06360000      50.72690000      55.94820000
C       44.05120000      45.06360000      49.27760000
C       55.94730000      45.06230000      50.72540000
C       55.94870000      54.93590000      49.27360000
C       49.27430000      44.05060000      45.06480000
C       50.72390000      44.05340000      54.93880000
C       50.72480000      55.94640000      45.06110000
C       45.06230000      49.27450000      44.05270000
C       54.93750000      49.27670000      55.94780000
C       54.93660000      50.72180000      44.05140000
C       51.34830000      54.70540000      54.97380000
C       54.97590000      51.34780000      54.70320000
C       54.70490000      54.97500000      51.34520000
C       51.34600000      45.29420000      45.02600000
C       48.65260000      45.29770000      54.97690000
C       48.65310000      54.70270000      45.02340000
C       54.97470000      48.65070000      45.29590000
C       45.02490000      48.65500000      54.70490000
C       45.02450000      51.34640000      45.29600000
C       54.70320000      45.02360000      48.65400000
C       45.29530000      45.02580000      51.34910000
C       45.29660000      54.97560000      48.65180000
C       48.65400000      54.70570000      54.97400000
C       45.02530000      51.34930000      54.70410000
C       45.29680000      54.97640000      51.34600000
C       48.65170000      45.29460000      45.02620000
C       51.34690000      45.29730000      54.97660000
C       51.34740000      54.70230000      45.02310000
C       45.02410000      48.65220000      45.29680000
C       54.97550000      48.65360000      54.70400000
C       54.97510000      51.34500000      45.29510000
C       45.29510000      45.02500000      48.65480000
C       54.70340000      45.02440000      51.34820000
C       54.70470000      54.97420000      48.65090000
C       51.86540000      48.54120000      56.55030000
C       56.55010000      51.86370000      48.53840000
C       48.54060000      56.55080000      51.86320000
C       51.86470000      51.45820000      43.44940000
C       48.13570000      51.46280000      56.54970000
C       48.13410000      48.53780000      43.45060000
C       56.54980000      48.13440000      51.46050000
C       43.44960000      48.13540000      48.54070000
C       43.45040000      51.86650000      51.46050000
C       48.53840000      43.44970000      48.13700000
C       51.45970000      43.45040000      51.86700000
C       51.46130000      56.54920000      48.13280000
C       48.13530000      48.54180000      56.55060000
C       43.45020000      51.86560000      48.53950000
C       51.46160000      56.55030000      51.86300000
C       48.13460000      51.45880000      43.44970000
C       51.86590000      51.46220000      56.54940000
C       51.86430000      48.53720000      43.45030000
C       43.44990000      48.13630000      51.46160000
C       56.54960000      48.13350000      48.53950000
C       56.55040000      51.86460000      51.45940000
C       51.45940000      43.44920000      48.13680000
C       48.53870000      43.45080000      51.86720000
C       48.54030000      56.54970000      48.13300000
C       44.45230000      50.74120000      46.46750000
C       46.46640000      44.45330000      50.74340000
C       50.74040000      46.46540000      44.45360000
C       44.45270000      49.26050000      53.53350000
C       55.54700000      49.25670000      46.46700000
C       55.54790000      50.74170000      53.53210000
C       46.46800000      55.54780000      49.25720000
C       53.53370000      55.54720000      50.73940000
C       53.53190000      44.45180000      49.26000000
C       50.74240000      53.53440000      55.54630000
C       49.25860000      53.53120000      44.45150000
C       49.25850000      46.46900000      55.54860000
C       55.54730000      50.73950000      46.46650000
C       53.53200000      44.45220000      50.74280000
C       49.25760000      46.46560000      44.45370000
C       55.54770000      49.25880000      53.53250000
C       44.45210000      49.25830000      46.46790000
C       44.45300000      50.74330000      53.53300000
C       53.53350000      55.54670000      49.25660000
C       46.46810000      55.54820000      50.74000000
C       46.46630000      44.45280000      49.26060000
C       49.25960000      53.53460000      55.54650000
C       50.74150000      53.53100000      44.45140000
C       50.74140000      46.46880000      55.54850000
C       45.74160000      51.37650000      43.00220000
C       43.00170000      45.74350000      51.37990000
C       51.37660000      43.00070000      45.74400000
C       45.74240000      48.62480000      56.99860000
C       54.25720000      48.61920000      43.00230000
C       54.25880000      51.37950000      56.99700000
C       43.00280000      54.25860000      48.62130000
C       56.99850000      54.25730000      51.37610000
C       56.99700000      45.74060000      48.62270000
C       51.37940000      56.99890000      54.25570000
C       48.62270000      56.99670000      45.74000000
C       48.62130000      43.00380000      54.26020000
C       54.25760000      51.37520000      43.00140000
C       56.99720000      45.74140000      51.37870000
C       48.62060000      43.00110000      45.74430000
C       54.25840000      48.62350000      56.99780000
C       45.74120000      48.62050000      43.00300000
C       45.74290000      51.38080000      56.99770000
C       56.99830000      54.25650000      48.62010000
C       43.00300000      54.25940000      51.37730000
C       43.00140000      45.74270000      48.62390000
C       48.62340000      56.99920000      54.25590000
C       51.37870000      56.99630000      45.73980000
C       51.37730000      43.00330000      54.26000000
C       46.88920000      45.13720000      46.97750000
C       46.97480000      46.88920000      45.13890000
C       45.13690000      46.97550000      46.89160000
C       46.89120000      54.86370000      53.02310000
C       53.11020000      54.86100000      46.97400000
C       53.10930000      45.13810000      53.02550000
C       46.97660000      53.11170000      54.86170000
C       53.02430000      53.10790000      45.13640000
C       53.02420000      46.89120000      54.86300000
C       45.13840000      53.02590000      53.10930000
C       54.86250000      53.02260000      46.88890000
C       54.86220000      46.97600000      53.11030000
C       53.10880000      45.13630000      46.97690000
C       53.02340000      46.88830000      45.13830000
C       54.86160000      46.97410000      46.89070000
C       53.11080000      54.86280000      53.02250000
C       46.89070000      54.86190000      46.97450000
C       46.88980000      45.13900000      53.02600000
C       53.02520000      53.11080000      54.86110000
C       46.97580000      53.10880000      45.13700000
C       46.97570000      46.89220000      54.86360000
C       54.86310000      53.02450000      53.10840000
C       45.13780000      53.02400000      46.88970000
C       45.13750000      46.97740000      53.11110000
C       42.98110000      53.02070000      50.73470000
C       50.73430000      42.98140000      53.02150000
C       53.01890000      50.73250000      42.98010000
C       42.98010000      46.98140000      49.26650000
C       57.01900000      46.97980000      50.73540000
C       57.01980000      53.01810000      49.26340000
C       50.73580000      57.01840000      46.97840000
C       49.26630000      57.02040000      53.01730000
C       49.26360000      42.97980000      46.98280000
C       53.01990000      49.26660000      57.01930000
C       46.97990000      49.26330000      42.98110000
C       46.98130000      50.73760000      57.01950000
C       57.01990000      53.01860000      50.73350000
C       49.26410000      42.98160000      53.02160000
C       46.98010000      50.73340000      42.98060000
C       57.01890000      46.97930000      49.26530000
C       42.98020000      46.98190000      50.73660000
C       42.98100000      53.02020000      49.26460000
C       49.26570000      57.01860000      46.97850000
C       50.73640000      57.02020000      53.01720000
C       50.73370000      42.97960000      46.98270000
C       46.98110000      49.26750000      57.01990000
C       53.01870000      49.26240000      42.98060000
C       53.02010000      50.73670000      57.01890000
