240
Lattice="100.0 0.0 0.0 0.0 100.0 0.0 0.0 0.0 100.0" Properties=species:S:1:pos:R:3 name=C-53965-5632-551 pressure=-0.927358940251536 spacegroup=Th times_found=1 energy=-1762.41837863427 pbc="T T T"
C       43.81530000      52.90240000      51.79590000
C       51.80730000      43.82390000      52.91360000
C       52.91120000      51.80210000      43.82120000
C       56.17900000      52.91180000      48.19970000
C       43.82440000      47.08550000      48.19240000
C       56.18130000      47.10030000      51.81210000
C       48.20480000      43.81590000      47.09590000
C       51.80070000      56.17970000      47.08990000
C       48.18720000      56.18060000      52.90070000
C       47.08520000      51.80590000      56.17600000
C       52.90300000      48.20360000      56.18430000
C       47.10050000      48.18840000      43.81850000
C       43.82100000      47.08820000      51.80030000
C       51.79520000      56.18410000      52.90410000
C       52.91480000      48.19410000      43.82400000
C       56.18470000      47.09760000      48.20410000
C       43.81870000      52.89970000      48.18790000
C       56.17560000      52.91450000      51.80760000
C       48.19270000      56.17610000      47.08640000
C       51.81280000      43.81940000      47.09930000
C       48.19930000      43.82030000      52.91010000
C       47.08880000      48.19790000      56.17880000
C       52.89950000      51.81160000      56.18150000
C       47.09700000      51.79640000      43.81570000
C       43.20940000      50.71820000      49.26600000
C       49.27900000      43.20930000      50.72990000
C       50.73260000      49.26860000      43.21070000
C       56.78920000      50.73260000      50.73280000
C       43.20950000      49.26850000      50.72110000
C       56.79200000      49.28070000      49.28010000
C       50.73430000      43.20960000      49.28050000
C       49.26710000      56.78930000      49.26870000
C       50.71960000      56.79180000      50.72090000
C       49.26890000      49.27750000      56.79040000
C       50.71820000      50.73290000      56.79070000
C       49.28040000      50.72100000      43.20820000
C       43.21080000      49.26740000      49.26720000
C       49.26570000      56.79040000      50.71950000
C       50.73110000      50.72250000      43.20960000
C       56.79060000      49.28180000      50.73400000
C       43.20800000      50.71930000      50.71990000
C       56.79050000      50.73150000      49.27890000
C       50.72100000      56.79070000      49.27010000
C       49.28040000      43.20820000      49.27910000
C       50.73290000      43.21070000      50.73130000
C       49.26740000      50.73140000      56.78930000
C       50.71960000      49.27900000      56.79180000
C       49.28180000      49.26710000      43.20930000
C       54.23150000      44.28700000      52.88680000
C       52.87970000      54.22710000      44.28010000
C       44.27380000      52.87600000      54.22100000
C       45.77970000      44.27430000      47.12200000
C       54.22580000      55.72130000      47.12120000
C       45.76300000      55.71740000      52.87000000
C       47.11200000      54.23020000      55.71340000
C       52.87710000      45.77860000      55.72530000
C       47.13120000      45.76420000      44.28110000
C       55.72060000      52.88080000      45.77460000
C       44.28750000      47.11280000      45.76810000
C       55.71820000      47.13050000      54.23630000
C       54.22030000      55.72570000      52.87800000
C       52.88800000      45.76980000      44.28660000
C       44.27940000      47.11920000      54.22540000
C       45.76850000      55.71300000      47.11320000
C       54.23700000      44.28260000      47.13000000
C       45.77420000      44.27870000      52.87880000
C       47.12030000      45.77290000      55.71990000
C       52.86880000      54.23580000      55.71890000
C       47.12290000      54.22140000      44.27470000
C       55.72620000      47.12400000      45.77900000
C       44.28180000      52.86950000      45.76370000
C       55.71250000      52.88720000      54.23190000
C       46.16020000      49.29310000      55.87650000
C       55.88410000      46.17030000      49.30090000
C       49.29020000      55.87600000      46.15990000
C       53.84120000      49.29160000      44.12460000
C       46.17000000      50.69940000      44.11620000
C       53.82860000      50.71590000      55.88270000
C       44.12350000      46.15990000      50.70500000
C       55.87520000      53.84120000      50.71030000
C       44.11730000      53.82860000      49.28380000
C       50.69830000      55.88330000      53.83110000
C       49.29450000      44.12260000      53.83870000
C       50.71710000      44.11810000      46.17030000
C       46.15880000      50.70840000      55.87540000
C       55.87650000      53.84010000      49.29500000
C       49.30170000      44.11670000      46.16890000
C       53.83980000      50.70690000      44.12350000
C       46.17140000      49.28410000      44.11730000
C       53.83000000      49.30060000      55.88380000
C       44.11590000      53.82970000      50.69910000
C       55.88270000      46.17140000      50.71620000
C       44.12480000      46.15880000      49.28970000
C       50.70980000      44.12400000      53.84010000
C       49.28290000      55.88190000      53.82970000
C       50.70550000      55.87740000      46.16130000
C       51.41870000      54.20270000      55.85370000
C       55.85010000      51.43730000      54.20130000
C       54.18970000      55.86070000      51.42780000
C       48.57310000      54.19100000      44.13990000
C       51.43800000      45.80010000      44.14900000
C       48.57020000      45.80620000      55.85740000
C       44.14710000      51.41940000      45.79650000
C       55.86090000      48.57420000      45.80980000
C       44.14190000      48.56910000      54.19240000
C       45.79880000      55.85030000      48.56320000
C       54.20390000      44.14750000      48.58010000
C       45.80750000      44.14140000      51.42880000
C       51.42690000      45.80900000      55.86010000
C       55.85290000      48.58060000      54.20350000
C       54.20120000      44.14970000      51.43680000
C       48.58130000      45.79730000      44.14630000
C       51.42980000      54.19380000      44.14260000
C       48.56200000      54.19990000      55.85100000
C       44.14990000      48.56270000      45.79870000
C       55.85810000      51.43090000      45.80760000
C       44.13910000      51.42580000      54.19020000
C       45.81030000      44.13930000      48.57220000
C       54.19250000      55.85860000      48.57120000
C       45.79610000      55.85250000      51.41990000
C       44.60710000      45.11580000      52.77410000
C       52.78540000      44.60400000      45.12580000
C       45.12140000      52.76660000      44.59820000
C       55.40240000      45.12220000      47.23340000
C       44.60290000      54.87360000      47.21560000
C       55.38760000      54.88840000      52.77690000
C       47.22510000      44.60600000      54.88250000
C       52.76560000      55.40150000      54.87950000
C       47.22390000      55.38850000      45.11220000
C       54.87320000      52.78440000      55.39750000
C       45.11660000      47.22380000      55.39250000
C       54.88890000      47.22520000      44.61180000
C       44.59760000      54.87780000      52.76660000
C       52.77490000      55.39400000      45.11750000
C       45.12680000      47.21560000      44.60250000
C       55.39290000      54.88420000      47.22590000
C       44.61240000      45.11160000      47.22310000
C       55.39710000      45.12640000      52.78440000
C       47.21460000      55.39600000      54.87420000
C       52.77610000      44.61150000      54.88780000
C       47.23440000      44.59850000      45.12050000
C       54.87860000      47.23340000      55.40180000
C       45.11110000      52.77480000      55.38820000
C       54.88340000      52.77620000      44.60750000
C       53.59010000      46.95960000      55.87460000
C       55.86830000      53.59610000      46.95440000
C       46.94240000      55.86860000      53.58530000
C       46.41590000      46.94360000      44.13000000
C       53.59530000      53.04750000      44.13220000
C       46.39870000      53.04940000      55.86310000
C       44.12470000      53.58930000      53.04010000
C       55.86950000      46.41540000      53.05680000
C       44.13750000      46.39920000      46.94880000
C       53.04610000      55.86910000      46.40570000
C       46.96070000      44.12540000      46.40890000
C       53.05080000      44.13690000      53.60010000
C       53.58410000      53.05640000      55.87000000
C       55.87530000      46.41070000      46.95990000
C       46.95390000      44.13090000      53.59430000
C       46.40990000      53.04040000      44.12540000
C       53.60130000      46.95060000      44.13690000
C       46.40470000      46.95250000      55.86780000
C       44.13170000      46.40390000      53.04560000
C       55.86250000      53.60080000      53.05120000
C       44.13050000      53.58460000      46.94320000
C       53.05760000      44.13140000      46.41470000
C       46.94920000      55.86310000      46.39990000
C       53.03930000      55.87460000      53.59110000
C       43.52450000      48.49070000      48.15410000
C       48.16690000      43.51830000      48.50170000
C       48.50650000      48.15270000      43.52120000
C       56.47850000      48.50630000      51.84820000
C       43.51800000      51.49650000      51.83360000
C       56.47900000      51.50640000      48.16410000
C       51.84580000      43.52420000      51.50820000
C       48.15130000      56.47810000      51.49480000
C       51.83600000      56.47940000      48.49530000
C       51.49710000      48.16550000      56.48160000
C       48.49050000      51.84440000      56.47590000
C       51.50580000      51.83740000      43.52120000
C       43.52150000      51.49370000      48.15180000
C       48.15420000      56.47580000      48.49180000
C       48.50290000      51.83450000      43.51840000
C       56.47550000      51.50930000      51.84590000
C       43.52100000      48.49360000      51.83590000
C       56.48200000      48.50350000      48.16640000
C       51.83310000      56.48170000      51.49830000
C       48.16400000      43.52060000      51.50470000
C       51.84870000      43.52190000      48.50520000
C       51.49350000      51.84730000      56.47880000
C       48.49420000      48.16260000      56.47880000
C       51.50950000      48.15560000      43.52410000
C       46.94100000      56.25810000      49.27740000
C       49.28210000      46.95050000      56.26330000
C       56.26530000      49.28890000      46.95290000
C       53.04680000      56.26520000      50.71300000
C       46.95190000      43.73590000      50.71680000
C       53.06040000      43.74080000      49.29280000
C       50.72390000      46.94230000      43.74130000
C       49.28800000      53.04810000      43.73530000
C       50.70600000      53.05910000      56.26000000
C       43.73610000      49.28130000      53.04820000
C       56.25810000      50.72340000      53.05900000
C       43.74050000      50.70640000      46.93990000
C       46.95320000      43.73480000      49.28700000
C       49.27610000      53.05770000      56.25870000
C       56.26390000      50.71870000      46.95180000
C       53.05900000      43.74190000      50.72260000
C       46.93960000      56.25920000      50.70720000
C       53.04810000      56.26410000      49.28320000
C       50.71790000      53.04950000      43.73670000
C       49.29400000      46.94090000      43.74000000
C       50.71200000      46.95190000      56.26470000
C       43.73470000      50.71110000      53.04710000
C       56.25950000      49.29360000      53.06010000
C       43.74190000      49.27660000      46.94100000
C       44.97810000      48.66240000      55.37460000
C       55.38460000      44.98620000      48.67220000
C       48.66280000      55.37320000      44.97650000
C       55.02450000      48.66410000      44.62740000
C       44.98570000      51.32770000      44.61580000
C       55.01170000      51.34580000      55.38210000
C       44.62530000      44.97770000      51.33550000
C       55.37220000      55.02440000      51.33800000
C       44.61800000      55.01180000      48.65430000
C       51.32670000      55.38350000      55.01520000
C       48.66370000      44.62410000      55.02090000
C       51.34680000      44.61910000      44.98730000
C       44.97550000      51.33590000      55.37260000
C       55.37470000      55.02230000      48.66450000
C       48.67330000      44.61650000      44.98480000
C       55.02190000      51.33760000      44.62540000
C       44.98830000      48.65420000      44.61790000
C       55.01430000      48.67230000      55.38420000
C       44.61540000      55.01380000      51.32780000
C       55.38200000      44.98820000      51.34570000
C       44.62780000      44.97560000      48.66200000
C       51.33720000      44.62680000      55.02350000
C       48.65320000      55.38090000      55.01270000
C       51.33630000      55.37590000      44.97910000
