240
Lattice="100.0 0.0 0.0 0.0 100.0 0.0 0.0 0.0 100.0" Properties=species:S:1:pos:R:3 name=C-53965-5632-560 pressure=0.000730994819946921 energy=-1813.34118097669 spacegroup=Oh times_found=1 pbc="T T T"
C       48.98060000      50.00000000      42.19640000
C       50.00000000      42.19650000      48.98010000
C       42.19650000      48.98010000      49.99940000
C       51.02050000      49.99990000      42.19660000
C       48.97950000      50.00010000      57.80340000
C       51.01940000      50.00000000      57.80360000
C       50.00020000      57.80350000      48.98000000
C       50.00000000      57.80350000      51.01990000
C       49.99980000      42.19650000      51.02000000
C       57.80350000      51.01990000      50.00060000
C       42.19650000      51.02010000      49.99940000
C       57.80350000      48.97990000      50.00060000
C       50.00060000      48.98000000      42.19650000
C       42.19660000      50.00010000      48.97950000
C       48.97990000      42.19650000      50.00000000
C       50.00060000      51.01990000      42.19650000
C       49.99940000      48.98010000      57.80350000
C       49.99940000      51.02000000      57.80350000
C       57.80360000      49.99990000      48.98060000
C       57.80340000      49.99990000      51.02050000
C       42.19640000      50.00010000      51.01940000
C       51.02010000      57.80350000      50.00000000
C       51.01990000      42.19650000      50.00010000
C       48.98010000      57.80350000      49.99990000
C       56.36780000      48.65310000      52.36960000
C       48.65270000      52.36920000      56.36780000
C       52.36930000      56.36790000      48.65320000
C       43.63190000      51.34700000      52.36870000
C       56.36810000      51.34680000      47.63130000
C       43.63220000      48.65320000      47.63040000
C       51.34640000      47.63090000      56.36810000
C       48.65360000      47.63080000      43.63200000
C       51.34740000      52.36910000      43.63210000
C       47.63090000      43.63210000      48.65300000
C       52.36900000      43.63200000      51.34710000
C       47.63080000      56.36800000      51.34670000
C       48.65300000      56.36800000      52.36900000
C       52.36870000      48.65310000      56.36810000
C       56.36810000      52.36910000      48.65360000
C       51.34660000      43.63210000      52.36930000
C       51.34710000      56.36790000      47.63090000
C       48.65320000      43.63210000      47.63080000
C       47.63040000      51.34700000      56.36780000
C       47.63130000      48.65310000      43.63190000
C       52.36960000      51.34680000      43.63220000
C       43.63210000      47.63090000      48.65270000
C       43.63200000      52.36920000      51.34640000
C       56.36780000      47.63080000      51.34740000
C       53.74790000      54.77030000      52.75270000
C       54.77010000      52.75240000      53.74840000
C       52.75210000      53.74810000      54.77050000
C       46.25170000      45.22970000      52.75220000
C       53.74820000      45.22960000      47.24790000
C       46.25220000      54.77030000      47.24720000
C       45.22940000      47.24760000      53.74770000
C       54.77060000      47.24750000      46.25230000
C       45.23000000      52.75250000      46.25160000
C       47.24710000      46.25200000      54.77010000
C       52.75280000      46.25190000      45.22990000
C       47.24790000      53.74810000      45.22940000
C       54.77020000      53.74800000      52.75280000
C       52.75220000      54.77030000      53.74820000
C       53.74780000      52.75240000      54.77060000
C       45.22940000      46.25200000      52.75210000
C       45.22990000      53.74810000      47.24720000
C       54.77050000      46.25180000      47.24790000
C       47.24720000      45.22970000      53.74790000
C       47.24790000      54.77030000      46.25170000
C       52.75270000      45.22960000      46.25220000
C       46.25150000      47.24760000      54.77010000
C       46.25230000      52.75250000      45.22940000
C       53.74840000      47.24750000      45.23000000
C       49.27410000      45.36300000      44.35150000
C       45.36300000      44.35160000      49.27350000
C       44.35190000      49.27380000      45.36260000
C       50.72670000      54.63690000      44.35150000
C       49.27340000      54.63700000      55.64840000
C       50.72570000      45.36300000      55.64860000
C       54.63710000      55.64840000      49.27410000
C       45.36300000      55.64850000      50.72580000
C       54.63690000      44.35150000      50.72660000
C       55.64880000      50.72610000      45.36340000
C       44.35120000      50.72630000      54.63660000
C       55.64810000      49.27380000      54.63740000
C       45.36340000      49.27380000      44.35120000
C       44.35150000      45.36310000      49.27340000
C       49.27410000      44.35150000      45.36300000
C       54.63740000      50.72610000      44.35190000
C       54.63660000      49.27380000      55.64880000
C       45.36260000      50.72630000      55.64810000
C       55.64860000      54.63690000      49.27420000
C       55.64840000      45.36290000      50.72670000
C       44.35150000      54.63710000      50.72580000
C       50.72660000      55.64840000      45.36300000
C       50.72580000      44.35160000      54.63710000
C       49.27350000      55.64850000      54.63690000
C       44.33320000      48.36470000      53.58640000
C       48.36500000      53.58680000      44.33340000
C       53.58690000      44.33340000      48.36490000
C       55.66620000      51.63540000      53.58720000
C       44.33380000      51.63550000      46.41280000
C       55.66670000      48.36450000      46.41360000
C       51.63580000      46.41310000      44.33370000
C       48.36410000      46.41330000      55.66640000
C       51.63500000      53.58680000      55.66660000
C       46.41340000      55.66650000      48.36430000
C       53.58680000      55.66650000      51.63560000
C       46.41300000      44.33360000      51.63520000
C       48.36420000      44.33360000      53.58670000
C       53.58720000      48.36450000      44.33380000
C       44.33370000      53.58690000      48.36410000
C       51.63520000      55.66650000      53.58690000
C       51.63560000      44.33350000      46.41340000
C       48.36490000      55.66650000      46.41300000
C       46.41360000      51.63540000      44.33320000
C       46.41280000      48.36470000      55.66620000
C       53.58640000      51.63540000      55.66670000
C       55.66660000      46.41310000      48.36500000
C       55.66640000      53.58680000      51.63580000
C       44.33330000      46.41330000      51.63500000
C       43.09670000      50.00010000      52.07200000
C       50.00050000      52.07250000      43.09680000
C       52.07240000      43.09680000      50.00020000
C       56.90300000      49.99990000      52.07300000
C       43.09700000      50.00010000      47.92700000
C       56.90330000      49.99990000      47.92800000
C       50.00050000      47.92740000      43.09680000
C       49.99950000      47.92750000      56.90320000
C       49.99950000      52.07260000      56.90320000
C       47.92760000      56.90320000      49.99980000
C       52.07260000      56.90320000      50.00010000
C       47.92740000      43.09680000      49.99990000
C       49.99980000      43.09680000      52.07260000
C       52.07300000      49.99990000      43.09700000
C       43.09680000      52.07260000      49.99950000
C       49.99990000      56.90320000      52.07250000
C       50.00010000      43.09680000      47.92750000
C       50.00020000      56.90320000      47.92740000
C       47.92800000      50.00000000      43.09670000
C       47.92700000      50.00010000      56.90300000
C       52.07200000      50.00000000      56.90330000
C       56.90320000      47.92740000      50.00050000
C       56.90320000      52.07240000      50.00050000
C       43.09680000      47.92760000      49.99950000
C       53.58660000      44.33350000      51.63570000
C       44.33330000      51.63550000      53.58640000
C       51.63590000      53.58670000      44.33360000
C       46.41310000      55.66660000      51.63510000
C       53.58700000      55.66640000      48.36480000
C       46.41320000      44.33350000      48.36440000
C       55.66620000      48.36450000      53.58720000
C       44.33380000      48.36460000      46.41280000
C       55.66680000      51.63530000      46.41360000
C       48.36500000      46.41320000      44.33340000
C       51.63500000      46.41320000      55.66660000
C       48.36420000      53.58690000      55.66630000
C       44.33340000      53.58690000      51.63500000
C       51.63510000      44.33350000      53.58700000
C       53.58720000      51.63530000      44.33380000
C       55.66630000      46.41310000      51.63590000
C       55.66670000      53.58670000      48.36500000
C       44.33360000      46.41320000      48.36420000
C       48.36440000      55.66650000      53.58660000
C       48.36480000      44.33350000      46.41310000
C       51.63580000      55.66640000      46.41330000
C       46.41360000      48.36460000      44.33330000
C       46.41280000      51.63550000      55.66620000
C       53.58640000      48.36460000      55.66680000
C       49.27430000      54.63700000      44.35140000
C       54.63700000      44.35150000      49.27420000
C       44.35120000      49.27390000      54.63660000
C       50.72660000      45.36300000      44.35160000
C       49.27330000      45.36310000      55.64850000
C       50.72590000      54.63700000      55.64850000
C       45.36310000      55.64850000      49.27340000
C       54.63700000      55.64840000      50.72650000
C       45.36290000      44.35160000      50.72590000
C       55.64810000      50.72620000      54.63740000
C       44.35190000      50.72620000      45.36260000
C       55.64880000      49.27370000      45.36340000
C       54.63740000      49.27370000      44.35190000
C       44.35160000      54.63710000      49.27330000
C       49.27340000      44.35160000      54.63700000
C       45.36340000      50.72620000      44.35120000
C       45.36260000      49.27390000      55.64810000
C       54.63660000      50.72620000      55.64880000
C       55.64850000      45.36290000      49.27420000
C       55.64850000      54.63690000      50.72660000
C       44.35140000      45.36310000      50.72580000
C       50.72590000      55.64850000      54.63700000
C       50.72650000      44.35150000      45.36310000
C       49.27420000      55.64840000      45.36290000
C       45.22940000      52.75250000      53.74770000
C       52.75290000      53.74800000      45.22990000
C       53.74780000      45.22970000      52.75280000
C       54.77000000      47.24750000      53.74840000
C       45.22990000      47.24760000      46.25160000
C       54.77060000      52.75240000      46.25230000
C       47.24790000      46.25190000      45.22950000
C       52.75210000      46.25190000      54.77060000
C       47.24720000      53.74810000      54.77010000
C       46.25180000      54.77040000      52.75210000
C       53.74830000      54.77030000      47.24780000
C       46.25210000      45.22970000      47.24730000
C       52.75210000      45.22970000      53.74830000
C       53.74850000      52.75240000      45.22990000
C       45.22950000      53.74820000      52.75210000
C       47.24730000      54.77040000      53.74780000
C       47.24780000      45.22970000      46.25180000
C       52.75280000      54.77030000      46.25210000
C       46.25220000      47.24760000      45.22940000
C       46.25160000      52.75250000      54.77000000
C       53.74770000      47.24750000      54.77060000
C       54.77010000      46.25190000      52.75280000
C       54.77060000      53.74800000      47.24790000
C       45.22980000      46.25200000      47.24720000
C       48.65340000      56.36790000      47.63070000
C       56.36800000      47.63080000      48.65360000
C       47.63040000      48.65320000      56.36780000
C       51.34700000      43.63200000      47.63100000
C       48.65290000      43.63210000      52.36910000
C       51.34680000      56.36790000      52.36920000
C       43.63220000      52.36920000      48.65260000
C       56.36790000      52.36910000      51.34730000
C       43.63190000      47.63090000      51.34640000
C       52.36870000      51.34690000      56.36810000
C       47.63130000      51.34690000      43.63190000
C       52.36960000      48.65300000      43.63220000
C       56.36810000      48.65300000      47.63130000
C       47.63100000      56.36800000      48.65290000
C       48.65260000      47.63090000      56.36790000
C       43.63220000      51.34690000      47.63040000
C       43.63190000      48.65320000      52.36870000
C       56.36780000      51.34680000      52.36960000
C       52.36920000      43.63200000      48.65330000
C       52.36910000      56.36790000      51.34700000
C       47.63070000      43.63210000      51.34680000
C       51.34640000      52.36920000      56.36800000
C       51.34730000      47.63080000      43.63220000
C       48.65360000      52.36910000      43.63190000
