240
Lattice="100.0 0.0 0.0 0.0 100.0 0.0 0.0 0.0 100.0" Properties=species:S:1:pos:R:3 name=C-53965-5632-680 pressure=-69.2984707431474 energy=-1780.64345078877 spacegroup=Oh times_found=1 pbc="T T T"
C       45.32300000      53.63150000      52.61040000
C       53.63770000      52.61610000      45.33110000
C       52.61040000      45.32470000      53.63380000
C       45.32980000      46.36480000      47.38260000
C       54.67410000      53.63910000      47.39500000
C       54.67310000      46.36460000      52.61200000
C       53.63290000      47.38680000      54.67440000
C       46.36020000      52.60620000      54.67280000
C       46.36920000      47.39080000      45.32170000
C       52.61200000      54.67740000      46.37010000
C       47.39340000      45.32810000      46.35930000
C       47.38420000      54.66980000      53.63680000
C       54.67020000      53.63520000      52.61740000
C       46.36710000      52.61320000      45.32560000
C       47.38800000      45.32260000      53.62990000
C       54.67700000      46.36850000      47.38960000
C       45.32690000      53.63540000      47.38800000
C       45.32590000      46.36090000      52.60500000
C       46.36230000      47.38390000      54.66890000
C       53.63080000      52.60920000      54.67830000
C       53.63980000      47.39380000      45.32720000
C       47.38960000      54.67530000      46.36620000
C       52.61580000      45.33020000      46.36320000
C       52.60660000      54.67190000      53.64070000
C       52.56420000      43.69560000      49.25000000
C       43.69240000      49.24830000      52.55580000
C       49.25640000      52.56550000      43.69540000
C       52.55800000      56.30640000      50.75390000
C       47.44090000      43.69250000      50.74060000
C       47.43690000      56.30550000      49.25560000
C       43.69560000      50.74660000      47.43480000
C       56.30820000      49.25720000      47.44310000
C       56.30370000      50.74790000      52.56640000
C       49.24910000      47.43390000      56.30350000
C       50.74150000      52.55670000      56.30840000
C       50.75300000      47.44390000      43.69270000
C       47.44200000      43.69360000      49.24610000
C       56.30440000      49.25340000      52.56520000
C       50.75090000      52.56610000      43.69650000
C       47.43580000      56.30440000      50.75000000
C       52.56310000      43.69450000      50.74440000
C       52.55910000      56.30750000      49.25940000
C       56.30760000      50.75170000      47.44420000
C       43.69620000      49.25210000      47.43360000
C       43.69180000      50.74280000      52.55690000
C       50.74360000      47.43450000      56.30460000
C       49.24700000      52.55610000      56.30730000
C       49.25850000      47.44330000      43.69160000
C       56.30640000      47.44090000      50.75000000
C       47.43390000      50.74150000      56.30460000
C       50.74660000      56.30820000      47.44420000
C       56.30550000      52.56420000      49.25940000
C       43.69560000      47.43690000      49.24610000
C       43.69240000      52.55800000      50.74450000
C       47.44390000      49.25640000      43.69160000
C       52.56550000      50.75300000      43.69650000
C       52.55670000      49.24910000      56.30730000
C       50.74790000      43.69240000      52.55690000
C       49.24830000      56.30370000      52.56520000
C       49.25720000      43.69570000      47.43360000
C       43.69450000      47.43580000      50.74060000
C       52.55610000      50.74360000      56.30840000
C       49.25210000      56.30760000      47.44310000
C       43.69360000      52.55910000      49.25000000
C       56.30760000      47.44200000      49.25550000
C       56.30440000      52.56310000      50.75390000
C       52.56610000      49.25850000      43.69540000
C       47.44330000      50.75090000      43.69270000
C       47.43450000      49.24700000      56.30350000
C       49.25340000      43.69180000      52.55580000
C       50.74280000      56.30430000      52.56640000
C       50.75170000      43.69630000      47.43480000
C       55.61620000      53.61390000      48.54470000
C       53.60690000      48.53500000      55.61810000
C       48.53280000      55.61320000      53.61360000
C       55.61690000      46.39070000      51.46370000
C       44.38090000      53.60710000      51.46070000
C       44.38600000      46.38830000      48.53090000
C       53.61410000      51.46790000      44.38730000
C       46.39430000      48.54050000      44.37970000
C       46.38470000      51.45660000      55.61490000
C       48.54270000      44.38560000      46.38420000
C       51.46260000      55.61980000      46.39480000
C       51.46180000      44.38140000      53.60740000
C       44.38310000      53.60930000      48.53630000
C       46.38590000      48.53210000      55.61270000
C       51.45730000      55.61440000      53.61580000
C       44.38380000      46.38610000      51.45530000
C       55.61400000      53.61170000      51.46910000
C       55.61910000      46.39280000      48.53930000
C       46.39310000      51.46500000      44.38190000
C       53.61530000      48.54340000      44.38510000
C       53.60570000      51.45950000      55.62030000
C       51.46720000      44.38680000      46.38640000
C       48.53820000      55.61860000      46.39260000
C       48.53730000      44.38020000      53.60520000
C       50.71120000      49.27780000      57.80760000
C       49.27960000      57.80680000      50.72200000
C       57.80790000      50.72040000      49.28970000
C       50.72220000      50.72280000      42.19340000
C       49.28940000      49.28890000      42.19130000
C       49.27720000      50.71060000      57.80760000
C       49.28700000      42.19260000      49.27690000
C       50.71410000      57.80850000      49.28970000
C       50.71930000      42.19210000      50.71140000
C       57.80740000      49.28590000      50.72200000
C       42.19150000      50.71300000      50.71140000
C       42.19320000      49.28070000      49.27690000
C       49.27780000      49.27720000      57.80660000
C       50.71300000      57.80740000      50.72310000
C       42.19260000      50.71410000      49.27800000
C       49.28890000      50.72220000      42.19240000
C       50.72280000      49.28940000      42.19240000
C       50.71060000      50.71110000      57.80870000
C       50.72040000      42.19320000      49.27800000
C       49.28070000      57.80790000      49.28860000
C       49.28590000      42.19150000      50.71030000
C       42.19210000      49.27960000      50.71030000
C       57.80680000      50.71930000      50.72310000
C       57.80850000      49.28700000      49.28860000
C       48.59140000      56.81460000      51.40890000
C       56.81670000      51.40860000      48.60130000
C       51.40030000      48.59060000      56.81620000
C       48.59900000      43.18420000      48.58900000
C       51.40310000      56.81790000      48.60130000
C       51.40650000      43.18330000      51.40080000
C       56.81580000      48.59690000      51.40890000
C       43.18210000      51.40100000      51.40080000
C       43.18540000      48.59350000      48.58900000
C       51.40940000      51.41050000      43.18590000
C       48.60080000      48.59970000      43.18170000
C       48.58950000      51.39920000      56.81620000
C       51.40100000      56.81580000      51.41100000
C       43.18420000      51.40310000      48.59110000
C       48.59060000      48.58950000      56.81410000
C       51.40860000      43.18540000      48.59110000
C       48.59340000      56.81670000      48.59920000
C       48.59690000      43.18210000      51.39870000
C       43.18330000      48.59140000      51.39870000
C       56.81460000      51.40650000      51.41100000
C       56.81790000      48.59900000      48.59920000
C       48.59970000      51.40940000      43.18380000
C       51.41050000      48.60080000      43.18380000
C       51.39920000      51.40030000      56.81830000
C       46.36460000      45.32300000      52.60500000
C       45.32810000      52.61200000      46.36320000
C       52.61610000      46.36920000      45.32560000
C       46.36480000      54.67410000      47.38960000
C       53.63910000      45.32980000      47.38800000
C       53.63150000      54.67310000      52.61740000
C       45.32470000      47.38420000      53.62990000
C       54.66980000      52.61030000      53.64070000
C       54.67740000      47.39340000      46.36620000
C       52.60620000      53.63290000      54.67830000
C       47.38680000      46.36020000      54.66890000
C       47.39080000      53.63770000      45.32720000
C       53.63520000      45.32590000      52.61040000
C       54.67530000      52.61580000      46.37010000
C       47.39380000      46.36710000      45.32170000
C       53.63540000      54.67700000      47.39500000
C       46.36850000      45.32690000      47.38260000
C       46.36090000      54.67020000      52.61200000
C       54.67200000      47.38800000      53.63680000
C       45.32260000      52.60660000      53.63380000
C       45.33020000      47.38970000      46.35930000
C       47.38390000      53.63070000      54.67440000
C       52.60920000      46.36230000      54.67280000
C       52.61320000      53.63990000      45.33110000
C       51.45950000      46.38590000      55.61490000
C       46.38610000      55.61400000      51.46370000
C       55.61860000      51.46720000      46.39480000
C       51.46500000      53.61530000      44.38730000
C       48.54340000      46.39310000      44.37970000
C       48.53210000      53.60570000      55.61810000
C       46.39280000      44.38310000      48.53090000
C       53.60930000      55.61910000      48.54470000
C       53.61170000      44.38380000      51.46070000
C       55.61440000      48.53730000      53.61360000
C       44.38020000      51.45730000      53.60740000
C       44.38670000      48.53820000      46.38420000
C       48.53500000      46.38470000      55.61270000
C       53.60720000      55.61690000      51.46910000
C       44.38560000      51.46270000      46.38640000
C       48.54050000      53.61410000      44.38510000
C       51.46790000      46.39430000      44.38190000
C       51.45660000      53.60690000      55.62030000
C       53.61390000      44.38600000      48.53630000
C       46.38830000      55.61620000      48.53930000
C       46.39070000      44.38090000      51.45530000
C       44.38140000      48.53280000      53.60520000
C       55.61320000      51.46180000      53.61580000
C       55.61980000      48.54270000      46.39260000
C       55.77100000      49.26840000      54.77790000
C       49.26340000      54.76950000      55.77730000
C       54.77240000      55.77680000      49.27750000
C       55.77760000      50.73630000      45.23070000
C       44.22960000      49.27090000      45.22100000
C       44.22180000      50.72450000      54.77040000
C       49.27590000      45.22990000      44.22160000
C       50.73270000      54.77870000      44.22980000
C       50.72800000      45.22180000      55.77130000
C       54.77590000      44.22710000      50.72960000
C       45.22300000      55.77180000      50.73110000
C       45.22870000      44.22430000      49.26180000
C       44.22240000      49.26370000      54.76930000
C       50.72410000      54.77010000      55.77840000
C       45.22410000      55.77290000      49.27040000
C       44.22900000      50.73160000      45.22210000
C       55.77820000      49.27550000      45.22960000
C       55.77040000      50.72910000      54.77900000
C       50.73660000      45.23050000      44.22270000
C       49.27200000      54.77820000      44.22870000
C       49.26730000      45.22130000      55.77020000
C       45.22760000      44.22320000      50.72250000
C       54.77130000      55.77570000      50.73830000
C       54.77700000      44.22820000      49.26890000
C       55.77680000      45.22870000      49.27040000
C       45.22180000      49.26340000      55.77020000
C       49.27090000      55.77760000      45.22960000
C       55.77180000      54.77590000      50.73830000
C       44.22710000      45.22300000      50.72250000
C       44.22430000      54.77240000      49.26890000
C       45.22990000      50.73280000      44.22270000
C       54.77870000      49.27590000      44.22870000
C       54.76950000      50.72800000      55.77840000
C       49.26840000      44.22190000      54.76930000
C       50.72450000      55.77100000      54.77900000
C       50.73630000      44.22960000      45.22210000
C       44.22820000      45.22410000      49.26180000
C       54.77010000      49.26720000      55.77730000
C       50.73160000      55.77820000      45.23070000
C       44.22320000      54.77130000      50.72960000
C       55.77570000      45.22760000      50.73110000
C       55.77290000      54.77700000      49.27750000
C       54.77820000      50.73660000      44.22980000
C       45.23050000      49.27200000      44.22160000
C       45.22130000      50.72410000      55.77130000
C       50.72910000      44.22240000      54.77040000
C       49.26370000      55.77040000      54.77790000
C       49.27550000      44.22900000      45.22100000
