240
Lattice="100.0 0.0 0.0 0.0 100.0 0.0 0.0 0.0 100.0" Properties=species:S:1:pos:R:3 name=C-53965-5632-389 pressure=0.0487276667182461 spacegroup=Th times_found=1 energy=-1683.83755742188 pbc="T T T"
C       43.61370000      48.45410000      50.73290000
C       48.45750000      50.73190000      43.61280000
C       50.73670000      43.61320000      48.45800000
C       56.38620000      51.54590000      50.73300000
C       43.61200000      51.53840000      49.26690000
C       56.38810000      48.46150000      49.26720000
C       51.54270000      49.26780000      43.61290000
C       48.45820000      49.26630000      56.38710000
C       51.54170000      50.73400000      56.38710000
C       49.26330000      56.38670000      48.45760000
C       50.72920000      56.38760000      51.54200000
C       49.27080000      43.61250000      51.54230000
C       43.61380000      48.45410000      49.26700000
C       48.45730000      50.73220000      56.38710000
C       50.73670000      43.61330000      51.54240000
C       56.38630000      51.54590000      49.26710000
C       43.61190000      51.53850000      50.73280000
C       56.38800000      48.46160000      50.73310000
C       51.54250000      49.26810000      56.38720000
C       48.45830000      49.26600000      43.61290000
C       51.54180000      50.73370000      43.61290000
C       49.26330000      56.38680000      51.54200000
C       50.72920000      56.38750000      48.45770000
C       49.27080000      43.61240000      48.45800000
C       49.28710000      54.24180000      57.05530000
C       54.23790000      57.05790000      49.28960000
C       57.05580000      49.29400000      54.24220000
C       50.71270000      45.75860000      57.05560000
C       49.29230000      45.75730000      42.94470000
C       50.70790000      54.24230000      42.94450000
C       45.76210000      42.94210000      49.28980000
C       54.24620000      42.94710000      50.71050000
C       45.75380000      57.05300000      50.71000000
C       42.94410000      50.70630000      54.24190000
C       57.05510000      50.71430000      45.75800000
C       42.94500000      49.28540000      45.75790000
C       49.28730000      54.24140000      42.94440000
C       54.23790000      57.05790000      50.71020000
C       57.05590000      49.29370000      45.75810000
C       50.71290000      45.75820000      42.94470000
C       49.29210000      45.75770000      57.05550000
C       50.70770000      54.24270000      57.05530000
C       45.76210000      42.94210000      50.71040000
C       54.24620000      42.94700000      49.29000000
C       45.75380000      57.05290000      49.28950000
C       42.94420000      50.70600000      45.75780000
C       57.05500000      50.71460000      54.24210000
C       42.94490000      49.28570000      54.24200000
C       52.17740000      46.10900000      55.27290000
C       46.10450000      55.27060000      52.17490000
C       55.27160000      52.17810000      46.10760000
C       47.82250000      53.89130000      55.27270000
C       52.17290000      53.89350000      44.72710000
C       47.82720000      46.10620000      44.72730000
C       53.89550000      44.72950000      52.17530000
C       46.11070000      44.72490000      47.82500000
C       53.88930000      55.27500000      47.82480000
C       44.72850000      47.82170000      46.10760000
C       55.27400000      47.82810000      53.89250000
C       44.72590000      52.17220000      53.89230000
C       52.17750000      46.10870000      44.72730000
C       46.10450000      55.27050000      47.82470000
C       55.27150000      52.17830000      53.89240000
C       47.82260000      53.89100000      44.72710000
C       52.17280000      53.89380000      55.27270000
C       47.82710000      46.10650000      55.27290000
C       53.89550000      44.72940000      47.82510000
C       46.11070000      44.72500000      52.17520000
C       53.88930000      55.27510000      52.17500000
C       44.72840000      47.82190000      53.89240000
C       55.27410000      47.82780000      46.10770000
C       44.72600000      52.17190000      46.10750000
C       54.23190000      46.92400000      46.40170000
C       46.92370000      46.39990000      54.23020000
C       46.39910000      54.22790000      46.92150000
C       45.76810000      53.07580000      46.40140000
C       54.22820000      53.08100000      53.59840000
C       45.77170000      46.91920000      53.59840000
C       53.07620000      53.60030000      54.23000000
C       46.91960000      53.59650000      45.76980000
C       53.08050000      46.40330000      45.77000000
C       53.60090000      45.77190000      46.92180000
C       46.40400000      45.76790000      53.07840000
C       53.59590000      54.23230000      53.07830000
C       54.23190000      46.92420000      53.59860000
C       46.92380000      46.39970000      45.77000000
C       46.39910000      54.22810000      53.07820000
C       45.76810000      53.07600000      53.59830000
C       54.22830000      53.08080000      46.40160000
C       45.77180000      46.91900000      46.40160000
C       53.07630000      53.60010000      45.76980000
C       46.91950000      53.59670000      54.23000000
C       53.08040000      46.40350000      54.23020000
C       53.60090000      45.77210000      53.07850000
C       46.40410000      45.76770000      46.92170000
C       53.59600000      54.23210000      46.92160000
C       55.93640000      53.99230000      48.45820000
C       53.98970000      48.46070000      55.93880000
C       48.45470000      55.93790000      53.98870000
C       44.06360000      46.00760000      48.45830000
C       55.94100000      46.01470000      51.54190000
C       44.05890000      53.98540000      51.54160000
C       46.01020000      51.53960000      55.93860000
C       53.98800000      51.54390000      44.06130000
C       46.01210000      48.45570000      44.06130000
C       51.54520000      44.06230000      53.98900000
C       48.46180000      44.06030000      46.01130000
C       51.53830000      55.93950000      46.01100000
C       55.93640000      53.99240000      51.54170000
C       53.98980000      48.46040000      44.06140000
C       48.45480000      55.93770000      46.01100000
C       44.06360000      46.00770000      51.54180000
C       55.94110000      46.01460000      48.45840000
C       44.05900000      53.98530000      48.45810000
C       46.01030000      51.53930000      44.06120000
C       53.98790000      51.54430000      55.93870000
C       46.01200000      48.45610000      55.93870000
C       51.54530000      44.06210000      46.01130000
C       48.46170000      44.06050000      53.98900000
C       51.53820000      55.93970000      53.98870000
C       56.25630000      50.72660000      44.52010000
C       50.72620000      44.52070000      56.25680000
C       44.51640000      56.25340000      50.72280000
C       43.74390000      49.27310000      44.52000000
C       56.25700000      49.28070000      55.48000000
C       43.74290000      50.71960000      55.47980000
C       49.27360000      55.47970000      56.25640000
C       50.71990000      55.48020000      43.74320000
C       49.28020000      44.51950000      43.74350000
C       55.48360000      43.74660000      50.72330000
C       44.52370000      43.74020000      49.27700000
C       55.47630000      56.25980000      49.27680000
C       56.25610000      50.72690000      55.48000000
C       50.72640000      44.52030000      43.74360000
C       44.51640000      56.25340000      49.27670000
C       43.74370000      49.27340000      55.47990000
C       56.25710000      49.28040000      44.52020000
C       43.74300000      50.71930000      44.52000000
C       49.27380000      55.47930000      43.74320000
C       50.71980000      55.48050000      56.25650000
C       49.28010000      44.51980000      56.25680000
C       55.48360000      43.74660000      49.27720000
C       44.52370000      43.74020000      50.72320000
C       55.47630000      56.25980000      50.72300000
C       48.59460000      46.81070000      43.65540000
C       46.81540000      43.65340000      48.59280000
C       43.65620000      48.58890000      46.81170000
C       51.40550000      53.18900000      43.65520000
C       48.59070000      53.18770000      56.34460000
C       51.40910000      46.81270000      56.34480000
C       53.18460000      56.34650000      48.59250000
C       46.80800000      56.34290000      51.40710000
C       53.19200000      43.65720000      51.40750000
C       56.34390000      51.41100000      46.81170000
C       43.65440000      51.40370000      53.18820000
C       56.34550000      48.59650000      53.18840000
C       48.59450000      46.81100000      56.34480000
C       46.81540000      43.65350000      51.40750000
C       43.65610000      48.58900000      53.18830000
C       51.40540000      53.18930000      56.34460000
C       48.59090000      53.18730000      43.65520000
C       51.40930000      46.81230000      43.65540000
C       53.18460000      56.34660000      51.40720000
C       46.80800000      56.34280000      48.59250000
C       53.19200000      43.65710000      48.59290000
C       56.34380000      51.41110000      53.18830000
C       43.65450000      51.40350000      46.81160000
C       56.34560000      48.59630000      46.81180000
C       51.60960000      44.75910000      44.84660000
C       44.76130000      44.84340000      51.60650000
C       44.84550000      51.60330000      44.75820000
C       48.39050000      55.24060000      44.84620000
C       51.60330000      55.24280000      55.15350000
C       48.39650000      44.75750000      55.15370000
C       55.23870000      55.15670000      51.60640000
C       44.75530000      55.15050000      48.39330000
C       55.24480000      44.84940000      48.39380000
C       55.15460000      48.39640000      44.75840000
C       44.84730000      48.39070000      55.24170000
C       55.15260000      51.60960000      55.24170000
C       51.60950000      44.75940000      55.15380000
C       44.76130000      44.84330000      48.39360000
C       44.84540000      51.60360000      55.24160000
C       48.39040000      55.24090000      55.15340000
C       51.60350000      55.24250000      44.84630000
C       48.39670000      44.75720000      44.84650000
C       55.23870000      55.15660000      48.39350000
C       44.75520000      55.15060000      51.60620000
C       55.24470000      44.84950000      51.60670000
C       55.15450000      48.39670000      55.24180000
C       44.84740000      48.39040000      44.75830000
C       55.15270000      51.60930000      44.75830000
C       43.61370000      50.73150000      51.87540000
C       50.73420000      51.87580000      43.61410000
C       51.87930000      43.61530000      50.73540000
C       56.38620000      49.26860000      51.87560000
C       43.61460000      49.26100000      48.12440000
C       56.38540000      50.73890000      48.12450000
C       49.26590000      48.12390000      43.61420000
C       50.73630000      48.12510000      56.38590000
C       49.26360000      51.87530000      56.38580000
C       48.12070000      56.38470000      50.73500000
C       51.87180000      56.38690000      49.26460000
C       48.12820000      43.61310000      49.26490000
C       43.61380000      50.73140000      48.12440000
C       50.73410000      51.87610000      56.38580000
C       51.87930000      43.61530000      49.26500000
C       56.38630000      49.26850000      48.12460000
C       43.61460000      49.26110000      51.87550000
C       56.38540000      50.73900000      51.87560000
C       49.26580000      48.12420000      56.38590000
C       50.73640000      48.12470000      43.61420000
C       49.26370000      51.87490000      43.61410000
C       48.12070000      56.38470000      49.26460000
C       51.87180000      56.38690000      50.73510000
C       48.12820000      43.61310000      50.73540000
C       56.29160000      46.99680000      50.76760000
C       46.99250000      50.76590000      56.28980000
C       50.76380000      56.29030000      46.99290000
C       43.70830000      53.00330000      50.76730000
C       56.28810000      53.01060000      49.23250000
C       43.71190000      46.98940000      49.23250000
C       53.00730000      49.23450000      56.29000000
C       46.99360000      49.23060000      43.71010000
C       53.00660000      50.76910000      43.71010000
C       49.23620000      43.70960000      46.99320000
C       50.77110000      43.71060000      53.00710000
C       49.22880000      56.28950000      53.00670000
C       56.29170000      46.99670000      49.23270000
C       46.99270000      50.76550000      43.71000000
C       50.76380000      56.29040000      53.00680000
C       43.70840000      53.00320000      49.23240000
C       56.28810000      53.01060000      50.76750000
C       43.71190000      46.98940000      50.76750000
C       53.00750000      49.23410000      43.71020000
C       46.99340000      49.23090000      56.28990000
C       53.00640000      50.76940000      56.28990000
C       49.23620000      43.70970000      53.00710000
C       50.77120000      43.71050000      46.99330000
C       49.22890000      56.28940000      46.99290000
