240
Lattice="100.0 0.0 0.0 0.0 100.0 0.0 0.0 0.0 100.0" Properties=species:S:1:pos:R:3 name=C-53965-5632-53 pressure=0.03236352278644 spacegroup=C1 times_found=1 energy=-1785.91108174244 pbc="T T T"
C       56.57720000      50.70410000      52.64460000
C       50.90940000      52.45580000      56.59010000
C       52.61010000      56.80860000      50.67730000
C       43.34790000      50.53770000      47.65440000
C       42.96710000      50.37660000      53.84790000
C       56.41710000      49.45200000      47.60750000
C       49.14060000      52.59670000      43.26130000
C       48.99510000      47.49380000      56.44770000
C       50.58190000      47.56430000      43.55290000
C       47.56830000      56.53660000      49.01750000
C       47.76120000      42.84890000      50.75110000
C       53.08250000      43.21690000      48.54620000
C       56.53830000      49.20700000      52.57110000
C       50.49680000      47.44970000      56.50380000
C       53.83610000      43.07990000      49.74830000
C       43.49860000      49.05180000      47.68420000
C       43.19580000      51.50520000      53.01790000
C       56.44760000      50.94610000      47.62170000
C       49.08270000      47.51480000      43.55920000
C       49.42370000      52.51730000      56.61290000
C       50.62550000      52.61430000      43.17190000
C       47.78760000      42.85330000      49.28600000
C       47.59430000      56.52360000      50.52040000
C       52.62780000      56.76470000      49.18800000
C       49.34440000      56.70650000      52.33010000
C       56.92000000      52.61100000      49.50590000
C       52.39090000      49.07620000      56.80920000
C       50.90290000      56.91620000      47.37250000
C       50.75020000      42.91670000      52.82100000
C       49.44040000      42.89570000      47.46030000
C       43.03620000      52.68890000      50.70320000
C       43.51970000      47.22840000      49.42740000
C       56.58030000      47.49670000      50.76070000
C       47.34320000      49.37210000      43.14250000
C       47.51610000      50.90100000      56.72850000
C       52.34810000      50.82870000      43.14380000
C       49.34190000      42.88150000      52.63330000
C       56.62040000      47.57130000      49.35370000
C       52.52220000      50.51390000      56.97610000
C       50.86190000      42.91890000      47.25540000
C       50.78060000      56.80940000      52.36910000
C       49.44670000      56.97570000      47.32280000
C       43.52800000      47.14030000      50.85020000
C       43.11480000      52.43710000      49.28770000
C       56.83390000      52.54500000      50.95900000
C       47.36620000      50.82970000      43.18840000
C       47.39510000      49.48140000      56.68930000
C       52.30560000      49.39160000      43.25290000
C       55.30950000      47.25540000      47.46800000
C       46.81630000      47.63150000      55.35090000
C       47.50990000      55.64960000      46.73140000
C       44.72410000      46.63680000      52.71900000
C       44.49580000      52.77980000      47.29600000
C       55.37870000      52.97720000      52.85590000
C       52.81240000      47.52650000      44.75870000
C       53.21770000      52.47260000      55.73040000
C       46.96140000      52.75430000      44.62400000
C       52.80020000      55.48590000      52.83290000
C       52.67860000      44.18510000      46.31270000
C       47.27470000      44.22430000      52.83730000
C       55.63030000      53.25640000      47.55930000
C       47.23880000      52.85550000      55.36620000
C       47.39700000      44.29990000      47.25310000
C       44.26010000      53.64760000      52.52920000
C       44.79400000      46.83700000      47.38620000
C       55.11440000      47.06390000      52.59460000
C       52.80000000      52.83130000      44.48520000
C       52.75850000      47.24450000      55.27860000
C       46.80420000      47.42310000      44.46400000
C       52.45990000      44.12710000      53.59430000
C       52.81150000      55.45920000      46.97800000
C       47.41490000      55.35430000      52.80980000
C       57.18340000      48.69780000      48.62880000
C       48.42810000      48.61200000      57.20470000
C       48.64130000      57.36550000      48.45200000
C       43.29900000      48.25690000      51.80590000
C       42.68880000      51.18100000      48.75470000
C       57.31850000      51.36000000      51.58610000
C       51.20700000      48.62420000      42.75020000
C       51.42000000      51.33500000      57.39640000
C       48.48140000      51.48280000      42.60030000
C       51.48790000      57.45150000      51.29910000
C       51.81380000      42.54150000      48.28940000
C       48.89210000      42.32080000      51.42930000
C       57.29340000      51.47630000      48.70080000
C       48.66980000      51.50380000      57.31960000
C       48.91810000      42.27910000      48.63010000
C       42.65570000      51.66270000      51.66820000
C       42.97530000      48.39770000      48.86410000
C       57.21460000      48.56430000      51.49160000
C       51.25310000      51.50110000      42.51600000
C       51.19270000      48.46760000      57.27510000
C       48.47090000      48.57900000      42.72950000
C       51.81360000      42.97130000      51.72710000
C       51.53950000      57.46080000      48.52070000
C       48.64280000      57.27030000      51.21340000
C       43.79880000      53.73290000      51.18740000
C       53.12500000      51.52490000      44.08060000
C       51.17940000      43.59900000      53.91460000
C       56.16200000      53.54220000      48.84970000
C       55.52840000      46.72110000      51.30780000
C       44.36480000      46.36340000      48.63640000
C       46.78040000      51.58680000      55.77250000
C       46.47030000      48.71020000      43.95370000
C       53.20770000      48.43910000      55.84310000
C       48.66530000      43.86170000      46.78270000
C       48.71860000      55.75370000      53.16520000
C       51.56900000      55.97170000      46.54340000
C       44.27500000      46.12200000      51.49420000
C       53.08390000      48.82680000      44.24040000
C       51.48780000      55.88750000      53.14550000
C       55.66540000      46.80580000      48.72210000
C       55.90990000      53.40110000      51.61920000
C       44.01850000      53.21550000      48.54400000
C       46.54950000      48.96290000      55.73930000
C       46.55120000      51.49110000      44.14740000
C       53.47570000      51.16620000      56.24230000
C       48.79410000      56.18350000      46.42100000
C       48.51910000      43.77390000      53.35080000
C       51.31140000      43.74440000      46.25850000
C       53.34290000      44.25610000      47.57870000
C       44.21250000      47.99870000      52.95820000
C       48.26410000      53.31410000      44.17450000
C       46.88380000      43.71610000      51.51960000
C       46.88850000      55.63680000      48.00490000
C       53.39160000      55.98170000      51.61150000
C       55.53100000      48.54910000      46.93250000
C       55.73970000      51.63620000      53.38410000
C       44.07210000      51.48800000      46.79880000
C       51.94790000      53.10540000      55.67950000
C       51.57730000      46.85560000      44.36320000
C       48.00520000      46.85120000      55.51990000
C       53.35270000      55.86700000      48.30310000
C       44.21030000      52.49210000      53.32590000
C       48.08200000      46.81420000      44.46480000
C       46.87820000      55.72160000      51.46540000
C       46.95690000      43.76790000      48.52200000
C       52.87800000      44.05370000      52.20810000
C       55.56450000      51.97980000      46.95080000
C       55.62310000      48.27300000      53.24340000
C       44.34250000      48.16030000      46.89650000
C       51.43380000      46.72290000      55.69430000
C       51.56660000      53.40600000      43.98470000
C       48.53990000      53.32090000      55.77630000
C       58.22640000      49.23630000      50.79560000
C       49.22880000      50.70310000      58.30650000
C       50.76720000      58.42310000      49.18330000
C       42.14380000      49.04150000      49.76460000
C       42.08560000      50.56370000      51.09270000
C       58.25010000      50.72010000      49.36980000
C       50.55940000      50.71720000      41.59330000
C       50.56310000      49.17850000      58.28790000
C       49.14030000      49.24540000      41.71540000
C       49.29560000      58.33440000      50.60560000
C       49.84940000      41.53410000      49.37070000
C       51.34200000      42.11560000      50.75870000
C       58.27210000      50.66930000      50.83520000
C       49.13800000      49.24130000      58.22700000
C       51.26570000      41.85570000      49.32850000
C       41.92190000      50.43180000      49.65260000
C       42.41150000      49.14610000      51.22800000
C       58.21100000      49.29130000      49.33440000
C       50.56660000      49.25740000      41.69160000
C       50.65250000      50.64280000      58.33380000
C       49.12840000      50.71120000      41.62650000
C       49.90220000      41.63790000      50.77370000
C       49.30140000      58.34720000      49.17630000
C       50.75120000      58.41540000      50.61630000
C       55.45970000      54.60040000      49.47650000
C       54.38980000      49.11200000      55.34890000
C       49.50150000      55.15000000      54.25370000
C       44.68950000      54.57770000      50.40480000
C       44.82250000      45.20800000      49.28140000
C       54.63280000      45.69940000      50.66150000
C       45.44650000      49.32810000      44.71140000
C       45.68670000      51.08790000      54.94140000
C       54.09990000      50.94730000      44.96470000
C       50.84570000      55.43730000      45.38590000
C       50.37390000      44.49100000      54.72130000
C       49.15800000      44.74120000      45.74320000
C       54.72730000      45.79650000      49.20850000
C       54.49960000      50.51740000      55.49890000
C       48.99850000      44.62200000      54.42140000
C       44.74280000      45.08270000      50.72310000
C       44.81790000      54.31080000      49.03450000
C       55.41900000      54.57980000      50.89900000
C       45.43410000      50.75120000      44.73660000
C       45.54070000      49.65500000      54.87880000
C       54.08730000      49.53960000      44.98850000
C       50.52880000      44.63100000      45.45120000
C       50.92410000      55.07480000      54.15560000
C       49.42170000      55.46020000      45.37780000
C       45.60140000      55.13470000      51.36120000
C       54.55720000      51.99480000      45.87740000
C       51.33900000      45.44450000      55.14200000
C       54.55480000      55.11630000      48.49570000
C       53.77800000      45.16590000      51.84230000
C       45.87820000      44.22540000      49.27120000
C       45.30130000      52.29430000      54.19220000
C       44.99920000      48.34930000      45.64380000
C       55.13350000      48.50320000      54.44200000
C       48.10790000      45.70890000      45.43950000
C       48.88440000      54.44870000      55.18340000
C       51.35540000      54.61360000      44.48320000
C       45.82490000      44.13380000      50.71780000
C       54.58430000      48.57590000      45.88500000
C       51.95480000      54.16250000      54.64380000
C       54.02480000      45.42860000      47.90490000
C       54.60560000      55.49360000      51.40660000
C       45.79960000      54.64870000      48.00860000
C       44.98110000      48.54130000      54.05100000
C       44.56140000      51.25420000      45.59250000
C       55.02380000      51.48850000      54.60520000
C       48.44820000      54.53160000      44.89760000
C       47.98950000      45.65460000      54.65490000
C       51.53630000      45.52030000      44.85050000
C       54.23700000      52.65200000      54.79440000
C       53.15080000      54.40840000      53.72870000
C       54.28710000      53.54330000      53.73140000
C       46.42700000      53.62910000      45.73410000
C       45.84290000      47.39720000      54.41340000
C       53.80180000      47.33740000      45.81790000
C       47.31460000      54.69470000      45.73750000
C       46.88890000      45.36860000      53.68570000
C       52.81200000      44.98720000      45.20400000
C       45.56860000      53.66240000      46.88520000
C       45.79490000      46.27770000      53.59040000
C       54.25390000      46.51610000      46.92430000
C       53.34530000      46.31590000      54.24210000
C       52.55310000      45.20350000      54.43520000
C       54.06970000      46.20370000      52.99660000
C       45.82750000      47.21160000      45.43030000
C       46.35460000      53.32970000      54.35390000
C       53.66560000      53.18630000      45.59120000
C       46.98910000      45.43070000      46.41310000
C       46.43050000      54.44400000      53.45940000
C       53.66720000      54.33640000      46.44800000
C       45.84810000      46.30510000      46.47410000
C       45.32600000      54.52700000      52.60650000
C       54.71460000      54.28650000      47.35600000
