240
Lattice="100.0 0.0 0.0 0.0 100.0 0.0 0.0 0.0 100.0" Properties=species:S:1:pos:R:3 name=C-53965-5632-1205 pressure=-0.0165500397076304 spacegroup=Th times_found=1 energy=-1802.20542030544 pbc="T T T"
C       45.07980000      54.83880000      46.86790000
C       54.83890000      46.86790000      45.07990000
C       46.86790000      45.07980000      54.83880000
C       54.92020000      45.16120000      46.86790000
C       45.07990000      45.16110000      53.13210000
C       54.92010000      54.83890000      53.13210000
C       45.16120000      53.13200000      45.07980000
C       54.83880000      53.13220000      54.92020000
C       45.16120000      46.86790000      54.92020000
C       53.13200000      54.92020000      54.83880000
C       46.86790000      54.92010000      45.16120000
C       53.13220000      45.07980000      45.16120000
C       45.07980000      54.83880000      53.13210000
C       54.83880000      46.86800000      54.92020000
C       46.86800000      45.07980000      45.16120000
C       54.92020000      45.16120000      53.13210000
C       45.07990000      45.16110000      46.86790000
C       54.92010000      54.83890000      46.86790000
C       45.16110000      53.13210000      54.92010000
C       54.83880000      53.13210000      45.07980000
C       45.16120000      46.86780000      45.07980000
C       53.13210000      54.92020000      45.16120000
C       46.86780000      54.92020000      54.83880000
C       53.13210000      45.07990000      54.83880000
C       54.73310000      48.29180000      44.87980000
C       48.29180000      44.87980000      54.73310000
C       44.87980000      54.73300000      48.29180000
C       45.26690000      51.70810000      44.87980000
C       54.73300000      51.70830000      55.12020000
C       45.26690000      48.29180000      55.12020000
C       51.70810000      55.12020000      54.73300000
C       48.29180000      55.12020000      45.26690000
C       51.70830000      44.87980000      45.26700000
C       55.12020000      45.26700000      48.29180000
C       44.87980000      45.26690000      51.70820000
C       55.12010000      54.73310000      51.70820000
C       54.73310000      48.29190000      55.12020000
C       48.29190000      44.87980000      45.26700000
C       44.87980000      54.73300000      51.70820000
C       45.26690000      51.70820000      55.12020000
C       54.73310000      51.70820000      44.87980000
C       45.26700000      48.29170000      44.87980000
C       51.70820000      55.12020000      45.26690000
C       48.29170000      55.12020000      54.73300000
C       51.70820000      44.87980000      54.73310000
C       55.12020000      45.26700000      51.70820000
C       44.87990000      45.26690000      48.29180000
C       55.12020000      54.73310000      48.29180000
C       43.98960000      47.16950000      47.10580000
C       47.16970000      47.10580000      43.98950000
C       47.10590000      43.98950000      47.16960000
C       56.01050000      52.83040000      47.10580000
C       43.98950000      52.83030000      52.89410000
C       56.01050000      47.16970000      52.89420000
C       52.83040000      52.89420000      43.98950000
C       47.16960000      52.89420000      56.01050000
C       52.83040000      47.10590000      56.01050000
C       52.89410000      56.01050000      47.16960000
C       47.10580000      56.01050000      52.83040000
C       52.89420000      43.98960000      52.83040000
C       43.98950000      47.16960000      52.89420000
C       47.16960000      47.10580000      56.01050000
C       47.10590000      43.98950000      52.83040000
C       56.01040000      52.83050000      52.89420000
C       43.98950000      52.83030000      47.10580000
C       56.01050000      47.16970000      47.10590000
C       52.83030000      52.89420000      56.01050000
C       47.16960000      52.89410000      43.98950000
C       52.83040000      47.10580000      43.98950000
C       52.89410000      56.01050000      52.83040000
C       47.10580000      56.01040000      47.16960000
C       52.89420000      43.98950000      47.16960000
C       43.26510000      47.10610000      50.71370000
C       47.10620000      50.71370000      43.26510000
C       50.71380000      43.26510000      47.10620000
C       56.73490000      52.89390000      50.71370000
C       43.26510000      52.89380000      49.28620000
C       56.73490000      47.10620000      49.28630000
C       52.89380000      49.28630000      43.26510000
C       47.10620000      49.28630000      56.73490000
C       52.89380000      50.71380000      56.73490000
C       49.28620000      56.73490000      47.10610000
C       50.71360000      56.73490000      52.89380000
C       49.28630000      43.26510000      52.89380000
C       43.26510000      47.10610000      49.28630000
C       47.10620000      50.71370000      56.73490000
C       50.71380000      43.26510000      52.89390000
C       56.73490000      52.89390000      49.28630000
C       43.26510000      52.89380000      50.71370000
C       56.73490000      47.10620000      50.71380000
C       52.89380000      49.28630000      56.73490000
C       47.10620000      49.28620000      43.26510000
C       52.89380000      50.71370000      43.26510000
C       49.28620000      56.73490000      52.89380000
C       50.71370000      56.73490000      47.10620000
C       49.28640000      43.26510000      47.10620000
C       45.79380000      44.60510000      49.23600000
C       44.60510000      49.23590000      45.79380000
C       49.23600000      45.79370000      44.60510000
C       54.20620000      55.39490000      49.23590000
C       45.79370000      55.39490000      50.76400000
C       54.20630000      44.60510000      50.76410000
C       55.39490000      50.76410000      45.79380000
C       44.60510000      50.76400000      54.20620000
C       55.39490000      49.23600000      54.20620000
C       50.76400000      54.20620000      44.60510000
C       49.23590000      54.20620000      55.39490000
C       50.76410000      45.79380000      55.39490000
C       45.79380000      44.60510000      50.76410000
C       44.60510000      49.23590000      54.20620000
C       49.23600000      45.79380000      55.39490000
C       54.20620000      55.39490000      50.76400000
C       45.79370000      55.39490000      49.23590000
C       54.20630000      44.60510000      49.23600000
C       55.39490000      50.76410000      54.20620000
C       44.60510000      50.76400000      45.79380000
C       55.39490000      49.23600000      45.79380000
C       50.76400000      54.20630000      55.39490000
C       49.23590000      54.20620000      44.60510000
C       50.76410000      45.79380000      44.60510000
C       53.04530000      56.04570000      48.58520000
C       56.04570000      48.58530000      53.04540000
C       48.58520000      53.04530000      56.04570000
C       46.95470000      43.95420000      48.58520000
C       53.04540000      43.95430000      51.41480000
C       46.95460000      56.04570000      51.41470000
C       43.95430000      51.41470000      53.04530000
C       56.04570000      51.41480000      46.95470000
C       43.95430000      48.58510000      46.95470000
C       51.41480000      46.95470000      56.04570000
C       48.58530000      46.95460000      43.95430000
C       51.41480000      53.04530000      43.95430000
C       53.04530000      56.04580000      51.41480000
C       56.04570000      48.58530000      46.95470000
C       48.58520000      53.04530000      43.95430000
C       46.95470000      43.95430000      51.41480000
C       53.04540000      43.95430000      48.58530000
C       46.95460000      56.04570000      48.58520000
C       43.95430000      51.41470000      46.95460000
C       56.04570000      51.41490000      53.04530000
C       43.95430000      48.58520000      53.04530000
C       51.41480000      46.95470000      43.95430000
C       48.58520000      46.95470000      56.04570000
C       51.41470000      53.04540000      56.04570000
C       49.29620000      51.88010000      56.51920000
C       51.88000000      56.51920000      49.29620000
C       56.51920000      49.29630000      51.88010000
C       50.70380000      48.12000000      56.51920000
C       49.29620000      48.11990000      43.48080000
C       50.70380000      51.88000000      43.48080000
C       48.12000000      43.48080000      49.29620000
C       51.88010000      43.48080000      50.70380000
C       48.11990000      56.51920000      50.70380000
C       43.48080000      50.70370000      51.88000000
C       56.51920000      50.70390000      48.12000000
C       43.48080000      49.29610000      48.12000000
C       49.29620000      51.88000000      43.48080000
C       51.88000000      56.51920000      50.70380000
C       56.51920000      49.29630000      48.12000000
C       50.70380000      48.11990000      43.48080000
C       49.29620000      48.12000000      56.51920000
C       50.70380000      51.88010000      56.51920000
C       48.12000000      43.48080000      50.70380000
C       51.88010000      43.48080000      49.29620000
C       48.11990000      56.51920000      49.29620000
C       43.48080000      50.70370000      48.11990000
C       56.51920000      50.70390000      51.88000000
C       43.48080000      49.29610000      51.88000000
C       51.65200000      56.04160000      46.42860000
C       56.04160000      46.42870000      51.65200000
C       46.42860000      51.65200000      56.04150000
C       48.34810000      43.95840000      46.42860000
C       51.65210000      43.95850000      53.57140000
C       48.34790000      56.04160000      53.57140000
C       43.95840000      53.57140000      51.65200000
C       56.04150000      53.57150000      48.34800000
C       43.95850000      46.42850000      48.34800000
C       53.57140000      48.34810000      56.04160000
C       46.42860000      48.34790000      43.95840000
C       53.57140000      51.65200000      43.95840000
C       51.65190000      56.04160000      53.57140000
C       56.04160000      46.42860000      48.34800000
C       46.42860000      51.65190000      43.95840000
C       48.34800000      43.95840000      53.57140000
C       51.65210000      43.95840000      46.42860000
C       48.34790000      56.04150000      46.42860000
C       43.95840000      53.57130000      48.34800000
C       56.04150000      53.57150000      51.65200000
C       43.95850000      46.42850000      51.65200000
C       53.57140000      48.34800000      43.95850000
C       46.42860000      48.34800000      56.04160000
C       53.57140000      51.65210000      56.04160000
C       44.55510000      53.68520000      46.17600000
C       53.68530000      46.17600000      44.55510000
C       46.17600000      44.55510000      53.68530000
C       55.44500000      46.31470000      46.17600000
C       44.55510000      46.31470000      53.82400000
C       55.44490000      53.68540000      53.82400000
C       46.31470000      53.82390000      44.55500000
C       53.68520000      53.82410000      55.44490000
C       46.31470000      46.17600000      55.44490000
C       53.82390000      55.44500000      53.68530000
C       46.17600000      55.44490000      46.31470000
C       53.82410000      44.55510000      46.31470000
C       44.55500000      53.68530000      53.82400000
C       53.68530000      46.17610000      55.44500000
C       46.17610000      44.55500000      46.31470000
C       55.44490000      46.31480000      53.82400000
C       44.55510000      46.31460000      46.17600000
C       55.44490000      53.68530000      46.17600000
C       46.31470000      53.82400000      55.44490000
C       53.68530000      53.82400000      44.55510000
C       46.31480000      46.17590000      44.55510000
C       53.82400000      55.44490000      46.31470000
C       46.17590000      55.44490000      53.68530000
C       53.82400000      44.55510000      53.68530000
C       56.86030000      48.55290000      49.26460000
C       48.55280000      49.26460000      56.86030000
C       49.26450000      56.86030000      48.55280000
C       43.13970000      51.44710000      49.26450000
C       56.86030000      51.44720000      50.73550000
C       43.13970000      48.55280000      50.73540000
C       51.44710000      50.73550000      56.86030000
C       48.55280000      50.73540000      43.13970000
C       51.44720000      49.26450000      43.13970000
C       50.73550000      43.13970000      48.55290000
C       49.26460000      43.13970000      51.44720000
C       50.73540000      56.86030000      51.44710000
C       56.86030000      48.55290000      50.73550000
C       48.55290000      49.26450000      43.13970000
C       49.26450000      56.86030000      51.44710000
C       43.13970000      51.44710000      50.73540000
C       56.86030000      51.44720000      49.26460000
C       43.13970000      48.55280000      49.26450000
C       51.44720000      50.73540000      43.13970000
C       48.55280000      50.73550000      56.86030000
C       51.44720000      49.26460000      56.86030000
C       50.73550000      43.13970000      51.44720000
C       49.26460000      43.13970000      48.55290000
C       50.73540000      56.86030000      48.55280000
