240
Lattice="100.0 0.0 0.0 0.0 100.0 0.0 0.0 0.0 100.0" Properties=species:S:1:pos:R:3 name=C-53965-5632-77 pressure=-39.4339882357639 spacegroup=Th times_found=1 energy=-1663.3863120003 pbc="T T T"
C       56.46810000      49.28690000      48.54030000
C       48.54140000      56.46840000      49.28770000
C       49.28790000      48.54080000      56.46830000
C       43.53160000      50.71320000      48.54180000
C       43.53180000      49.28770000      51.45960000
C       56.46850000      50.71220000      51.45830000
C       51.45840000      43.53160000      49.28690000
C       51.45950000      56.46820000      50.71280000
C       48.54070000      43.53180000      50.71260000
C       50.71350000      51.45870000      56.46830000
C       50.71190000      48.54130000      43.53150000
C       49.28670000      51.45930000      43.53180000
C       56.46840000      49.28680000      51.45820000
C       48.54160000      56.46840000      50.71310000
C       49.28650000      48.54140000      43.53170000
C       43.53190000      50.71310000      51.45970000
C       43.53150000      49.28780000      48.54170000
C       56.46820000      50.71230000      48.54040000
C       51.45860000      43.53150000      50.71230000
C       51.45930000      56.46820000      49.28740000
C       48.54050000      43.53180000      49.28720000
C       50.71210000      51.45920000      43.53160000
C       50.71330000      48.54070000      56.46820000
C       49.28810000      51.45870000      56.46850000
C       51.98910000      45.65520000      54.30580000
C       54.30580000      51.98880000      45.65510000
C       45.65600000      54.30640000      51.98960000
C       48.01180000      54.34450000      54.30660000
C       48.01030000      45.65580000      45.69390000
C       51.98880000      54.34460000      45.69380000
C       45.69330000      48.01150000      45.65590000
C       45.69450000      51.98910000      54.34510000
C       54.30650000      48.01060000      54.34400000
C       54.34440000      45.69350000      51.98830000
C       54.34460000      54.30590000      48.01070000
C       45.65500000      45.69420000      48.01130000
C       51.98820000      45.65550000      45.69350000
C       54.30670000      51.98850000      54.34410000
C       45.65560000      54.30650000      48.01170000
C       48.01090000      54.34480000      45.69420000
C       48.01120000      45.65540000      54.30620000
C       51.98970000      54.34420000      54.30610000
C       45.69420000      48.01120000      54.34490000
C       45.69350000      51.98940000      45.65600000
C       54.30560000      48.01090000      45.65490000
C       54.34400000      45.69360000      48.01040000
C       54.34500000      54.30580000      51.98870000
C       45.65540000      45.69410000      51.98930000
C       49.27710000      52.54040000      55.48230000
C       55.48220000      49.27580000      52.54000000
C       52.54090000      55.48180000      49.27630000
C       50.72410000      47.45910000      55.48190000
C       50.72330000      52.54080000      44.51800000
C       49.27560000      47.45970000      44.51790000
C       44.51830000      50.72400000      52.54120000
C       44.51760000      49.27680000      47.46000000
C       55.48180000      50.72340000      47.45880000
C       47.45900000      44.51820000      49.27640000
C       47.45990000      55.48210000      50.72420000
C       52.54030000      44.51780000      50.72320000
C       49.27590000      52.54090000      44.51810000
C       55.48170000      49.27600000      47.45880000
C       52.54100000      55.48180000      50.72360000
C       50.72290000      47.45960000      44.51780000
C       50.72440000      52.54030000      55.48210000
C       49.27670000      47.45920000      55.48200000
C       44.51770000      50.72420000      47.46000000
C       44.51820000      49.27660000      52.54120000
C       55.48230000      50.72320000      52.54000000
C       47.45910000      44.51810000      50.72370000
C       47.45970000      55.48220000      49.27680000
C       52.54010000      44.51780000      49.27580000
C       43.58840000      54.25380000      49.29930000
C       49.29850000      43.58810000      54.25320000
C       54.25260000      49.29840000      43.58770000
C       56.41140000      45.74620000      49.29760000
C       56.41210000      54.25290000      50.70100000
C       43.58800000      45.74710000      50.70210000
C       50.70240000      56.41160000      54.25350000
C       50.70060000      43.58830000      45.74630000
C       49.29850000      56.41200000      45.74700000
C       45.74600000      50.70210000      43.58870000
C       45.74730000      49.29850000      56.41220000
C       54.25410000      50.70100000      56.41140000
C       43.58860000      54.25380000      50.70240000
C       49.29760000      43.58840000      45.74650000
C       54.25400000      49.29790000      56.41130000
C       56.41160000      45.74620000      50.70070000
C       56.41200000      54.25290000      49.29800000
C       43.58780000      45.74710000      49.29900000
C       50.70150000      56.41190000      45.74680000
C       50.70150000      43.58800000      54.25300000
C       49.29940000      56.41170000      54.25370000
C       45.74740000      50.70160000      56.41230000
C       45.74590000      49.29900000      43.58870000
C       54.25270000      50.70150000      43.58780000
C       48.12020000      47.03600000      45.18450000
C       45.18390000      48.12140000      47.03620000
C       47.03520000      45.18470000      48.12100000
C       51.87880000      52.96440000      45.18430000
C       51.87940000      47.03540000      54.81530000
C       48.12160000      52.96420000      54.81600000
C       54.81550000      51.87890000      47.03520000
C       54.81580000      48.12040000      52.96370000
C       45.18480000      51.87930000      52.96490000
C       52.96440000      54.81550000      48.12080000
C       52.96420000      45.18410000      51.87860000
C       47.03630000      54.81570000      51.87960000
C       48.12120000      47.03560000      54.81570000
C       45.18460000      48.12110000      52.96480000
C       47.03560000      45.18450000      51.87920000
C       51.87980000      52.96400000      54.81560000
C       51.87840000      47.03580000      45.18400000
C       48.12060000      52.96460000      45.18470000
C       54.81610000      51.87860000      52.96390000
C       54.81520000      48.12070000      47.03510000
C       45.18420000      51.87960000      47.03630000
C       52.96480000      54.81530000      51.87900000
C       52.96380000      45.18420000      48.12040000
C       47.03580000      54.81590000      48.12140000
C       52.04480000      44.98140000      52.95210000
C       52.95220000      52.04490000      44.98140000
C       44.98210000      52.95280000      52.04550000
C       47.95580000      55.01840000      52.95300000
C       47.95450000      44.98190000      47.04750000
C       52.04490000      55.01830000      47.04740000
C       47.04680000      47.95560000      44.98190000
C       47.04810000      52.04490000      55.01880000
C       52.95290000      47.95470000      55.01790000
C       55.01830000      47.04700000      52.04420000
C       55.01830000      52.95230000      47.95470000
C       44.98120000      47.04790000      47.95560000
C       52.04420000      44.98160000      47.04700000
C       52.95320000      52.04450000      55.01810000
C       44.98160000      52.95300000      47.95580000
C       47.95520000      55.01860000      47.04780000
C       47.95510000      44.98170000      52.95260000
C       52.04550000      55.01810000      52.95260000
C       47.04780000      47.95510000      55.01860000
C       47.04700000      52.04530000      44.98200000
C       52.95190000      47.95510000      44.98120000
C       55.01790000      47.04720000      47.95450000
C       55.01880000      52.95210000      52.04440000
C       44.98170000      47.04770000      52.04530000
C       54.58030000      53.63190000      54.64000000
C       54.64100000      54.57900000      53.63210000
C       53.63320000      54.63990000      54.57930000
C       45.42070000      46.36770000      54.64070000
C       45.42030000      53.63290000      45.36030000
C       54.57880000      46.36740000      45.35900000
C       45.35970000      45.42070000      53.63270000
C       45.35960000      54.58000000      46.36830000
C       54.63960000      45.42030000      46.36690000
C       46.36770000      45.35970000      54.57970000
C       46.36740000      54.64080000      45.42110000
C       53.63160000      45.35960000      45.41990000
C       54.57930000      53.63230000      45.35930000
C       54.64030000      54.57930000      46.36730000
C       53.63230000      54.64030000      45.42030000
C       45.41980000      46.36810000      45.36000000
C       45.42120000      53.63260000      54.64100000
C       54.57970000      46.36710000      54.63970000
C       45.35900000      45.42100000      46.36790000
C       45.36040000      54.57970000      53.63310000
C       54.64040000      45.42000000      53.63170000
C       46.36680000      45.36010000      45.42070000
C       46.36840000      54.64040000      54.58010000
C       53.63260000      45.35930000      54.57890000
C       56.77870000      48.16670000      49.27030000
C       49.27140000      56.77910000      48.16750000
C       48.16780000      49.27100000      56.77910000
C       43.22110000      51.83330000      49.27200000
C       43.22100000      48.16760000      50.72950000
C       56.77910000      51.83230000      50.72820000
C       50.72820000      43.22110000      48.16680000
C       50.72950000      56.77880000      51.83300000
C       49.27090000      43.22100000      51.83260000
C       51.83360000      50.72840000      56.77880000
C       51.83210000      49.27130000      43.22080000
C       48.16650000      50.72920000      43.22130000
C       56.77890000      48.16670000      50.72800000
C       49.27180000      56.77890000      51.83320000
C       48.16640000      49.27160000      43.22120000
C       43.22130000      51.83330000      50.72960000
C       43.22090000      48.16770000      49.27180000
C       56.77900000      51.83240000      49.27050000
C       50.72860000      43.22090000      51.83250000
C       50.72910000      56.77900000      48.16740000
C       49.27050000      43.22120000      48.16700000
C       51.83220000      50.72900000      43.22090000
C       51.83350000      49.27080000      56.77870000
C       48.16790000      50.72870000      56.77920000
C       54.92400000      49.25990000      44.87410000
C       44.87490000      54.92500000      49.26080000
C       49.26020000      44.87450000      54.92440000
C       45.07490000      50.74050000      44.87520000
C       45.07590000      49.26020000      55.12580000
C       54.92520000      50.73940000      55.12480000
C       55.12490000      45.07510000      49.25930000
C       55.12570000      54.92420000      50.73960000
C       44.87440000      45.07580000      50.74030000
C       50.74080000      55.12510000      54.92470000
C       50.73900000      44.87480000      45.07510000
C       49.25990000      55.12560000      45.07570000
C       54.92500000      49.25950000      55.12480000
C       44.87510000      54.92490000      50.74070000
C       49.25920000      44.87490000      45.07530000
C       45.07600000      50.74010000      55.12590000
C       45.07480000      49.26060000      44.87520000
C       54.92410000      50.73980000      44.87420000
C       55.12510000      45.07500000      50.73920000
C       55.12560000      54.92420000      49.25970000
C       44.87420000      45.07580000      49.26040000
C       50.73980000      55.12550000      45.07550000
C       50.74010000      44.87440000      54.92430000
C       49.26100000      55.12520000      54.92490000
C       52.99900000      51.34440000      43.76190000
C       43.76250000      53.00000000      51.34510000
C       51.34420000      43.76190000      52.99920000
C       46.99960000      48.65610000      43.76240000
C       47.00110000      51.34430000      56.23820000
C       53.00020000      48.65520000      56.23750000
C       56.23780000      46.99990000      51.34350000
C       56.23790000      52.99920000      48.65510000
C       43.76180000      47.00090000      48.65620000
C       48.65640000      56.23780000      53.00000000
C       48.65490000      43.76240000      47.00030000
C       51.34440000      56.23790000      47.00050000
C       53.00040000      51.34390000      56.23760000
C       43.76220000      53.00010000      48.65650000
C       51.34360000      43.76220000      47.00000000
C       47.00100000      48.65560000      56.23810000
C       46.99980000      51.34480000      43.76250000
C       52.99890000      48.65570000      43.76180000
C       56.23750000      47.00000000      48.65490000
C       56.23820000      52.99910000      51.34380000
C       43.76210000      47.00080000      51.34490000
C       48.65580000      56.23810000      47.00080000
C       48.65560000      43.76210000      52.99950000
C       51.34510000      56.23760000      52.99970000
