240
Lattice="100.0 0.0 0.0 0.0 100.0 0.0 0.0 0.0 100.0" Properties=species:S:1:pos:R:3 name=C-53965-5632-250 pressure=-80.8656698856138 spacegroup=Th times_found=1 energy=-1672.31847378605 pbc="T T T"
C       46.98950000      48.14420000      54.74770000
C       54.74740000      46.98930000      48.14390000
C       48.14450000      54.74800000      46.98990000
C       53.01060000      51.85540000      54.74780000
C       53.01020000      48.14410000      45.25210000
C       46.98970000      51.85630000      45.25240000
C       45.25250000      53.01090000      48.14440000
C       45.25200000      46.98990000      51.85580000
C       54.74800000      53.00990000      51.85590000
C       51.85540000      45.25230000      46.98940000
C       51.85630000      54.74740000      53.01060000
C       48.14380000      45.25230000      53.01020000
C       46.98940000      48.14460000      45.25220000
C       54.74750000      46.98910000      51.85560000
C       48.14460000      54.74770000      53.01060000
C       53.01050000      51.85580000      45.25230000
C       53.01030000      48.14370000      54.74760000
C       46.98980000      51.85590000      54.74790000
C       45.25260000      53.01070000      51.85610000
C       45.25200000      46.99010000      48.14410000
C       54.74790000      53.01010000      48.14420000
C       51.85550000      45.25200000      53.01010000
C       51.85620000      54.74770000      46.98980000
C       48.14370000      45.25260000      46.98940000
C       51.49220000      53.10260000      43.68460000
C       43.68470000      51.49240000      53.10260000
C       53.10190000      43.68410000      51.49170000
C       48.50760000      46.89800000      43.68430000
C       48.50840000      53.10220000      56.31570000
C       51.49180000      46.89720000      56.31540000
C       56.31540000      48.50730000      53.10220000
C       56.31560000      51.49160000      46.89760000
C       43.68430000      48.50870000      46.89760000
C       46.89820000      56.31570000      51.49230000
C       46.89700000      43.68480000      48.50780000
C       53.10290000      56.31530000      48.50820000
C       51.49240000      53.10200000      56.31560000
C       43.68460000      51.49270000      46.89780000
C       53.10180000      43.68430000      48.50770000
C       48.50780000      46.89740000      56.31540000
C       48.50820000      53.10280000      43.68470000
C       51.49160000      46.89780000      43.68430000
C       56.31540000      48.50760000      46.89740000
C       56.31570000      51.49130000      53.10240000
C       43.68440000      48.50840000      53.10240000
C       46.89810000      56.31590000      48.50830000
C       46.89710000      43.68470000      51.49180000
C       53.10300000      56.31520000      51.49230000
C       45.77020000      48.40450000      54.11330000
C       54.11300000      45.77000000      48.40400000
C       48.40460000      54.11370000      45.77040000
C       54.23000000      51.59520000      54.11340000
C       54.22960000      48.40410000      45.88650000
C       45.77030000      51.59630000      45.88680000
C       45.88700000      54.23020000      48.40450000
C       45.88630000      45.77050000      51.59560000
C       54.11370000      54.22930000      51.59580000
C       51.59530000      45.88670000      45.77000000
C       51.59610000      54.11300000      54.22990000
C       48.40400000      45.88660000      54.22960000
C       45.77000000      48.40480000      45.88660000
C       54.11300000      45.76980000      51.59540000
C       48.40470000      54.11330000      54.23000000
C       54.22980000      51.59550000      45.88660000
C       54.22970000      48.40370000      54.11320000
C       45.77040000      51.59590000      54.11350000
C       45.88700000      54.23000000      51.59600000
C       45.88620000      45.77070000      48.40420000
C       54.11370000      54.22950000      48.40440000
C       51.59540000      45.88630000      54.22960000
C       51.59600000      54.11340000      45.77040000
C       48.40390000      45.88700000      45.77010000
C       55.35780000      52.46500000      50.72210000
C       50.72260000      55.35750000      52.46570000
C       52.46560000      50.72160000      55.35760000
C       44.64210000      47.53490000      50.72210000
C       44.64260000      52.46600000      49.27810000
C       55.35740000      47.53410000      49.27770000
C       49.27750000      44.64230000      52.46520000
C       49.27830000      55.35780000      47.53480000
C       50.72160000      44.64240000      47.53430000
C       47.53460000      49.27790000      55.35760000
C       47.53450000      50.72250000      44.64240000
C       52.46530000      49.27790000      44.64230000
C       55.35780000      52.46500000      49.27790000
C       50.72250000      55.35770000      47.53480000
C       52.46540000      50.72210000      44.64230000
C       44.64210000      47.53500000      49.27790000
C       44.64260000      52.46590000      50.72230000
C       55.35740000      47.53400000      50.72190000
C       49.27740000      44.64260000      47.53430000
C       49.27840000      55.35760000      52.46570000
C       50.72170000      44.64220000      52.46520000
C       47.53440000      49.27830000      44.64240000
C       47.53470000      50.72210000      55.35770000
C       52.46550000      49.27740000      55.35760000
C       53.22270000      44.91630000      52.48920000
C       52.48970000      53.22310000      44.91680000
C       44.91690000      52.48980000      53.22330000
C       46.77740000      55.08350000      52.48980000
C       46.77640000      44.91710000      47.51030000
C       53.22350000      55.08320000      47.51060000
C       47.51010000      46.77740000      44.91650000
C       47.51080000      53.22300000      55.08350000
C       52.48930000      46.77650000      55.08310000
C       55.08320000      47.50990000      53.22290000
C       55.08350000      52.48920000      46.77700000
C       44.91640000      47.51110000      46.77690000
C       53.22260000      44.91650000      47.51020000
C       52.48990000      53.22260000      55.08350000
C       44.91680000      52.49010000      46.77710000
C       46.77730000      55.08370000      47.51080000
C       46.77650000      44.91680000      52.48940000
C       53.22350000      55.08290000      52.48970000
C       47.51030000      46.77690000      55.08320000
C       47.51070000      53.22350000      44.91690000
C       52.48920000      46.77700000      44.91650000
C       55.08310000      47.51020000      46.77670000
C       55.08360000      52.48890000      53.22310000
C       44.91650000      47.51080000      53.22300000
C       54.82600000      44.94490000      50.71570000
C       50.71640000      54.82660000      44.94550000
C       44.94540000      50.71620000      54.82660000
C       45.17400000      55.05510000      50.71630000
C       45.17310000      44.94570000      49.28380000
C       54.82690000      55.05430000      49.28410000
C       49.28350000      45.17390000      44.94510000
C       49.28450000      54.82630000      55.05490000
C       50.71570000      45.17330000      55.05450000
C       55.05470000      49.28330000      54.82630000
C       55.05470000      50.71580000      45.17350000
C       44.94520000      49.28460000      45.17360000
C       54.82600000      44.94490000      49.28370000
C       50.71650000      54.82610000      55.05490000
C       44.94530000      50.71670000      45.17370000
C       45.17400000      55.05510000      49.28430000
C       45.17310000      44.94570000      50.71590000
C       54.82690000      55.05420000      50.71620000
C       49.28360000      45.17340000      55.05450000
C       49.28430000      54.82670000      44.94550000
C       50.71550000      45.17370000      44.94510000
C       55.05460000      49.28380000      45.17340000
C       55.05480000      50.71540000      54.82640000
C       44.94530000      49.28420000      54.82650000
C       46.20140000      54.14350000      54.90290000
C       54.90240000      46.20040000      54.14320000
C       54.14380000      54.90250000      46.20110000
C       53.79880000      45.85600000      54.90240000
C       53.79930000      54.14330000      45.09750000
C       46.20050000      45.85710000      45.09720000
C       45.09770000      53.79930000      54.14370000
C       45.09690000      46.20160000      45.85650000
C       54.90290000      53.79880000      45.85670000
C       45.85610000      45.09790000      46.20080000
C       45.85710000      54.90280000      53.79930000
C       54.14310000      45.09680000      53.79870000
C       46.20120000      54.14400000      45.09760000
C       54.90230000      46.20070000      45.85630000
C       54.14390000      54.90210000      53.79920000
C       53.79860000      45.85650000      45.09710000
C       53.79950000      54.14290000      54.90280000
C       46.20070000      45.85670000      54.90250000
C       45.09760000      53.79960000      45.85680000
C       45.09710000      46.20120000      54.14330000
C       54.90310000      53.79840000      54.14350000
C       45.85620000      45.09750000      53.79890000
C       45.85690000      54.90320000      46.20130000
C       54.14290000      45.09720000      46.20070000
C       51.92000000      56.62270000      49.25490000
C       49.25490000      51.91920000      56.62290000
C       56.62280000      49.25400000      51.91930000
C       48.07990000      43.37740000      49.25440000
C       48.08110000      56.62290000      50.74570000
C       51.91890000      43.37700000      50.74500000
C       50.74530000      48.08020000      56.62270000
C       50.74540000      51.91970000      43.37730000
C       49.25440000      48.08090000      43.37710000
C       43.37730000      50.74580000      51.91960000
C       43.37710000      49.25530000      48.08060000
C       56.62280000      50.74490000      48.08050000
C       51.92010000      56.62260000      50.74560000
C       49.25470000      51.91980000      43.37730000
C       56.62270000      49.25420000      48.08040000
C       48.08000000      43.37730000      50.74510000
C       48.08110000      56.62300000      49.25500000
C       51.91890000      43.37710000      49.25430000
C       50.74510000      48.08080000      43.37710000
C       50.74560000      51.91910000      56.62290000
C       49.25460000      48.08030000      56.62270000
C       43.37720000      50.74600000      48.08070000
C       43.37720000      49.25510000      51.91960000
C       56.62290000      50.74470000      51.91940000
C       49.27220000      43.68850000      48.61830000
C       48.61840000      49.27320000      43.68830000
C       43.68820000      48.61910000      49.27290000
C       50.72770000      56.31160000      48.61880000
C       50.72670000      43.68820000      51.38110000
C       49.27340000      56.31160000      51.38170000
C       51.38140000      50.72740000      43.68840000
C       51.38150000      49.27240000      56.31160000
C       48.61870000      50.72700000      56.31170000
C       56.31170000      51.38090000      49.27280000
C       56.31150000      48.61800000      50.72700000
C       43.68850000      51.38190000      50.72740000
C       49.27230000      43.68840000      51.38120000
C       48.61860000      49.27260000      56.31160000
C       43.68820000      48.61910000      50.72720000
C       50.72780000      56.31150000      51.38170000
C       50.72660000      43.68840000      48.61830000
C       49.27330000      56.31180000      48.61890000
C       51.38160000      50.72680000      56.31160000
C       51.38130000      49.27300000      43.68830000
C       48.61850000      50.72760000      43.68840000
C       56.31180000      51.38090000      50.72720000
C       56.31150000      48.61810000      49.27260000
C       43.68850000      51.38200000      49.27300000
C       54.25840000      56.39750000      50.70330000
C       50.70350000      54.25750000      56.39810000
C       56.39810000      50.70230000      54.25780000
C       45.74160000      43.60240000      50.70280000
C       45.74270000      56.39830000      49.29740000
C       54.25730000      43.60170000      49.29660000
C       49.29670000      45.74190000      56.39780000
C       49.29720000      54.25820000      43.60230000
C       50.70260000      45.74240000      43.60180000
C       43.60210000      49.29730000      54.25790000
C       43.60210000      50.70380000      45.74230000
C       56.39780000      49.29660000      45.74200000
C       54.25840000      56.39760000      49.29720000
C       50.70330000      54.25810000      43.60220000
C       56.39790000      50.70270000      45.74210000
C       45.74160000      43.60240000      49.29680000
C       45.74270000      56.39830000      50.70340000
C       54.25730000      43.60170000      50.70260000
C       49.29650000      45.74250000      43.60190000
C       49.29750000      54.25760000      56.39820000
C       50.70280000      45.74180000      56.39770000
C       43.60190000      49.29770000      45.74220000
C       43.60220000      50.70340000      54.25800000
C       56.39790000      49.29620000      54.25770000
