240
Lattice="100.0 0.0 0.0 0.0 100.0 0.0 0.0 0.0 100.0" Properties=species:S:1:pos:R:3 name=C-53965-5632-1128 pressure=-1.77905317349302 spacegroup=Th times_found=1 energy=-1699.409792273 pbc="T T T"
C       48.20720000      47.21360000      43.68360000
C       43.68300000      48.20680000      47.21520000
C       47.21480000      43.68270000      48.20850000
C       51.79380000      47.21430000      56.31640000
C       48.20870000      52.78580000      56.31710000
C       51.79030000      52.78640000      43.68280000
C       56.31770000      48.20910000      52.78480000
C       43.68340000      51.79090000      52.78730000
C       56.31590000      51.79320000      47.21270000
C       52.78760000      43.68370000      51.79150000
C       47.21310000      56.31630000      51.79260000
C       52.78450000      56.31730000      48.20740000
C       48.20620000      52.78570000      43.68360000
C       43.68230000      51.79090000      47.21520000
C       47.21240000      56.31630000      48.20850000
C       51.79280000      52.78640000      56.31640000
C       48.20970000      47.21360000      56.31720000
C       51.79130000      47.21430000      43.68290000
C       56.31700000      51.79330000      52.78480000
C       43.68410000      48.20680000      52.78730000
C       56.31660000      48.20910000      47.21270000
C       52.78520000      56.31730000      51.79150000
C       47.21550000      43.68270000      51.79260000
C       52.78690000      43.68370000      48.20740000
C       45.00350000      53.90980000      45.82990000
C       45.83070000      45.00420000      53.91160000
C       53.91050000      45.82970000      45.00430000
C       54.99510000      53.91170000      54.17000000
C       45.00660000      46.08830000      54.17200000
C       54.99490000      46.09020000      45.82800000
C       54.17120000      45.00580000      46.08850000
C       45.82730000      54.99420000      46.09010000
C       54.17080000      54.99580000      53.90990000
C       46.09100000      45.82830000      54.99580000
C       53.91090000      54.17180000      54.99420000
C       46.08750000      54.17030000      45.00580000
C       45.00490000      46.08830000      45.83000000
C       45.82880000      54.99420000      53.91150000
C       53.90900000      54.17170000      45.00420000
C       54.99650000      46.09020000      54.17010000
C       45.00510000      53.90980000      54.17200000
C       54.99340000      53.91170000      45.82800000
C       54.16930000      54.99580000      46.08840000
C       45.82920000      45.00420000      46.09010000
C       54.17270000      45.00580000      53.90990000
C       46.08950000      54.17030000      54.99570000
C       53.91250000      45.82970000      54.99420000
C       46.08910000      45.82820000      45.00580000
C       49.27440000      57.19940000      49.26370000
C       49.26510000      49.27580000      57.19970000
C       57.19950000      49.26490000      49.27450000
C       50.72290000      57.19970000      50.73630000
C       49.27740000      42.80040000      50.73660000
C       50.72530000      42.80060000      49.26350000
C       50.73510000      49.27600000      42.80030000
C       49.26200000      50.72390000      42.80060000
C       50.73770000      50.72420000      57.19940000
C       42.80080000      49.26220000      50.72550000
C       57.19950000      50.73780000      50.72270000
C       42.80020000      50.73510000      49.27730000
C       49.27710000      42.80030000      49.26370000
C       49.26490000      50.72400000      57.19970000
C       57.19920000      50.73780000      49.27450000
C       50.72560000      42.80060000      50.73630000
C       49.27470000      57.19940000      50.73650000
C       50.72260000      57.19960000      49.26340000
C       50.73490000      50.72420000      42.80030000
C       49.26230000      49.27580000      42.80060000
C       50.73800000      49.27610000      57.19940000
C       42.80050000      50.73510000      50.72550000
C       57.19980000      49.26490000      50.72270000
C       42.80050000      49.26220000      49.27730000
C       55.56490000      47.38470000      49.27990000
C       49.27940000      55.56440000      47.38380000
C       47.38490000      49.28050000      55.56510000
C       44.43610000      47.38270000      50.72020000
C       55.56420000      52.61730000      50.71790000
C       44.43480000      52.61520000      49.28200000
C       50.71850000      55.56470000      52.61610000
C       49.28250000      44.43530000      52.61650000
C       50.71960000      44.43560000      47.38360000
C       52.61530000      49.28140000      44.43490000
C       47.38250000      50.71850000      44.43600000
C       52.61730000      50.71960000      55.56400000
C       55.56390000      52.61730000      49.27980000
C       49.28150000      44.43530000      47.38390000
C       47.38470000      50.71860000      55.56510000
C       44.43510000      52.61530000      50.72010000
C       55.56520000      47.38480000      50.71800000
C       44.43580000      47.38270000      49.28210000
C       50.72060000      44.43560000      52.61620000
C       49.28040000      55.56440000      52.61640000
C       50.71750000      55.56470000      47.38350000
C       52.61510000      50.71950000      44.43490000
C       47.38270000      49.28040000      44.43600000
C       52.61750000      49.28150000      55.56400000
C       46.34650000      43.47560000      49.27900000
C       49.27760000      46.34530000      43.47640000
C       43.47570000      49.27700000      46.34670000
C       53.65590000      43.47700000      50.72110000
C       46.34440000      56.52300000      50.72250000
C       53.65320000      56.52440000      49.27750000
C       50.72370000      46.34560000      56.52360000
C       49.27880000      53.65440000      56.52380000
C       50.71980000      53.65470000      43.47610000
C       56.52460000      49.27950000      53.65330000
C       43.47690000      50.72060000      53.65580000
C       56.52290000      50.72300000      46.34420000
C       46.34410000      56.52300000      49.27890000
C       49.27630000      53.65440000      43.47640000
C       43.47540000      50.72050000      46.34670000
C       53.65350000      56.52440000      50.72100000
C       46.34680000      43.47560000      50.72250000
C       53.65560000      43.47700000      49.27750000
C       50.72240000      53.65470000      56.52360000
C       49.28020000      46.34530000      56.52390000
C       50.72120000      46.34560000      43.47620000
C       56.52430000      50.72300000      53.65330000
C       43.47710000      49.27700000      53.65580000
C       56.52310000      49.27940000      46.34420000
C       56.51140000      51.74380000      51.40030000
C       51.40070000      56.51180000      51.74220000
C       51.74350000      51.40190000      56.51110000
C       43.48790000      51.74130000      48.59970000
C       56.51150000      48.25870000      48.59710000
C       43.48910000      48.25630000      51.40290000
C       48.59690000      56.51120000      48.25770000
C       51.40250000      43.48880000      48.25720000
C       48.60000000      43.48830000      51.74280000
C       48.25590000      51.40120000      43.48890000
C       51.74150000      48.59870000      43.48820000
C       48.25900000      48.59810000      56.51180000
C       56.51210000      48.25870000      51.40030000
C       51.40310000      43.48880000      51.74230000
C       51.74410000      48.59880000      56.51110000
C       43.48860000      48.25620000      48.59970000
C       56.51090000      51.74370000      48.59710000
C       43.48850000      51.74130000      51.40290000
C       48.59930000      43.48820000      48.25780000
C       51.40000000      56.51170000      48.25720000
C       48.59750000      56.51120000      51.74280000
C       48.25650000      48.59810000      43.48890000
C       51.74100000      51.40190000      43.48820000
C       48.25850000      51.40130000      56.51180000
C       48.22310000      54.74310000      53.20590000
C       53.20680000      48.22400000      54.74280000
C       54.74240000      53.20640000      48.22250000
C       51.77510000      54.74370000      46.79410000
C       48.22370000      45.25630000      46.79480000
C       51.77810000      45.25690000      53.20520000
C       46.79390000      48.22280000      45.25720000
C       53.20430000      51.77720000      45.25600000
C       46.79510000      51.77600000      54.74400000
C       45.25630000      53.20470000      51.77750000
C       54.74440000      46.79540000      51.77570000
C       45.25690000      46.79360000      48.22440000
C       48.22490000      45.25630000      53.20590000
C       53.20610000      51.77720000      54.74280000
C       54.74370000      46.79530000      48.22250000
C       51.77690000      45.25690000      46.79410000
C       48.22190000      54.74310000      46.79480000
C       51.77630000      54.74370000      53.20520000
C       46.79320000      51.77600000      45.25720000
C       53.20490000      48.22400000      45.25600000
C       46.79570000      48.22280000      54.74400000
C       45.25760000      46.79360000      51.77750000
C       54.74310000      53.20640000      51.77560000
C       45.25560000      53.20460000      48.22430000
C       55.10640000      47.33480000      53.15070000
C       53.15020000      55.10580000      47.33320000
C       47.33420000      53.15120000      55.10580000
C       44.89460000      47.33280000      46.84930000
C       55.10410000      52.66710000      46.84730000
C       44.89490000      52.66520000      53.15270000
C       46.84790000      55.10470000      52.66680000
C       53.15320000      44.89540000      52.66560000
C       46.84880000      44.89410000      47.33450000
C       52.66460000      53.15220000      44.89420000
C       47.33340000      46.84780000      44.89530000
C       52.66780000      46.84880000      55.10470000
C       55.10540000      52.66720000      53.15070000
C       53.15210000      44.89530000      47.33320000
C       47.33540000      46.84780000      55.10580000
C       44.89360000      52.66520000      46.84930000
C       55.10510000      47.33480000      46.84730000
C       44.89590000      47.33290000      53.15270000
C       46.84980000      44.89420000      52.66680000
C       53.15120000      55.10590000      52.66550000
C       46.84680000      55.10460000      47.33440000
C       52.66580000      46.84880000      44.89420000
C       47.33220000      53.15120000      44.89530000
C       52.66660000      53.15220000      55.10470000
C       45.63780000      48.37220000      45.99080000
C       45.99050000      45.63750000      48.37380000
C       48.37290000      45.98960000      45.63860000
C       54.36280000      48.37390000      54.00920000
C       45.63880000      51.62620000      54.01090000
C       54.36060000      51.62780000      45.98910000
C       54.01120000      45.63910000      51.62620000
C       45.98940000      54.36100000      51.62770000
C       54.00890000      54.36250000      48.37220000
C       51.62860000      45.99030000      54.36140000
C       48.37310000      54.00980000      54.36200000
C       51.62540000      54.01030000      45.63800000
C       45.63720000      51.62610000      45.99080000
C       45.98880000      54.36090000      48.37380000
C       48.37140000      54.00970000      45.63860000
C       54.36220000      51.62780000      54.00920000
C       45.63940000      48.37220000      54.01090000
C       54.36120000      48.37380000      45.98910000
C       54.00950000      54.36250000      51.62620000
C       45.99110000      45.63750000      51.62780000
C       54.01060000      45.63900000      48.37230000
C       51.62710000      54.01040000      54.36140000
C       48.37460000      45.98970000      54.36200000
C       51.62690000      45.99020000      45.63800000
C       55.29940000      49.29860000      45.53660000
C       45.53650000      55.29930000      49.29850000
C       49.29950000      45.53760000      55.30030000
C       44.70090000      49.29660000      54.46340000
C       55.30080000      50.70340000      54.46130000
C       44.69890000      50.70140000      45.53870000
C       54.46150000      55.30090000      50.70150000
C       45.53880000      44.69910000      50.70330000
C       54.46320000      44.70070000      49.29670000
C       50.70220000      45.53780000      44.69980000
C       49.29570000      54.46220000      44.70000000
C       50.70260000      54.46250000      55.29990000
C       55.29910000      50.70340000      45.53660000
C       45.53850000      44.69910000      49.29850000
C       49.29780000      54.46220000      55.30020000
C       44.70060000      50.70140000      54.46340000
C       55.30110000      49.29860000      54.46130000
C       44.69920000      49.29660000      45.53870000
C       54.46350000      44.70070000      50.70150000
C       45.53680000      55.29930000      50.70330000
C       54.46120000      55.30090000      49.29670000
C       50.70050000      54.46240000      44.69970000
C       49.29740000      45.53750000      44.70010000
C       50.70430000      45.53780000      55.30000000
