240
Lattice="100.0 0.0 0.0 0.0 100.0 0.0 0.0 0.0 100.0" Properties=species:S:1:pos:R:3 name=C-53965-5632-504 pressure=-10.1976486433132 spacegroup=Th times_found=1 energy=-1762.41843627705 pbc="T T T"
C       52.87840000      55.71950000      45.77150000
C       55.71940000      45.77110000      52.87800000
C       45.77160000      52.87820000      55.71960000
C       47.12190000      55.71930000      54.22900000
C       47.12140000      44.28090000      45.77120000
C       52.87840000      44.28040000      54.22830000
C       44.28040000      45.77160000      47.12160000
C       44.28080000      54.22860000      52.87880000
C       55.71940000      54.22860000      47.12160000
C       54.22850000      52.87850000      44.28060000
C       54.22880000      47.12130000      55.71910000
C       45.77110000      47.12190000      44.28070000
C       52.87810000      44.28070000      45.77100000
C       55.71960000      54.22840000      52.87840000
C       45.77150000      47.12150000      55.71940000
C       47.12160000      44.28050000      54.22850000
C       47.12160000      55.71960000      45.77170000
C       52.87860000      55.71920000      54.22880000
C       44.28060000      54.22890000      47.12200000
C       44.28060000      45.77140000      52.87840000
C       55.71920000      45.77140000      47.12120000
C       54.22840000      47.12180000      44.28040000
C       54.22890000      52.87810000      55.71930000
C       45.77120000      52.87870000      44.28090000
C       55.86870000      46.95160000      46.40700000
C       46.95170000      46.40710000      55.86880000
C       46.40730000      55.86910000      46.95190000
C       44.13120000      46.95150000      53.59280000
C       44.13110000      53.04870000      46.40760000
C       55.86910000      53.04820000      53.59260000
C       53.04820000      46.40750000      44.13090000
C       53.04870000      53.59240000      55.86890000
C       46.95140000      53.59300000      44.13140000
C       53.59290000      55.86870000      53.04850000
C       53.59250000      44.13120000      46.95120000
C       46.40730000      44.13110000      53.04830000
C       55.86880000      53.04850000      46.40720000
C       46.95180000      53.59250000      55.86910000
C       46.40710000      44.13130000      46.95150000
C       44.13130000      53.04840000      53.59300000
C       44.13090000      46.95180000      46.40740000
C       55.86890000      46.95130000      53.59240000
C       53.04830000      53.59290000      44.13120000
C       53.04860000      46.40700000      55.86860000
C       46.95130000      46.40760000      44.13110000
C       53.59270000      44.13090000      53.04810000
C       53.59270000      55.86890000      46.95170000
C       46.40750000      55.86880000      53.04880000
C       50.72560000      56.79050000      50.72720000
C       56.79060000      50.72680000      50.72520000
C       50.72720000      50.72510000      56.79060000
C       49.27470000      56.79060000      49.27330000
C       49.27450000      43.20940000      50.72670000
C       50.72520000      43.20940000      49.27280000
C       43.20940000      50.72710000      49.27490000
C       43.20940000      49.27320000      50.72560000
C       56.79050000      49.27290000      49.27430000
C       49.27280000      50.72570000      43.20950000
C       49.27330000      49.27440000      56.79060000
C       50.72670000      49.27490000      43.20940000
C       50.72530000      43.20940000      50.72670000
C       56.79060000      49.27290000      50.72510000
C       50.72720000      49.27430000      56.79050000
C       49.27440000      43.20950000      49.27280000
C       49.27480000      56.79060000      50.72720000
C       50.72550000      56.79060000      49.27330000
C       43.20940000      49.27320000      49.27480000
C       43.20950000      50.72710000      50.72570000
C       56.79060000      50.72680000      49.27440000
C       49.27280000      49.27490000      43.20940000
C       49.27330000      50.72510000      56.79060000
C       50.72670000      50.72560000      43.20940000
C       44.98210000      55.37840000      51.33710000
C       55.37820000      51.33680000      44.98180000
C       51.33680000      44.98170000      55.37810000
C       55.01810000      55.37830000      48.66330000
C       55.01800000      44.62150000      51.33640000
C       44.98180000      44.62180000      48.66320000
C       44.62180000      51.33670000      55.01830000
C       44.62140000      48.66350000      44.98200000
C       55.37850000      48.66290000      55.01780000
C       48.66300000      44.98210000      44.62150000
C       48.66350000      55.01790000      55.37860000
C       51.33670000      55.01830000      44.62180000
C       44.98190000      44.62170000      51.33670000
C       55.37820000      48.66330000      44.98170000
C       51.33700000      55.01790000      55.37850000
C       55.01790000      44.62160000      48.66290000
C       55.01820000      55.37820000      51.33680000
C       44.98200000      55.37850000      48.66360000
C       44.62180000      48.66320000      55.01820000
C       44.62150000      51.33710000      44.98220000
C       55.37860000      51.33650000      55.01800000
C       48.66320000      55.01830000      44.62190000
C       48.66330000      44.98170000      55.37820000
C       51.33650000      44.98210000      44.62140000
C       43.52130000      51.84100000      51.50180000
C       51.84070000      51.50170000      43.52120000
C       51.50140000      43.52110000      51.84060000
C       56.47880000      51.84080000      48.49840000
C       56.47880000      48.15890000      51.50120000
C       43.52110000      48.15930000      48.49870000
C       48.15930000      51.50130000      56.47890000
C       48.15880000      48.49880000      43.52120000
C       51.84110000      48.49820000      56.47870000
C       48.49830000      43.52130000      48.15890000
C       48.49870000      56.47870000      51.84120000
C       51.50160000      56.47880000      48.15930000
C       43.52120000      48.15920000      51.50160000
C       51.84070000      48.49870000      43.52110000
C       51.50170000      56.47870000      51.84110000
C       56.47870000      48.15900000      48.49820000
C       56.47890000      51.84070000      51.50130000
C       43.52120000      51.84110000      48.49880000
C       48.15930000      48.49830000      56.47880000
C       48.15890000      51.50180000      43.52130000
C       51.84120000      51.50120000      56.47880000
C       48.49860000      56.47890000      48.15940000
C       48.49840000      43.52120000      51.84070000
C       51.50130000      43.52130000      48.15880000
C       48.19570000      47.09320000      43.81980000
C       47.09270000      43.82000000      48.19590000
C       43.81970000      48.19620000      47.09300000
C       51.80410000      47.09260000      56.18000000
C       51.80380000      52.90730000      43.81990000
C       48.19630000      52.90690000      56.18030000
C       52.90710000      43.81970000      51.80360000
C       52.90720000      56.18020000      48.19620000
C       47.09310000      56.18010000      51.80430000
C       56.18020000      48.19580000      52.90680000
C       56.18010000      51.80400000      47.09270000
C       43.82000000      51.80400000      52.90740000
C       48.19590000      52.90740000      43.82000000
C       47.09290000      56.18030000      48.19640000
C       43.81980000      51.80420000      47.09320000
C       51.80430000      52.90680000      56.18020000
C       51.80370000      47.09310000      43.81970000
C       48.19620000      47.09270000      56.18010000
C       52.90730000      56.18000000      51.80410000
C       52.90690000      43.81990000      48.19570000
C       47.09280000      43.81980000      51.80380000
C       56.18030000      51.80380000      52.90700000
C       56.18000000      48.19600000      47.09260000
C       43.81990000      48.19600000      52.90730000
C       51.42840000      44.14430000      54.19660000
C       44.14460000      54.19690000      51.42870000
C       54.19670000      51.42850000      44.14440000
C       48.57140000      44.14470000      45.80300000
C       48.57190000      55.85540000      54.19710000
C       51.42830000      55.85570000      45.80330000
C       55.85560000      54.19680000      48.57160000
C       55.85550000      45.80300000      51.42800000
C       44.14430000      45.80330000      48.57170000
C       45.80340000      51.42820000      55.85570000
C       45.80290000      48.57200000      44.14450000
C       54.19700000      48.57130000      55.85530000
C       51.42860000      55.85530000      54.19700000
C       44.14440000      45.80320000      51.42840000
C       54.19660000      48.57180000      44.14430000
C       48.57160000      55.85570000      45.80340000
C       48.57170000      44.14430000      54.19670000
C       51.42810000      44.14460000      45.80290000
C       55.85540000      45.80310000      48.57130000
C       55.85570000      54.19670000      51.42830000
C       44.14450000      54.19700000      48.57200000
C       45.80330000      48.57150000      55.85560000
C       45.80300000      51.42870000      44.14470000
C       54.19710000      51.42800000      55.85550000
C       50.71490000      43.73820000      53.05330000
C       43.73840000      53.05370000      50.71530000
C       53.05340000      50.71510000      43.73820000
C       49.28480000      43.73840000      46.94620000
C       49.28530000      56.26160000      53.05390000
C       50.71490000      56.26180000      46.94660000
C       56.26170000      53.05350000      49.28500000
C       56.26170000      46.94630000      50.71460000
C       43.73820000      46.94660000      49.28520000
C       46.94660000      50.71470000      56.26180000
C       46.94620000      49.28540000      43.73840000
C       53.05380000      49.28480000      56.26160000
C       50.71520000      56.26160000      53.05380000
C       43.73830000      46.94650000      50.71500000
C       53.05340000      49.28530000      43.73820000
C       49.28510000      56.26180000      46.94670000
C       49.28510000      43.73820000      53.05340000
C       50.71470000      43.73840000      46.94610000
C       56.26160000      46.94630000      49.28470000
C       56.26180000      53.05340000      50.71480000
C       43.73830000      53.05370000      49.28540000
C       46.94660000      49.28490000      56.26180000
C       46.94620000      50.71520000      43.73840000
C       53.05380000      50.71460000      56.26160000
C       49.29220000      53.83520000      44.12050000
C       53.83480000      44.12030000      49.29200000
C       44.12050000      49.29230000      53.83510000
C       50.70790000      53.83470000      55.87980000
C       50.70740000      46.16530000      44.12020000
C       49.29250000      46.16490000      55.87950000
C       46.16500000      44.12040000      50.70760000
C       46.16520000      55.87970000      49.29270000
C       53.83510000      55.87950000      50.70780000
C       55.87950000      49.29240000      46.16490000
C       55.87980000      50.70740000      53.83470000
C       44.12030000      50.70790000      46.16530000
C       49.29210000      46.16530000      44.12020000
C       53.83500000      55.87960000      49.29240000
C       44.12050000      50.70760000      53.83510000
C       50.70780000      46.16480000      55.87950000
C       50.70750000      53.83510000      44.12050000
C       49.29260000      53.83470000      55.87980000
C       46.16520000      55.87970000      50.70800000
C       46.16490000      44.12050000      49.29220000
C       53.83480000      44.12030000      50.70730000
C       55.87950000      50.70770000      46.16490000
C       55.87970000      49.29210000      53.83470000
C       44.12020000      49.29260000      46.16530000
C       45.11900000      55.39520000      47.22490000
C       55.39480000      47.22460000      45.11870000
C       47.22460000      45.11880000      55.39490000
C       54.88120000      55.39480000      52.77550000
C       54.88080000      44.60500000      47.22410000
C       45.11900000      44.60500000      52.77550000
C       44.60510000      47.22440000      54.88110000
C       44.60490000      52.77580000      45.11930000
C       55.39520000      52.77520000      54.88090000
C       52.77520000      45.11910000      44.60470000
C       52.77580000      54.88070000      55.39510000
C       47.22440000      54.88130000      44.60530000
C       45.11880000      44.60520000      47.22450000
C       55.39490000      52.77560000      45.11890000
C       47.22480000      54.88090000      55.39530000
C       54.88100000      44.60480000      52.77510000
C       54.88100000      55.39500000      47.22450000
C       45.11920000      55.39500000      52.77590000
C       44.60520000      52.77540000      54.88130000
C       44.60480000      47.22480000      45.11910000
C       55.39510000      47.22420000      54.88070000
C       52.77540000      54.88120000      44.60510000
C       52.77560000      45.11870000      55.39470000
C       47.22420000      45.11930000      44.60490000
