240
Lattice="100.0 0.0 0.0 0.0 100.0 0.0 0.0 0.0 100.0" Properties=species:S:1:pos:R:3 name=C-53965-5632-1160 pressure=1.36655000211219 energy=-1768.13152340409 spacegroup=Oh times_found=1 pbc="T T T"
C       57.93880000      49.99990000      51.02610000
C       51.02620000      57.93880000      49.99990000
C       50.00000000      51.02620000      57.93880000
C       42.06120000      50.00010000      51.02600000
C       42.06120000      50.00010000      48.97390000
C       57.93880000      49.99990000      48.97400000
C       48.97380000      42.06120000      50.00010000
C       48.97400000      57.93890000      49.99990000
C       51.02600000      42.06110000      50.00010000
C       49.99990000      48.97410000      57.93890000
C       50.00010000      51.02590000      42.06110000
C       50.00000000      48.97380000      42.06120000
C       50.00010000      57.93890000      51.02590000
C       57.93890000      51.02600000      50.00000000
C       51.02600000      50.00010000      57.93880000
C       49.99990000      42.06120000      51.02620000
C       49.99990000      42.06110000      48.97410000
C       50.00010000      57.93880000      48.97380000
C       42.06110000      48.97400000      50.00000000
C       57.93880000      48.97380000      50.00010000
C       42.06120000      51.02620000      49.99990000
C       48.97390000      50.00010000      57.93880000
C       51.02610000      49.99990000      42.06120000
C       48.97400000      49.99990000      42.06120000
C       51.25950000      47.69960000      43.67860000
C       43.67860000      51.25950000      47.69960000
C       47.69960000      43.67870000      51.25960000
C       48.74060000      52.30020000      43.67860000
C       48.74040000      47.69980000      56.32140000
C       51.25950000      52.30040000      56.32140000
C       56.32140000      48.74040000      47.69970000
C       56.32140000      51.25950000      52.30030000
C       43.67860000      48.74060000      52.30030000
C       52.30040000      56.32140000      51.25940000
C       52.30020000      43.67860000      48.74060000
C       47.69980000      56.32140000      48.74040000
C       47.69970000      51.25940000      43.67860000
C       51.25940000      43.67860000      47.69980000
C       43.67860000      47.69980000      51.25950000
C       52.30030000      48.74040000      43.67860000
C       47.69960000      48.74060000      56.32140000
C       52.30030000      51.25960000      56.32140000
C       48.74060000      56.32140000      47.69960000
C       51.25960000      56.32140000      52.30020000
C       48.74040000      43.67870000      52.30040000
C       56.32140000      52.30020000      51.25950000
C       43.67860000      52.30040000      48.74040000
C       56.32140000      47.69960000      48.74060000
C       43.67860000      51.25960000      52.30030000
C       52.30020000      43.67860000      51.25960000
C       51.25960000      52.30020000      43.67860000
C       56.32140000      48.74050000      52.30040000
C       56.32140000      51.25940000      47.69970000
C       43.67860000      48.74050000      47.69970000
C       47.69980000      56.32140000      51.25940000
C       47.69960000      43.67860000      48.74060000
C       52.30040000      56.32130000      48.74040000
C       48.74050000      47.69960000      43.67860000
C       48.74050000      52.30040000      56.32140000
C       51.25940000      47.69980000      56.32140000
C       51.25940000      43.67860000      52.30040000
C       43.67860000      52.30040000      51.25940000
C       52.30040000      51.25940000      43.67860000
C       48.74060000      56.32140000      52.30020000
C       51.25960000      56.32130000      47.69960000
C       48.74040000      43.67860000      47.69980000
C       56.32140000      47.69960000      51.25960000
C       43.67860000      47.69980000      48.74050000
C       56.32140000      52.30020000      48.74050000
C       47.69970000      48.74040000      43.67860000
C       52.30030000      48.74060000      56.32140000
C       47.69970000      51.25960000      56.32140000
C       51.28550000      55.29420000      46.72760000
C       46.72770000      51.28560000      55.29420000
C       55.29420000      46.72770000      51.28550000
C       48.71450000      44.70570000      46.72780000
C       48.71460000      55.29430000      53.27220000
C       51.28540000      44.70580000      53.27240000
C       53.27220000      48.71460000      55.29430000
C       53.27230000      51.28530000      44.70580000
C       46.72770000      48.71450000      44.70580000
C       44.70580000      53.27240000      51.28540000
C       44.70570000      46.72780000      48.71460000
C       55.29430000      53.27220000      48.71450000
C       55.29430000      51.28530000      46.72770000
C       51.28540000      46.72780000      55.29430000
C       46.72780000      55.29430000      51.28530000
C       44.70580000      48.71460000      46.72770000
C       55.29420000      48.71450000      53.27230000
C       44.70580000      51.28560000      53.27220000
C       48.71460000      53.27240000      55.29420000
C       51.28550000      53.27220000      44.70570000
C       48.71450000      46.72770000      44.70580000
C       53.27220000      44.70580000      51.28550000
C       46.72770000      44.70580000      48.71460000
C       53.27240000      55.29420000      48.71450000
C       50.00000000      45.31380000      46.36230000
C       46.36220000      50.00000000      45.31390000
C       45.31380000      46.36230000      50.00000000
C       50.00010000      54.68610000      46.36210000
C       49.99990000      45.31390000      53.63790000
C       50.00000000      54.68620000      53.63770000
C       53.63780000      49.99990000      45.31390000
C       53.63780000      50.00000000      54.68610000
C       46.36220000      50.00010000      54.68610000
C       54.68620000      53.63770000      50.00000000
C       54.68610000      46.36220000      50.00010000
C       45.31390000      53.63780000      49.99990000
C       45.31390000      50.00000000      46.36220000
C       50.00000000      46.36210000      45.31390000
C       46.36220000      45.31390000      50.00010000
C       54.68610000      49.99990000      46.36220000
C       45.31390000      50.00010000      53.63780000
C       54.68610000      50.00000000      53.63780000
C       50.00010000      53.63770000      45.31380000
C       50.00000000      53.63790000      54.68610000
C       49.99990000      46.36230000      54.68620000
C       53.63780000      54.68610000      49.99990000
C       46.36230000      54.68620000      49.99990000
C       53.63770000      45.31380000      50.00010000
C       46.48710000      45.47880000      52.47350000
C       52.47350000      46.48700000      45.47870000
C       45.47870000      52.47350000      46.48710000
C       53.51290000      54.52130000      52.47340000
C       53.51280000      45.47860000      47.52660000
C       46.48720000      54.52130000      47.52640000
C       47.52660000      53.51280000      45.47860000
C       47.52640000      46.48730000      54.52140000
C       52.47350000      53.51290000      54.52130000
C       54.52130000      47.52640000      46.48720000
C       54.52130000      52.47350000      53.51280000
C       45.47860000      47.52660000      53.51290000
C       45.47860000      46.48720000      52.47350000
C       46.48720000      52.47350000      45.47860000
C       52.47350000      45.47860000      46.48720000
C       54.52140000      53.51280000      52.47350000
C       45.47870000      53.51290000      47.52640000
C       54.52130000      46.48710000      47.52660000
C       53.51280000      47.52640000      45.47870000
C       46.48710000      47.52660000      54.52130000
C       53.51290000      52.47350000      54.52130000
C       47.52660000      54.52130000      46.48710000
C       52.47350000      54.52130000      53.51280000
C       47.52640000      45.47880000      53.51290000
C       56.96710000      47.97640000      50.00010000
C       50.00010000      56.96710000      47.97640000
C       47.97640000      50.00010000      56.96710000
C       43.03290000      52.02360000      49.99990000
C       43.03280000      47.97660000      50.00000000
C       56.96720000      52.02340000      50.00000000
C       49.99990000      43.03280000      47.97660000
C       50.00010000      56.96720000      52.02340000
C       49.99990000      43.03290000      52.02360000
C       52.02350000      50.00010000      56.96720000
C       52.02360000      49.99990000      43.03290000
C       47.97650000      49.99990000      43.03280000
C       47.97650000      56.96720000      49.99990000
C       56.96720000      49.99990000      47.97650000
C       49.99990000      47.97660000      56.96720000
C       52.02340000      43.03280000      50.00010000
C       47.97640000      43.03290000      50.00010000
C       52.02360000      56.96710000      49.99990000
C       43.03290000      50.00010000      47.97640000
C       56.96710000      49.99990000      52.02360000
C       43.03280000      50.00010000      52.02350000
C       50.00000000      52.02360000      56.96710000
C       50.00010000      52.02340000      43.03280000
C       50.00000000      47.97640000      43.03290000
C       46.48710000      47.52650000      45.47870000
C       45.47860000      46.48720000      47.52650000
C       47.52650000      45.47870000      46.48720000
C       53.51290000      52.47340000      45.47870000
C       53.51280000      47.52650000      54.52140000
C       46.48720000      52.47360000      54.52130000
C       54.52140000      53.51280000      47.52650000
C       54.52130000      46.48710000      52.47360000
C       45.47870000      53.51290000      52.47340000
C       52.47360000      54.52120000      46.48710000
C       52.47340000      45.47870000      53.51290000
C       47.52650000      54.52140000      53.51280000
C       47.52650000      46.48710000      45.47870000
C       46.48710000      45.47870000      47.52660000
C       45.47870000      47.52650000      46.48720000
C       52.47360000      53.51270000      45.47860000
C       47.52650000      53.51300000      54.52130000
C       52.47340000      46.48720000      54.52140000
C       53.51290000      54.52120000      47.52650000
C       46.48720000      54.52140000      52.47340000
C       53.51280000      45.47870000      52.47360000
C       54.52140000      52.47340000      46.48710000
C       45.47870000      52.47360000      53.51280000
C       54.52130000      47.52650000      53.51290000
C       44.70580000      51.28550000      46.72770000
C       46.72760000      44.70580000      51.28550000
C       51.28540000      46.72760000      44.70580000
C       55.29420000      48.71440000      46.72780000
C       55.29420000      51.28540000      53.27230000
C       44.70570000      48.71470000      53.27230000
C       53.27230000      55.29420000      51.28540000
C       53.27220000      44.70570000      48.71470000
C       46.72780000      55.29420000      48.71450000
C       48.71460000      53.27220000      44.70570000
C       48.71450000      46.72780000      55.29430000
C       51.28550000      53.27230000      55.29420000
C       51.28540000      44.70570000      46.72780000
C       44.70570000      46.72780000      51.28550000
C       46.72780000      51.28540000      44.70570000
C       48.71460000      55.29420000      46.72760000
C       51.28550000      55.29430000      53.27220000
C       48.71450000      44.70580000      53.27240000
C       55.29430000      53.27220000      51.28540000
C       44.70580000      53.27230000      48.71450000
C       55.29420000      46.72760000      48.71460000
C       53.27230000      48.71440000      44.70580000
C       46.72770000      48.71470000      55.29420000
C       53.27230000      51.28550000      55.29420000
C       47.40530000      53.48470000      49.99990000
C       50.00000000      47.40530000      53.48480000
C       53.48470000      49.99990000      47.40530000
C       52.59470000      46.51530000      50.00010000
C       52.59480000      53.48470000      50.00000000
C       47.40520000      46.51530000      50.00000000
C       50.00000000      52.59480000      53.48470000
C       50.00000000      47.40520000      46.51530000
C       50.00010000      52.59470000      46.51520000
C       46.51530000      50.00000000      47.40530000
C       46.51530000      50.00010000      52.59470000
C       53.48470000      50.00000000      52.59470000
C       53.48470000      47.40520000      50.00010000
C       47.40530000      50.00010000      53.48470000
C       50.00010000      53.48470000      47.40520000
C       46.51530000      52.59480000      49.99990000
C       53.48470000      52.59470000      50.00000000
C       46.51530000      47.40530000      50.00000000
C       52.59470000      50.00000000      53.48470000
C       47.40530000      50.00000000      46.51530000
C       52.59470000      49.99990000      46.51530000
C       50.00000000      46.51520000      47.40530000
C       49.99990000      46.51530000      52.59480000
C       50.00000000      53.48480000      52.59470000
