240
Lattice="100.0 0.0 0.0 0.0 100.0 0.0 0.0 0.0 100.0" Properties=species:S:1:pos:R:3 name=C-53965-5632-721 pressure=-0.0107023759144978 energy=-1716.64484250499 spacegroup=Td times_found=1 pbc="T T T"
C       44.62870000      48.80750000      46.83440000
C       48.80760000      46.83400000      44.62890000
C       46.83420000      44.62870000      48.80800000
C       55.37120000      48.80760000      53.16580000
C       55.37150000      51.19180000      46.83450000
C       44.62860000      51.19300000      53.16530000
C       51.19210000      46.83500000      55.37170000
C       51.19270000      53.16490000      44.62840000
C       48.80760000      53.16610000      55.37100000
C       53.16520000      44.62860000      51.19310000
C       53.16580000      55.37110000      48.80710000
C       46.83470000      55.37160000      51.19180000
C       46.83460000      48.80720000      44.62870000
C       44.62850000      46.83460000      48.80780000
C       48.80740000      44.62840000      46.83500000
C       53.16530000      48.80800000      55.37160000
C       46.83440000      51.19310000      55.37110000
C       53.16570000      51.19170000      44.62860000
C       55.37120000      46.83430000      51.19290000
C       44.62880000      53.16590000      51.19190000
C       55.37150000      53.16510000      48.80740000
C       51.19210000      44.62890000      53.16610000
C       48.80780000      55.37170000      53.16500000
C       51.19280000      55.37100000      46.83390000
C       43.79120000      53.37590000      47.61420000
C       53.37590000      47.61390000      43.79130000
C       47.61430000      43.79140000      53.37640000
C       56.20910000      53.37580000      52.38510000
C       56.20890000      46.62360000      47.61530000
C       43.79070000      46.62470000      52.38540000
C       46.62380000      47.61550000      56.20920000
C       46.62440000      52.38480000      43.79060000
C       53.37580000      52.38570000      56.20890000
C       52.38500000      43.79050000      46.62480000
C       52.38550000      56.20930000      53.37530000
C       47.61520000      56.20880000      46.62340000
C       47.61510000      53.37530000      43.79060000
C       43.79070000      47.61540000      53.37590000
C       53.37560000      43.79060000      47.61550000
C       52.38520000      53.37640000      56.20880000
C       47.61440000      46.62490000      56.20930000
C       52.38530000      46.62340000      43.79140000
C       56.20900000      47.61410000      46.62460000
C       43.79120000      52.38520000      46.62370000
C       56.20910000      52.38530000      53.37580000
C       46.62380000      43.79140000      52.38580000
C       53.37610000      56.20910000      52.38470000
C       46.62450000      56.20900000      47.61400000
C       51.81730000      57.28090000      50.78000000
C       57.28090000      50.78050000      51.81710000
C       50.78060000      51.81770000      57.28070000
C       48.18340000      57.28090000      49.21850000
C       48.18260000      42.71930000      50.78140000
C       51.81660000      42.71890000      49.22010000
C       42.71920000      50.78080000      48.18270000
C       42.71900000      49.21990000      51.81680000
C       57.28090000      49.21880000      48.18330000
C       49.21960000      51.81630000      42.71890000
C       49.21900000      48.18380000      57.28110000
C       50.78080000      48.18230000      42.71930000
C       50.78100000      57.28110000      51.81620000
C       51.81680000      50.78130000      57.28090000
C       57.28100000      51.81670000      50.78070000
C       49.21970000      57.28080000      48.18230000
C       50.78040000      42.71890000      48.18380000
C       49.21890000      42.71930000      51.81770000
C       48.18330000      50.78000000      42.71900000
C       51.81710000      49.21850000      42.71920000
C       48.18280000      49.22020000      57.28090000
C       42.71920000      51.81720000      49.21890000
C       57.28080000      48.18260000      49.21970000
C       42.71900000      48.18350000      50.78070000
C       54.28710000      52.22190000      46.74400000
C       52.22210000      46.74450000      54.28730000
C       46.74430000      54.28730000      52.22190000
C       45.71310000      52.22300000      53.25550000
C       45.71310000      47.77750000      46.74420000
C       54.28670000      47.77770000      53.25620000
C       47.77750000      46.74380000      45.71340000
C       47.77760000      53.25640000      54.28650000
C       52.22270000      53.25530000      45.71280000
C       53.25610000      54.28650000      47.77720000
C       53.25560000      45.71310000      52.22290000
C       46.74400000      45.71300000      47.77790000
C       46.74410000      52.22300000      54.28660000
C       54.28670000      46.74410000      52.22290000
C       52.22270000      54.28650000      46.74380000
C       53.25610000      52.22180000      45.71290000
C       46.74410000      47.77730000      45.71320000
C       53.25560000      47.77790000      54.28720000
C       45.71300000      46.74410000      47.77780000
C       54.28710000      53.25540000      47.77740000
C       45.71320000      53.25630000      52.22200000
C       47.77770000      54.28740000      53.25540000
C       52.22210000      45.71330000      53.25640000
C       47.77750000      45.71290000      46.74450000
C       48.49600000      52.50040000      56.56440000
C       52.50010000      56.56450000      48.49550000
C       56.56460000      48.49600000      52.50000000
C       51.50420000      52.49890000      43.43510000
C       51.50360000      47.50090000      56.56500000
C       48.49610000      47.49970000      43.43550000
C       47.50060000      56.56500000      51.50320000
C       47.50000000      43.43520000      48.49670000
C       52.49930000      43.43530000      51.50470000
C       43.43530000      48.49610000      47.50030000
C       43.43530000      51.50450000      52.49940000
C       56.56490000      51.50330000      47.50030000
C       56.56490000      52.49920000      48.49600000
C       48.49630000      56.56510000      52.49900000
C       52.49940000      48.49660000      56.56500000
C       43.43540000      52.50020000      51.50350000
C       56.56460000      47.50010000      51.50440000
C       43.43520000      47.50050000      48.49610000
C       51.50430000      56.56440000      47.49970000
C       48.49580000      43.43510000      47.50090000
C       51.50350000      43.43550000      52.50040000
C       47.50040000      48.49550000      43.43540000
C       52.50000000      51.50310000      43.43520000
C       47.50020000      51.50470000      56.56450000
C       46.98170000      51.04910000      43.45050000
C       51.04940000      43.45030000      46.98210000
C       43.45050000      46.98190000      51.04980000
C       53.01840000      51.05020000      56.54930000
C       53.01870000      48.94950000      43.45090000
C       46.98120000      48.95120000      56.54940000
C       48.94990000      43.45100000      53.01920000
C       48.95080000      56.54910000      46.98070000
C       51.04990000      56.54960000      53.01790000
C       56.54920000      46.98100000      48.95080000
C       56.54950000      53.01830000      51.04950000
C       43.45080000      53.01880000      48.94990000
C       43.45080000      51.04970000      46.98110000
C       46.98110000      43.45090000      51.05020000
C       51.04970000      46.98070000      43.45100000
C       56.54930000      51.04960000      53.01860000
C       43.45050000      48.95100000      53.01850000
C       56.54940000      48.94970000      46.98170000
C       53.01830000      43.45040000      48.95110000
C       46.98180000      56.54940000      48.94960000
C       53.01890000      56.54930000      51.04910000
C       48.95000000      46.98220000      56.54960000
C       51.04960000      53.01920000      56.54910000
C       48.95070000      53.01790000      43.45030000
C       54.33540000      51.13820000      53.36410000
C       51.13810000      53.36450000      54.33510000
C       53.36430000      54.33540000      51.13770000
C       45.66470000      51.13790000      46.63570000
C       45.66440000      48.86250000      53.36410000
C       54.33550000      48.86140000      46.63610000
C       48.86220000      53.36370000      45.66420000
C       48.86160000      46.63640000      54.33580000
C       51.13800000      46.63540000      45.66490000
C       46.63620000      54.33550000      48.86140000
C       46.63570000      45.66480000      51.13840000
C       53.36390000      45.66430000      48.86250000
C       53.36400000      51.13840000      54.33540000
C       54.33560000      53.36400000      51.13790000
C       51.13820000      54.33570000      53.36370000
C       46.63610000      51.13780000      45.66430000
C       53.36420000      48.86130000      45.66480000
C       46.63570000      48.86250000      54.33550000
C       45.66470000      53.36420000      48.86150000
C       54.33530000      46.63560000      48.86240000
C       45.66430000      46.63620000      51.13830000
C       48.86220000      54.33520000      46.63540000
C       51.13800000      45.66410000      46.63640000
C       48.86160000      45.66490000      53.36450000
C       46.67700000      55.40660000      49.79210000
C       55.40650000      49.79220000      46.67690000
C       49.79250000      46.67730000      55.40680000
C       53.32350000      55.40630000      50.20680000
C       53.32300000      44.59340000      49.79340000
C       46.67650000      44.59380000      50.20770000
C       44.59350000      49.79340000      53.32310000
C       44.59370000      50.20710000      46.67660000
C       55.40630000      50.20730000      53.32340000
C       50.20720000      46.67620000      44.59390000
C       50.20720000      53.32380000      55.40610000
C       49.79310000      53.32270000      44.59320000
C       49.79310000      55.40610000      46.67620000
C       46.67660000      49.79350000      55.40640000
C       55.40630000      46.67640000      49.79330000
C       50.20740000      55.40680000      53.32270000
C       49.79240000      44.59390000      53.32380000
C       50.20700000      44.59320000      46.67730000
C       53.32340000      49.79210000      44.59370000
C       46.67690000      50.20680000      44.59350000
C       53.32310000      50.20760000      55.40650000
C       44.59340000      46.67700000      50.20740000
C       55.40660000      53.32300000      50.20700000
C       44.59370000      53.32350000      49.79230000
C       48.39130000      49.40740000      42.67710000
C       49.40780000      42.67690000      48.39190000
C       42.67700000      48.39140000      49.40810000
C       51.60860000      49.40880000      57.32310000
C       51.60910000      50.59110000      42.67700000
C       48.39090000      50.59270000      57.32290000
C       50.59150000      42.67720000      51.60960000
C       50.59230000      57.32280000      48.39040000
C       49.40840000      57.32320000      51.60810000
C       57.32290000      48.39080000      50.59230000
C       57.32310000      51.60840000      49.40820000
C       42.67710000      51.60930000      50.59150000
C       42.67710000      49.40830000      48.39100000
C       48.39080000      42.67710000      49.40880000
C       49.40820000      48.39040000      42.67720000
C       57.32290000      49.40790000      51.60910000
C       42.67700000      50.59240000      51.60860000
C       57.32300000      50.59140000      48.39130000
C       51.60850000      42.67700000      50.59270000
C       48.39150000      57.32310000      50.59110000
C       51.60930000      57.32280000      49.40740000
C       50.59160000      48.39180000      57.32310000
C       49.40800000      51.60970000      57.32280000
C       50.59220000      51.60810000      42.67690000
C       52.58430000      45.24960000      46.34400000
C       45.24980000      46.34390000      52.58470000
C       46.34370000      52.58420000      45.24970000
C       47.41520000      45.25060000      53.65700000
C       47.41590000      54.74960000      46.34280000
C       52.58460000      54.75010000      53.65620000
C       54.74980000      46.34290000      47.41600000
C       54.75000000      53.65660000      52.58420000
C       45.25040000      53.65660000      47.41500000
C       53.65660000      52.58480000      54.74970000
C       53.65660000      47.41490000      45.25050000
C       46.34310000      47.41620000      54.75010000
C       46.34310000      45.25060000      52.58490000
C       52.58440000      46.34280000      45.25060000
C       45.25030000      52.58430000      46.34300000
C       53.65640000      45.24970000      47.41610000
C       46.34370000      54.74980000      47.41490000
C       53.65680000      54.75000000      52.58410000
C       47.41520000      46.34400000      54.75020000
C       52.58450000      53.65700000      54.74960000
C       47.41580000      53.65620000      45.24970000
C       54.74990000      52.58460000      53.65650000
C       45.24990000      47.41610000      53.65670000
C       54.74990000      47.41490000      46.34380000
