240
Lattice="100.0 0.0 0.0 0.0 100.0 0.0 0.0 0.0 100.0" Properties=species:S:1:pos:R:3 name=C-53965-5632-325 pressure=0.00597787011880102 spacegroup=C1 times_found=1 energy=-1750.37345336027 pbc="T T T"
C       50.91380000      47.08500000      56.65560000
C       56.23200000      50.79060000      47.18100000
C       47.13070000      56.60990000      50.42670000
C       49.22900000      52.81320000      56.19230000
C       49.24800000      47.26940000      43.94990000
C       50.51300000      53.03190000      43.37210000
C       43.01680000      49.32310000      47.04090000
C       43.81530000      50.65940000      52.76600000
C       56.66360000      49.08660000      52.91710000
C       52.90940000      43.34530000      50.91550000
C       52.86270000      56.21400000      49.28620000
C       47.16090000      43.77120000      49.24370000
C       50.72110000      47.24060000      43.85060000
C       56.73700000      50.54110000      52.95040000
C       47.17240000      56.51820000      48.97840000
C       49.06050000      52.98320000      43.54040000
C       49.45870000      47.05080000      56.72770000
C       50.70210000      52.80140000      56.13170000
C       43.73530000      49.18740000      52.80890000
C       43.05250000      50.77160000      47.05590000
C       56.14920000      49.31680000      47.20040000
C       52.93660000      43.28040000      49.46060000
C       52.85940000      56.25920000      50.76050000
C       47.18680000      43.83710000      50.71640000
C       45.52780000      45.29770000      47.90690000
C       48.34870000      45.37090000      45.05750000
C       44.71980000      48.28180000      45.48070000
C       54.71170000      55.01700000      48.38930000
C       54.71100000      44.78050000      51.90680000
C       45.63310000      54.95630000      51.51490000
C       51.78640000      54.66170000      44.82100000
C       51.90550000      45.28060000      55.22820000
C       47.90200000      54.39430000      54.62250000
C       54.70480000      52.16020000      45.57540000
C       55.22630000      48.09510000      54.71530000
C       45.02790000      51.58050000      54.59710000
C       45.32390000      44.99420000      51.63110000
C       48.29920000      45.45070000      55.16080000
C       45.30520000      47.86170000      54.41450000
C       54.44690000      54.69880000      52.11280000
C       54.52240000      44.86580000      48.30430000
C       45.55420000      54.83670000      47.81640000
C       51.61010000      54.66060000      54.95300000
C       52.08120000      45.61330000      45.34190000
C       48.21340000      54.93030000      44.68640000
C       55.15690000      51.70090000      54.53720000
C       54.96030000      48.42460000      45.34580000
C       44.69520000      51.82660000      45.42630000
C       44.59660000      45.10660000      48.97010000
C       49.54160000      44.59100000      44.99300000
C       44.67230000      49.28880000      44.53940000
C       55.48810000      55.04890000      49.58320000
C       55.58900000      44.71060000      50.77160000
C       44.77780000      55.00910000      50.44510000
C       50.85680000      55.66080000      44.69830000
C       50.77420000      44.39770000      55.30300000
C       48.94800000      55.35010000      54.79480000
C       54.84630000      51.09460000      44.63750000
C       55.29820000      49.22770000      55.59620000
C       44.97200000      50.40890000      55.40630000
C       44.53160000      44.93320000      50.44940000
C       49.27680000      44.49160000      55.25350000
C       45.14670000      48.93030000      55.34380000
C       55.39620000      54.86570000      51.06060000
C       55.48730000      44.76730000      49.27530000
C       44.69750000      54.95790000      48.95560000
C       50.42010000      55.44430000      54.98930000
C       51.02020000      44.67460000      45.16950000
C       49.36790000      55.79110000      44.59650000
C       55.24700000      50.72480000      55.49820000
C       55.01080000      49.61280000      44.55850000
C       44.64050000      50.79540000      44.50660000
C       44.82540000      45.76410000      52.64030000
C       53.08260000      45.29840000      46.42930000
C       45.67800000      52.92990000      45.52050000
C       54.74360000      53.59170000      53.10640000
C       54.39460000      45.83360000      47.21540000
C       45.18560000      53.73240000      46.83660000
C       47.26080000      55.36960000      45.56060000
C       47.20360000      45.57050000      54.19930000
C       52.62050000      55.15640000      54.18270000
C       54.17340000      47.42130000      44.86020000
C       54.19630000      52.79640000      54.41130000
C       46.41030000      46.87540000      54.73010000
C       45.18540000      46.39390000      46.91400000
C       52.86620000      44.94050000      54.25790000
C       45.81240000      52.58970000      55.07310000
C       55.19860000      54.23560000      47.38270000
C       55.05370000      45.74980000      52.86930000
C       45.66990000      54.07380000      52.66830000
C       46.93490000      54.66590000      53.50320000
C       47.34020000      44.85200000      45.81540000
C       52.86770000      54.51090000      45.79100000
C       54.25620000      47.13220000      55.05250000
C       53.61930000      53.17420000      45.26910000
C       45.72170000      47.21580000      45.63190000
C       52.66520000      44.08630000      53.16900000
C       52.78510000      52.76300000      44.14910000
C       44.67100000      52.96360000      52.53490000
C       47.35300000      55.80210000      52.69290000
C       47.48800000      44.09210000      46.93410000
C       52.71550000      55.46530000      46.93470000
C       46.89950000      47.40740000      44.72560000
C       46.92310000      52.46190000      55.85030000
C       53.16640000      47.33260000      55.90730000
C       55.91140000      46.83670000      52.66680000
C       55.94390000      53.10530000      47.52320000
C       44.00360000      47.14950000      47.30820000
C       52.67450000      44.15280000      47.22990000
C       53.04500000      52.63880000      55.35960000
C       44.04650000      52.94030000      47.29200000
C       47.46440000      56.05700000      46.71630000
C       47.35930000      44.61720000      53.05440000
C       52.48940000      55.91990000      53.06310000
C       47.21830000      47.29690000      55.86800000
C       46.81780000      52.78480000      44.54350000
C       53.03980000      47.56830000      44.12290000
C       55.35270000      46.97880000      47.36760000
C       55.88220000      52.78120000      52.69710000
C       44.05230000      46.87500000      52.49670000
C       45.91010000      49.05500000      56.55560000
C       56.48240000      45.77790000      49.22530000
C       49.46730000      56.80080000      45.61520000
C       54.23300000      50.77340000      56.48970000
C       54.15030000      49.55870000      43.40160000
C       45.71720000      50.76020000      43.58890000
C       43.52120000      54.16960000      49.17680000
C       43.34320000      45.74720000      50.51610000
C       56.60190000      54.09160000      50.95080000
C       50.91370000      43.45700000      45.92300000
C       50.48080000      56.61840000      54.15140000
C       49.22930000      43.49700000      54.24180000
C       45.75120000      49.32220000      43.62630000
C       56.60250000      45.71010000      50.65860000
C       49.05610000      56.56270000      54.02880000
C       54.05840000      50.98480000      43.44110000
C       54.29470000      49.33900000      56.60590000
C       45.80830000      50.48120000      56.57990000
C       43.66290000      54.14390000      50.59690000
C       43.36680000      45.83990000      49.08950000
C       56.65200000      54.19970000      49.52590000
C       50.66390000      43.38480000      54.30210000
C       50.89760000      56.64840000      45.71740000
C       49.48830000      43.40940000      45.81990000
C       51.55020000      42.80500000      49.43030000
C       49.08690000      51.60130000      43.09220000
C       43.02180000      49.22520000      51.51900000
C       48.52570000      57.11500000      49.03900000
C       48.47770000      43.18550000      50.74500000
C       51.55800000      56.94840000      50.69690000
C       50.66690000      48.55920000      43.19580000
C       50.73590000      51.51560000      56.79400000
C       49.42530000      48.43930000      57.19550000
C       57.21310000      50.57350000      51.56430000
C       56.80870000      49.27590000      48.48680000
C       42.64950000      50.76270000      48.46680000
C       51.52280000      42.86240000      50.88000000
C       49.27990000      51.51480000      56.88590000
C       42.59300000      49.30940000      48.44770000
C       48.48080000      57.16730000      50.48710000
C       48.46760000      43.09000000      49.28960000
C       51.57820000      56.87840000      49.24070000
C       50.87500000      48.47370000      57.13130000
C       50.52850000      51.63330000      42.92890000
C       49.21810000      48.57910000      43.33760000
C       56.92000000      50.73060000      48.48340000
C       57.14490000      49.12470000      51.53020000
C       43.13460000      50.68200000      51.49210000
C       48.05080000      53.28240000      55.57450000
C       55.98300000      48.01260000      53.48970000
C       53.43000000      55.58370000      48.19000000
C       51.98930000      46.50990000      55.97950000
C       51.63880000      53.54630000      43.99440000
C       48.15270000      46.68500000      44.56700000
C       44.48230000      51.75000000      53.30030000
C       43.79640000      48.29610000      46.53550000
C       55.64590000      51.98450000      46.69910000
C       46.66850000      44.37230000      48.06170000
C       46.65630000      55.88610000      51.49480000
C       53.48540000      44.02220000      51.99040000
C       48.01310000      53.58500000      44.22810000
C       55.50440000      48.22570000      46.63840000
C       53.32480000      55.64320000      51.94530000
C       51.91560000      46.74870000      44.42010000
C       51.79810000      53.36650000      55.49840000
C       48.38000000      46.53980000      56.02940000
C       43.81720000      51.79570000      46.52240000
C       44.34710000      48.00970000      53.29920000
C       56.03410000      51.61920000      53.45520000
C       46.62520000      44.46870000      51.81430000
C       46.66660000      55.80680000      47.86960000
C       53.43890000      43.98980000      48.38560000
C       48.19450000      50.66850000      57.05550000
C       57.01160000      48.04330000      50.68310000
C       50.86550000      56.93490000      48.05750000
C       51.95970000      49.31820000      57.00310000
C       51.68020000      50.86120000      42.93160000
C       48.06010000      49.32940000      43.37960000
C       43.13740000      51.83570000      50.72860000
C       42.71610000      48.17380000      49.22950000
C       57.10000000      51.81070000      49.33390000
C       49.31300000      42.92650000      48.20360000
C       49.22440000      57.14010000      51.66150000
C       50.68030000      42.98500000      51.96640000
C       48.00030000      50.79340000      43.29120000
C       56.82560000      48.10580000      49.22100000
C       50.69000000      57.09650000      51.76760000
C       51.75170000      49.39640000      42.99640000
C       51.90460000      50.78080000      56.81990000
C       48.27000000      49.20430000      57.13820000
C       42.89220000      51.85750000      49.27980000
C       42.83490000      48.12530000      50.69230000
C       57.16650000      51.72930000      50.79950000
C       49.21710000      43.16340000      51.91170000
C       49.40220000      57.10750000      47.97500000
C       50.77940000      42.86180000      48.27800000
C       52.99280000      48.77780000      43.34460000
C       43.33990000      52.99850000      48.51910000
C       48.52630000      43.70540000      53.07100000
C       46.84170000      51.52920000      43.75700000
C       47.12750000      48.45510000      56.66940000
C       53.06190000      51.47430000      56.27600000
C       56.27270000      46.95240000      48.52820000
C       56.69620000      52.87150000      51.54720000
C       43.25120000      46.89990000      51.30240000
C       51.28370000      56.70530000      53.01110000
C       51.52020000      43.34480000      47.13720000
C       48.70900000      56.79910000      46.76890000
C       53.13880000      48.59720000      56.62780000
C       43.76720000      52.98950000      51.36120000
C       48.70010000      43.31590000      46.97020000
C       46.95880000      51.27030000      56.65500000
C       46.90420000      48.60730000      43.86600000
C       52.84390000      51.59590000      43.35990000
C       56.63150000      46.86450000      51.40210000
C       56.72560000      53.05280000      48.73040000
C       43.21040000      47.04310000      48.47490000
C       51.56980000      56.40720000      46.90160000
C       51.40260000      43.36230000      53.14410000
C       48.47280000      56.65380000      52.80010000
