240
Lattice="100.0 0.0 0.0 0.0 100.0 0.0 0.0 0.0 100.0" Properties=species:S:1:pos:R:3 name=C-53965-5632-628 pressure=-66.8540330885346 spacegroup=C1 times_found=1 energy=-1745.58472376623 pbc="T T T"
C       51.06690000      50.06610000      58.70510000
C       49.82820000      58.31770000      50.70780000
C       57.55730000      50.48450000      51.34310000
C       49.48980000      50.91060000      42.03920000
C       49.43600000      48.92190000      58.13120000
C       50.89610000      49.40920000      41.92370000
C       48.67470000      57.74120000      49.05820000
C       49.25550000      42.53510000      50.37630000
C       50.72860000      42.69570000      48.93180000
C       42.24860000      50.25580000      50.04080000
C       42.10790000      49.16080000      51.75640000
C       58.33820000      48.82120000      50.35360000
C       50.79720000      48.64880000      58.44950000
C       50.72960000      42.51250000      50.37510000
C       57.89710000      49.12270000      51.69660000
C       49.43540000      49.44900000      41.88780000
C       49.74600000      50.36370000      58.10600000
C       50.93950000      50.86350000      42.13620000
C       49.26190000      42.72150000      48.93340000
C       48.42060000      58.15410000      50.42420000
C       50.11150000      57.73310000      49.36390000
C       41.70020000      48.90990000      50.38630000
C       42.38390000      50.54590000      51.47440000
C       57.74220000      50.13270000      49.93330000
C       46.42220000      44.81680000      48.11250000
C       44.45180000      48.36270000      46.26010000
C       48.40140000      46.58110000      43.79530000
C       53.55310000      44.37960000      51.55260000
C       53.94160000      55.37880000      48.01320000
C       45.92550000      55.89790000      51.55150000
C       55.43380000      48.21070000      54.13860000
C       56.20910000      51.38650000      45.95700000
C       44.61480000      51.75180000      54.07160000
C       51.84940000      46.25820000      55.88240000
C       51.87950000      53.49700000      44.46220000
C       48.25990000      53.92220000      55.48720000
C       45.98980000      55.46640000      48.12200000
C       44.29860000      51.77390000      46.15550000
C       48.44210000      53.64200000      44.10280000
C       53.81740000      55.74480000      51.32790000
C       53.65010000      44.66500000      48.09060000
C       46.47310000      44.45580000      51.56500000
C       55.29230000      51.69310000      53.90670000
C       55.83770000      48.04800000      46.11380000
C       44.55700000      48.24220000      54.23180000
C       51.64290000      53.73270000      55.30010000
C       51.75470000      46.44960000      43.74690000
C       48.22480000      46.31250000      55.85930000
C       52.94190000      44.79730000      46.81040000
C       44.70860000      47.10480000      53.32680000
C       47.24260000      52.93100000      44.03010000
C       47.21000000      44.34640000      52.75920000
C       46.83790000      55.31660000      46.94070000
C       52.75350000      55.64670000      52.20960000
C       55.97410000      47.14600000      47.17670000
C       55.16930000      52.79730000      52.96510000
C       44.05890000      52.47480000      47.35950000
C       52.61030000      52.84870000      55.79460000
C       52.97870000      47.13170000      43.79810000
C       47.05070000      47.00950000      56.27340000
C       52.72950000      55.62380000      47.31260000
C       44.63710000      52.90440000      53.18620000
C       47.23110000      47.34490000      43.88320000
C       46.80940000      55.92730000      52.64190000
C       47.15080000      44.95230000      46.84560000
C       52.80630000      44.30220000      52.74470000
C       55.94090000      52.13090000      47.11260000
C       55.32300000      47.04710000      53.26930000
C       44.20840000      47.41270000      47.25550000
C       53.03200000      46.93600000      56.30360000
C       53.10220000      52.72320000      44.53980000
C       47.54740000      52.78450000      55.94520000
C       53.81310000      49.21650000      43.12090000
C       49.27970000      43.57490000      53.47930000
C       43.37480000      53.03260000      49.54540000
C       46.66840000      49.26970000      57.17020000
C       46.46080000      50.88500000      43.21980000
C       52.94120000      50.69580000      56.80070000
C       50.75150000      43.75090000      46.08810000
C       50.54330000      56.22220000      52.50850000
C       49.09640000      56.40960000      46.47140000
C       56.31120000      53.09000000      50.72060000
C       56.45110000      46.94870000      49.50680000
C       43.64090000      46.86510000      51.02670000
C       53.82660000      50.67220000      43.25160000
C       49.10100000      56.41540000      52.77140000
C       43.64080000      47.12010000      49.54920000
C       46.95740000      50.70710000      56.91700000
C       46.44280000      49.43420000      43.20750000
C       53.24400000      49.24540000      57.07180000
C       50.56380000      56.34940000      46.69770000
C       50.72830000      43.56840000      53.47320000
C       49.27420000      43.79940000      46.09870000
C       56.42290000      46.75050000      50.99470000
C       56.34180000      52.75290000      49.29580000
C       43.37450000      53.26740000      51.00870000
C       47.91530000      56.30330000      47.17000000
C       56.57700000      47.78310000      48.38160000
C       47.41490000      48.10930000      57.11640000
C       51.62060000      56.34330000      51.64820000
C       51.78830000      43.89260000      46.98110000
C       48.28660000      43.46870000      52.54030000
C       43.65380000      47.36930000      52.31150000
C       43.38670000      51.99100000      48.58480000
C       56.15850000      52.46490000      51.93120000
C       52.88990000      48.24100000      42.92550000
C       52.02000000      51.75490000      56.63520000
C       47.40050000      51.87710000      43.10650000
C       48.25570000      43.98850000      47.00080000
C       56.53170000      51.73440000      48.37600000
C       48.01450000      51.65100000      56.77600000
C       51.71590000      43.44100000      52.53230000
C       51.53410000      56.40240000      47.71720000
C       47.85830000      56.82790000      52.35020000
C       43.63630000      52.57250000      52.16510000
C       43.56450000      48.01090000      48.46030000
C       56.38950000      47.29720000      52.26360000
C       52.93730000      51.69910000      43.48520000
C       52.68910000      47.98230000      57.23730000
C       47.34980000      48.43930000      42.99550000
C       49.33740000      46.85600000      56.65270000
C       46.56420000      56.41820000      49.05280000
C       56.62550000      49.16780000      46.53080000
C       50.80100000      47.18430000      42.96390000
C       50.50950000      53.43820000      56.10810000
C       49.49250000      52.96130000      43.39310000
C       53.42360000      56.39780000      50.14610000
C       52.88680000      43.87890000      49.03640000
C       47.14340000      43.79550000      50.48250000
C       43.72510000      49.26590000      53.64100000
C       43.56590000      50.64140000      46.00400000
C       56.14210000      50.65130000      53.37980000
C       49.40930000      54.18590000      56.14550000
C       47.14630000      43.98230000      49.04830000
C       56.95110000      50.26240000      45.82530000
C       50.92520000      52.88340000      43.55760000
C       50.75930000      46.77180000      56.71750000
C       49.37450000      47.24530000      42.98190000
C       52.87480000      43.71760000      50.47500000
C       54.15300000      56.27380000      49.01600000
C       46.44850000      56.67040000      50.46390000
C       43.78860000      50.69610000      53.52790000
C       43.71630000      49.50810000      46.69560000
C       56.25430000      49.23050000      53.54310000
C       43.15310000      51.26320000      52.36090000
C       51.61570000      51.78540000      42.92770000
C       51.74070000      43.05710000      51.13090000
C       57.09750000      50.37880000      48.69530000
C       57.03730000      48.50910000      52.57880000
C       43.31830000      49.41310000      48.08500000
C       49.42150000      51.44870000      57.23790000
C       48.69430000      48.41620000      42.44200000
C       51.39860000      47.69780000      57.65930000
C       48.25290000      43.43870000      48.31320000
C       47.47660000      57.46140000      51.11850000
C       51.26270000      56.96780000      49.05470000
C       42.97520000      48.55590000      52.64110000
C       51.54980000      48.30260000      42.41960000
C       52.02860000      56.70160000      50.24040000
C       56.86140000      49.15990000      47.95680000
C       56.73880000      51.20020000      52.18650000
C       42.96050000      50.59030000      48.85270000
C       48.76360000      47.96740000      57.41560000
C       48.78660000      51.89820000      42.67870000
C       50.60150000      52.14740000      56.76980000
C       47.74280000      56.94840000      48.41620000
C       48.25810000      43.10000000      51.13510000
C       51.76470000      43.36510000      48.30320000
C       55.51730000      53.90590000      49.00490000
C       54.37430000      49.31190000      56.15930000
C       49.13050000      55.36470000      53.78400000
C       44.08920000      54.50290000      50.83830000
C       44.50510000      45.92510000      49.42540000
C       55.48250000      45.66400000      50.83000000
C       45.59960000      49.41530000      44.39470000
C       45.72410000      50.74020000      56.15510000
C       54.91020000      50.54250000      44.19240000
C       50.66410000      55.52920000      45.51480000
C       50.74880000      44.66790000      54.42690000
C       49.30060000      44.66060000      44.95060000
C       55.57550000      45.76300000      49.40830000
C       54.17420000      50.70450000      55.97080000
C       49.27920000      44.67320000      54.43260000
C       44.57580000      45.77850000      50.84320000
C       44.04420000      54.30800000      49.39850000
C       55.48930000      54.24430000      50.44960000
C       45.59000000      50.89800000      44.38230000
C       45.48870000      49.33060000      56.33330000
C       54.79080000      49.06570000      44.18620000
C       50.76150000      44.60880000      44.93720000
C       50.59230000      55.24250000      53.63170000
C       49.22860000      55.54320000      45.33180000
C       55.36680000      45.96010000      47.12780000
C       45.82970000      46.99950000      55.72670000
C       46.96160000      54.40640000      45.81410000
C       45.67720000      46.04820000      53.14600000
C       44.68060000      53.66640000      47.32130000
C       54.29280000      53.93070000      52.75160000
C       53.78950000      46.85140000      44.91880000
C       53.85780000      52.89860000      55.33010000
C       46.33810000      53.16270000      45.10380000
C       52.93550000      54.63260000      53.18490000
C       53.01680000      45.65810000      45.62490000
C       46.94950000      45.33390000      53.73180000
C       54.89240000      53.12120000      46.81500000
C       46.34950000      52.75530000      55.34010000
C       47.12830000      45.84250000      45.68320000
C       45.44290000      54.08620000      53.00280000
C       44.75980000      46.20060000      47.16250000
C       54.36050000      45.98340000      53.11260000
C       54.28030000      52.66020000      45.43580000
C       54.20520000      46.96220000      55.66910000
C       46.42900000      47.10130000      45.01930000
C       53.08140000      45.29380000      53.70930000
C       52.72440000      54.88820000      46.19120000
C       46.72160000      54.80930000      53.50090000
C       54.76780000      48.20600000      55.36560000
C       47.95960000      54.66170000      54.28720000
C       54.74970000      54.15590000      47.84200000
C       45.44860000      48.24650000      45.24620000
C       45.45670000      51.72990000      55.19920000
C       55.16520000      51.59620000      45.05110000
C       51.72570000      54.63080000      45.29340000
C       51.92130000      45.44180000      54.71000000
C       48.31060000      45.60930000      44.79030000
C       45.04600000      54.84960000      51.78140000
C       45.22310000      45.53520000      48.28640000
C       54.55570000      45.31500000      51.79530000
C       54.55880000      51.72570000      55.09870000
C       48.12010000      45.46340000      54.71860000
C       54.86760000      45.35160000      48.26840000
C       45.38610000      52.04120000      45.24550000
C       45.19700000      48.23250000      55.47350000
C       54.85430000      47.93300000      45.08660000
C       51.80820000      45.48680000      44.75160000
C       51.75460000      54.51200000      54.09380000
C       48.23860000      54.61920000      45.06990000
C       45.48600000      45.40420000      51.81450000
C       44.88700000      54.59710000      48.30170000
C       54.67550000      54.67850000      51.50240000
