240
Lattice="100.0 0.0 0.0 0.0 100.0 0.0 0.0 0.0 100.0" Properties=species:S:1:pos:R:3 name=C-53965-5632-135 pressure=0.091152432391176 spacegroup=C1 times_found=1 energy=-1788.08302296275 pbc="T T T"
C       51.62740000      46.55740000      44.12440000
C       46.40580000      43.78980000      51.21090000
C       44.32110000      51.27540000      46.87330000
C       51.32750000      53.26720000      56.00130000
C       48.62320000      46.59110000      56.05990000
C       48.71050000      53.26740000      44.08580000
C       46.40510000      56.40100000      48.67890000
C       53.07670000      44.12670000      48.63660000
C       53.35260000      56.14120000      51.13770000
C       44.21800000      48.69260000      53.35730000
C       55.90200000      51.46620000      53.32230000
C       56.31900000      48.68570000      46.50280000
C       48.87480000      46.43920000      43.84130000
C       53.00290000      44.17730000      51.28790000
C       56.34000000      51.39100000      46.44760000
C       48.70110000      53.14950000      55.95400000
C       51.35020000      46.64850000      55.72420000
C       51.43890000      53.31130000      44.28480000
C       53.16870000      56.04020000      48.49720000
C       46.55880000      44.07660000      48.46050000
C       46.49290000      56.28910000      51.36200000
C       56.11870000      48.76460000      53.46710000
C       44.32830000      51.47960000      53.40830000
C       44.18250000      48.57510000      46.88720000
C       48.24200000      54.52440000      54.12490000
C       54.59550000      54.24720000      48.05700000
C       54.43770000      48.44340000      54.97560000
C       48.49830000      44.88290000      45.45890000
C       51.19590000      55.31760000      45.60740000
C       51.13440000      44.74870000      54.29400000
C       54.40660000      45.96880000      51.74920000
C       45.03690000      54.56470000      51.63280000
C       44.55310000      45.49240000      48.67970000
C       54.62220000      51.63230000      44.95000000
C       45.95790000      48.06870000      45.45450000
C       45.64000000      51.27700000      55.46910000
C       51.81180000      54.53970000      54.07570000
C       44.96090000      54.64100000      48.28650000
C       45.80380000      48.34400000      54.91560000
C       51.41440000      44.49980000      45.45970000
C       48.09520000      54.66760000      45.87560000
C       48.00500000      45.29700000      54.18460000
C       44.90240000      45.45370000      51.67750000
C       54.87560000      54.50410000      51.53740000
C       54.49140000      45.92930000      48.20420000
C       45.98000000      51.51120000      45.38340000
C       54.64750000      48.39800000      44.97800000
C       54.24500000      51.69490000      54.83250000
C       47.37840000      45.73840000      45.30070000
C       46.48160000      45.71550000      46.35710000
C       45.65840000      46.88860000      46.35490000
C       47.06800000      53.61800000      54.41210000
C       53.47520000      46.49690000      54.10170000
C       53.62170000      53.58090000      45.78610000
C       45.89450000      54.69790000      52.74710000
C       53.48760000      45.69870000      52.92080000
C       53.63790000      54.45500000      46.90920000
C       45.90380000      53.60160000      53.58580000
C       54.57480000      47.33570000      54.10880000
C       54.74270000      52.76500000      45.78420000
C       53.66610000      46.43890000      45.81750000
C       53.63460000      45.62680000      46.99360000
C       54.75380000      47.28980000      45.84830000
C       52.98090000      53.62460000      54.39140000
C       46.88590000      46.28390000      54.51450000
C       47.00450000      53.62200000      45.63940000
C       54.23890000      54.95080000      52.70690000
C       45.55580000      44.99860000      52.83960000
C       45.61810000      55.05510000      47.11000000
C       54.17020000      52.86170000      53.95530000
C       45.77310000      47.13470000      54.06750000
C       45.91300000      52.76990000      46.13460000
C       49.39770000      50.60890000      58.53160000
C       50.61630000      58.49270000      49.30940000
C       58.24330000      49.33320000      50.73960000
C       49.44320000      49.22220000      41.73450000
C       50.88600000      50.68360000      41.74190000
C       50.85360000      49.16290000      58.40720000
C       50.53890000      41.53620000      50.68610000
C       49.24130000      58.41300000      50.80990000
C       49.13040000      41.52020000      49.19870000
C       58.30570000      50.79630000      49.31220000
C       41.67700000      49.39230000      49.41510000
C       41.77780000      50.85330000      50.83490000
C       50.85660000      50.60130000      58.45510000
C       49.20260000      58.49560000      49.33080000
C       41.71620000      49.39220000      50.84720000
C       50.91100000      49.25460000      41.72220000
C       49.42220000      50.64630000      41.73910000
C       49.39530000      49.17050000      58.48690000
C       49.10750000      41.54450000      50.66570000
C       50.65510000      58.39860000      50.77930000
C       50.56740000      41.50580000      49.22730000
C       41.75630000      50.85240000      49.40270000
C       58.28990000      49.31610000      49.33200000
C       58.26610000      50.80920000      50.71980000
C       46.69150000      55.89200000      47.36690000
C       55.67840000      47.47510000      46.87300000
C       47.35370000      46.99300000      55.66860000
C       46.64820000      44.20540000      52.56660000
C       53.11410000      55.69490000      52.47450000
C       52.78100000      44.52500000      47.32400000
C       55.25280000      52.67440000      52.95660000
C       44.70880000      47.38030000      53.06290000
C       44.82610000      52.59140000      47.10620000
C       47.47890000      52.84240000      44.54200000
C       52.84620000      46.98220000      44.67790000
C       52.58650000      52.91220000      55.55530000
C       52.76270000      55.54170000      47.25470000
C       44.57200000      47.26760000      47.22330000
C       52.61470000      47.02750000      55.22490000
C       52.63300000      44.61960000      52.56240000
C       46.88210000      55.65980000      52.57110000
C       46.99120000      44.58190000      47.21390000
C       44.80780000      52.74150000      53.02510000
C       55.52860000      47.52470000      53.10910000
C       55.71320000      52.62090000      46.77820000
C       52.73720000      52.98170000      44.72910000
C       47.59620000      46.75950000      44.37800000
C       47.41670000      52.78440000      55.52390000
C       50.85440000      52.46590000      43.30660000
C       52.26470000      43.16680000      50.67710000
C       43.37980000      50.84150000      52.56920000
C       50.78920000      47.42350000      56.77420000
C       49.32450000      52.41590000      56.97380000
C       49.54310000      47.36050000      43.08440000
C       52.38980000      56.99240000      49.15160000
C       47.35520000      43.09110000      49.10310000
C       47.38140000      57.12350000      50.75950000
C       43.24500000      49.27390000      47.65410000
C       57.10240000      50.77480000      47.40160000
C       56.89490000      49.40130000      52.54510000
C       49.41690000      52.43780000      43.22800000
C       47.29510000      42.99160000      50.54860000
C       56.82870000      50.85590000      52.49700000
C       49.35540000      47.39060000      56.93430000
C       50.74750000      52.44890000      56.97030000
C       50.99460000      47.40720000      43.18030000
C       47.32530000      57.19690000      49.31320000
C       52.31990000      43.12690000      49.25570000
C       52.44510000      56.98430000      50.58350000
C       57.08450000      49.32000000      47.43550000
C       43.32500000      50.71350000      47.65000000
C       43.31320000      49.38560000      52.56750000
C       43.38880000      47.51550000      50.89230000
C       47.67680000      50.57430000      43.54010000
C       50.65160000      43.15350000      47.40970000
C       43.52660000      52.61330000      49.28340000
C       56.39770000      47.60350000      49.24570000
C       56.43210000      52.56410000      50.67040000
C       47.53960000      49.17350000      56.83380000
C       52.57610000      50.69640000      56.68380000
C       52.71610000      49.22760000      43.42180000
C       50.73790000      56.46120000      52.43210000
C       48.97080000      43.34870000      52.43630000
C       49.04310000      56.72620000      47.49790000
C       56.35560000      47.62050000      50.76170000
C       52.68110000      50.74500000      43.44250000
C       49.16580000      43.21730000      47.37940000
C       56.48340000      52.56470000      49.14630000
C       43.29030000      47.50390000      49.40930000
C       43.52830000      52.62140000      50.79280000
C       52.55750000      49.19340000      56.61560000
C       47.56340000      50.65490000      56.88850000
C       47.69060000      49.07370000      43.54740000
C       49.22350000      56.46960000      52.46130000
C       50.45800000      43.31950000      52.41090000
C       50.53640000      56.77310000      47.49070000
C       44.28740000      46.75380000      51.81470000
C       46.99140000      51.52060000      44.40050000
C       51.59660000      44.00470000      46.67330000
C       44.38780000      53.31790000      48.29050000
C       55.53410000      46.94710000      48.19220000
C       55.56180000      53.26310000      51.65050000
C       46.82550000      48.28390000      55.91290000
C       53.20870000      51.65790000      55.79700000
C       53.42270000      48.29340000      44.27420000
C       51.79510000      55.57600000      53.05130000
C       47.96480000      44.26200000      53.12820000
C       48.03130000      55.78530000      46.85000000
C       55.44520000      46.98210000      51.79000000
C       53.36500000      51.69650000      44.29350000
C       48.29970000      44.14060000      46.66270000
C       55.61840000      53.20580000      48.07570000
C       44.07870000      46.70520000      48.45870000
C       44.37530000      53.32270000      51.73010000
C       53.21910000      48.30420000      55.68540000
C       46.81240000      51.56320000      56.01680000
C       47.01720000      48.05270000      44.44170000
C       48.20240000      55.56440000      53.10690000
C       51.39210000      44.17480000      53.13850000
C       51.47640000      55.93930000      46.73520000
C       51.26440000      42.48280000      48.51710000
C       42.71380000      48.66060000      51.49860000
C       48.70650000      51.28200000      42.73820000
C       51.33130000      57.36830000      51.41510000
C       48.39760000      42.52930000      51.34450000
C       48.47930000      57.57300000      48.56920000
C       42.78050000      51.50400000      48.71250000
C       57.32390000      48.59320000      48.64590000
C       57.25200000      51.54310000      51.32870000
C       48.64270000      48.49610000      57.52790000
C       51.52200000      51.33000000      57.47650000
C       51.64850000      48.57560000      42.68970000
C       48.48810000      42.51990000      48.45600000
C       57.23680000      48.63110000      51.38510000
C       51.57950000      51.36780000      42.73970000
C       48.58760000      57.39800000      51.49350000
C       51.15100000      42.57860000      51.37790000
C       51.22660000      57.52350000      48.51770000
C       57.36960000      51.52720000      48.58780000
C       42.62600000      48.61150000      48.75770000
C       42.81410000      51.53730000      51.46020000
C       51.50590000      48.52300000      57.35120000
C       48.64210000      51.30210000      57.58030000
C       48.75490000      48.50380000      42.70450000
C       55.62910000      49.32770000      45.40620000
C       49.09860000      45.66230000      55.11410000
C       45.40140000      55.60170000      49.30690000
C       55.25030000      50.80590000      54.41110000
C       44.91700000      49.31050000      54.41300000
C       45.09320000      50.54720000      45.90180000
C       49.18390000      54.27000000      44.94730000
C       50.90370000      45.38650000      44.61910000
C       50.72870000      54.14260000      55.02180000
C       45.41020000      44.57380000      50.61320000
C       54.32400000      55.32990000      50.46300000
C       54.00800000      45.04320000      49.26850000
C       45.06570000      49.13670000      45.90660000
C       50.53200000      45.59580000      55.09810000
C       54.20120000      55.21430000      49.07370000
C       44.88710000      50.73120000      54.52530000
C       55.37210000      49.41380000      54.51740000
C       55.62710000      50.72090000      45.38310000
C       50.61560000      54.38210000      44.88800000
C       49.48390000      45.37290000      44.55030000
C       49.31090000      54.10160000      55.02830000
C       53.97320000      45.06290000      50.68110000
C       45.43640000      55.55310000      50.69820000
C       45.42770000      44.64720000      49.19840000
