240
Lattice="100.0 0.0 0.0 0.0 100.0 0.0 0.0 0.0 100.0" Properties=species:S:1:pos:R:3 name=C-53965-5632-1431 pressure=0.0418155813926765 spacegroup=C2 times_found=1 energy=-1764.39128379423 pbc="T T T"
C       42.50060000      49.32460000      50.99650000
C       50.78890000      42.89540000      49.16550000
C       49.30870000      50.74390000      42.14130000
C       57.49900000      50.67560000      50.99950000
C       57.78230000      49.20930000      49.67670000
C       42.21780000      50.79070000      49.67340000
C       49.21140000      57.10450000      49.16420000
C       49.35880000      42.79170000      50.61510000
C       50.64100000      57.20840000      50.61440000
C       50.69460000      49.25500000      42.14170000
C       50.71440000      50.72580000      57.56410000
C       49.28250000      49.27530000      57.56390000
C       42.44500000      49.38090000      49.55370000
C       50.79770000      42.82190000      50.60270000
C       49.27620000      50.71920000      57.56810000
C       57.55520000      50.61900000      49.55680000
C       57.66670000      49.24990000      51.11520000
C       42.33280000      50.75030000      51.11190000
C       49.20210000      57.17820000      50.60140000
C       49.34610000      42.85140000      49.17820000
C       50.65420000      57.14850000      49.17740000
C       50.72070000      49.28180000      57.56850000
C       50.73770000      50.70060000      42.13890000
C       49.26560000      49.29830000      42.13870000
C       55.45810000      53.67160000      51.44560000
C       51.31750000      55.38120000      53.76390000
C       53.87680000      51.38430000      55.73490000
C       44.54130000      46.32870000      51.44380000
C       44.27300000      53.60850000      48.90040000
C       55.72740000      46.39130000      48.90330000
C       48.68100000      44.61930000      53.76410000
C       48.67950000      55.33650000      45.99820000
C       51.32220000      44.66300000      45.99950000
C       46.12080000      48.61650000      55.73350000
C       46.07090000      51.35850000      43.82230000
C       53.93160000      48.64060000      43.82420000
C       55.32020000      53.39680000      48.63220000
C       51.41650000      55.32750000      46.06220000
C       54.10710000      51.16640000      43.43100000
C       44.68040000      46.60300000      48.63050000
C       44.23460000      54.00460000      51.62860000
C       55.76470000      45.99570000      51.63150000
C       48.58520000      44.67200000      46.06230000
C       48.56080000      55.36370000      53.77810000
C       51.43760000      44.63690000      53.77950000
C       45.89560000      48.83270000      43.42950000
C       46.10130000      51.38880000      55.80870000
C       53.89620000      48.61200000      55.81050000
C       46.28700000      46.20390000      55.98550000
C       55.68390000      47.84650000      46.94110000
C       46.18750000      54.53250000      46.03860000
C       53.71050000      53.79690000      55.98660000
C       53.82160000      46.40320000      44.90510000
C       46.18050000      53.59610000      44.90300000
C       44.31740000      52.15310000      46.93850000
C       44.11330000      46.26900000      53.82800000
C       55.88510000      53.73160000      53.82990000
C       53.81420000      45.46700000      46.04080000
C       53.69210000      55.89180000      53.72660000
C       46.30640000      44.10880000      53.72590000
C       45.89550000      46.68840000      44.93240000
C       55.68250000      46.06460000      54.07150000
C       46.30240000      56.03380000      53.78540000
C       54.10660000      53.31090000      44.93370000
C       53.71860000      46.19650000      56.17790000
C       46.27890000      53.80430000      56.17580000
C       44.31580000      53.93600000      54.06860000
C       44.94710000      46.84960000      46.06290000
C       55.05450000      53.14990000      46.06450000
C       53.69600000      43.96680000      53.78780000
C       53.81190000      55.78430000      46.28830000
C       46.18970000      44.21510000      46.28750000
C       46.00380000      55.59380000      51.37330000
C       51.41660000      46.23800000      55.54230000
C       55.85910000      50.60630000      46.12510000
C       53.99560000      44.40640000      51.37570000
C       53.75660000      55.20890000      48.63520000
C       46.24390000      44.79090000      48.63440000
C       48.58110000      53.76270000      55.54120000
C       48.44970000      46.37840000      44.36960000
C       51.55270000      53.62090000      44.36970000
C       44.14250000      49.39320000      46.12280000
C       44.37760000      51.45130000      54.14550000
C       55.62060000      48.54930000      54.14800000
C       46.09340000      55.07690000      48.55010000
C       51.29420000      46.24950000      44.17830000
C       55.58490000      51.34800000      54.07670000
C       53.90720000      44.92290000      48.55240000
C       53.78290000      55.36520000      51.36570000
C       46.21660000      44.63500000      51.36480000
C       48.70820000      53.74970000      44.17720000
C       48.65450000      46.23320000      55.52040000
C       51.34320000      53.76750000      55.52040000
C       44.41340000      48.65260000      54.07460000
C       44.39960000      50.47860000      45.23700000
C       55.60240000      49.52070000      45.23940000
C       47.22370000      44.82860000      45.67660000
C       45.44260000      47.93900000      44.40080000
C       44.94460000      46.18970000      47.25920000
C       52.77810000      55.17080000      45.67710000
C       52.71110000      44.60190000      54.42940000
C       47.28710000      55.39870000      54.42750000
C       54.55980000      52.06020000      44.40240000
C       54.38830000      47.27680000      55.74150000
C       45.60930000      52.72410000      55.73930000
C       55.05650000      53.80990000      47.26080000
C       55.44960000      45.44800000      52.91920000
C       44.54920000      54.55240000      52.91630000
C       47.37690000      44.60850000      54.36080000
C       45.61250000      47.28490000      55.58250000
C       44.60110000      45.69090000      52.72950000
C       52.62130000      55.39210000      54.36120000
C       52.62530000      44.86240000      45.53870000
C       47.37660000      55.13690000      45.53690000
C       54.38520000      52.71590000      55.58400000
C       54.35720000      47.64420000      44.73650000
C       45.64500000      52.35510000      44.73440000
C       55.39770000      54.30950000      52.73120000
C       55.31670000      46.61870000      47.57850000
C       44.68430000      53.38090000      47.57580000
C       48.46770000      48.59320000      43.01860000
C       43.35640000      48.81550000      48.67330000
C       48.53000000      43.67190000      48.43140000
C       51.53520000      51.40580000      43.01900000
C       51.52420000      48.49980000      56.76720000
C       48.47290000      51.50110000      56.76640000
C       56.64420000      51.18430000      48.67600000
C       56.84840000      48.42670000      51.88050000
C       43.15080000      51.57360000      51.87740000
C       51.47060000      56.32790000      48.43110000
C       51.59160000      43.59200000      51.41580000
C       48.40780000      56.40820000      51.41420000
C       48.49820000      48.49180000      56.74240000
C       43.38810000      48.58200000      51.72030000
C       48.56600000      43.56750000      51.43740000
C       51.49900000      51.50910000      56.74280000
C       51.42280000      48.48200000      43.01460000
C       48.58010000      51.51700000      43.01380000
C       56.61120000      51.41830000      51.72290000
C       56.98960000      48.35790000      48.95570000
C       43.01080000      51.64190000      48.95260000
C       51.43340000      56.43270000      51.43710000
C       51.53680000      43.76770000      48.40880000
C       48.46380000      56.23210000      48.40720000
C       56.33800000      50.28290000      47.48350000
C       47.17880000      55.97130000      50.67330000
C       50.79490000      47.32470000      56.22120000
C       43.66300000      49.71670000      47.48090000
C       43.73520000      50.82920000      53.02670000
C       56.26360000      49.17120000      53.02950000
C       52.82090000      44.02880000      50.67530000
C       52.65290000      55.87870000      49.20910000
C       47.34750000      44.12120000      49.20880000
C       49.20250000      52.67610000      56.22050000
C       49.13080000      47.40100000      43.62120000
C       50.87190000      52.59810000      43.62120000
C       56.19740000      50.70480000      52.97330000
C       47.21630000      55.78390000      49.12650000
C       50.64670000      47.34880000      43.55940000
C       43.80140000      49.29570000      52.97080000
C       43.59320000      51.15810000      47.73430000
C       56.40780000      48.84150000      47.73710000
C       52.78400000      44.21600000      49.12840000
C       52.64830000      55.94550000      50.73260000
C       47.35140000      44.05460000      50.73230000
C       49.35600000      52.65030000      43.55880000
C       49.25530000      47.32380000      56.20730000
C       50.74210000      52.67710000      56.20730000
C       45.45320000      45.67860000      49.36020000
C       49.23840000      45.44510000      45.09240000
C       44.74220000      49.54110000      42.90290000
C       54.54700000      54.32140000      49.36150000
C       54.97510000      45.19360000      50.75750000
C       45.02460000      54.80650000      50.75480000
C       50.76370000      54.55420000      45.09210000
C       50.71550000      45.52500000      54.57340000
C       49.28260000      54.47570000      54.57240000
C       55.26080000      50.45790000      42.90500000
C       54.76880000      49.30380000      54.96740000
C       45.22910000      50.69690000      54.96530000
C       45.41550000      45.56030000      50.68900000
C       49.37890000      45.51730000      54.56880000
C       45.24710000      49.36200000      54.93530000
C       54.58420000      54.43980000      50.69030000
C       54.91710000      45.37850000      49.42690000
C       45.08310000      54.62140000      49.42420000
C       50.61920000      54.48340000      54.56850000
C       50.57730000      45.38480000      45.02690000
C       49.42480000      54.61450000      45.02600000
C       54.75080000      50.63870000      54.93720000
C       55.02610000      49.59330000      43.90570000
C       44.97650000      50.40590000      43.90360000
C       52.70560000      45.60760000      55.52570000
C       55.42430000      51.83170000      45.56120000
C       45.59410000      55.59060000      52.74280000
C       47.29210000      54.39320000      55.52400000
C       47.09460000      46.01320000      44.81770000
C       52.90750000      53.98600000      44.81840000
C       44.57760000      48.16770000      45.55920000
C       44.57370000      52.78540000      54.67700000
C       55.42440000      47.21520000      54.67960000
C       54.40480000      44.40980000      52.74550000
C       54.27480000      55.06020000      47.32190000
C       45.72630000      44.93940000      47.32080000
C       52.61550000      45.82570000      44.40770000
C       55.44480000      52.69290000      54.54220000
C       45.68670000      54.39960000      47.29720000
C       47.38680000      54.17350000      44.40600000
C       47.36140000      45.61640000      55.45320000
C       52.63640000      54.38430000      55.45370000
C       44.55330000      47.30780000      54.54030000
C       44.71280000      51.76180000      45.65200000
C       55.28900000      48.23760000      45.65440000
C       54.31440000      45.60000000      47.29960000
C       54.34370000      55.35700000      52.68310000
C       45.65520000      44.64340000      52.68200000
C       56.49990000      47.23530000      49.69000000
C       49.25340000      55.83530000      47.19200000
C       47.26430000      49.22700000      56.31970000
C       43.50030000      52.76460000      49.68690000
C       43.93710000      47.47600000      50.88480000
C       56.06250000      52.52410000      50.88700000
C       50.74780000      44.16430000      47.19320000
C       50.68900000      55.96680000      52.63240000
C       49.30990000      44.03350000      52.63290000
C       52.73310000      50.77390000      56.32070000
C       52.71030000      49.16160000      43.31630000
C       47.29250000      50.83750000      43.31510000
C       56.44710000      47.16830000      51.16330000
C       49.15010000      55.95330000      52.62790000
C       47.24690000      49.35040000      43.23440000
C       43.55240000      52.83190000      51.16020000
C       43.97930000      47.61580000      49.33190000
C       56.02100000      52.38410000      49.33410000
C       50.84880000      44.04710000      52.62910000
C       50.76280000      55.86640000      47.20370000
C       49.23840000      44.13320000      47.20420000
C       52.75590000      50.64870000      43.23550000
C       52.74480000      49.24710000      56.34770000
C       47.25260000      50.75380000      56.34640000
