240
Lattice="100.0 0.0 0.0 0.0 100.0 0.0 0.0 0.0 100.0" Properties=species:S:1:pos:R:3 name=C-53965-5632-1065 pressure=65.6629376155327 energy=-1764.50848389198 spacegroup=C1 times_found=1 pbc="T T T"
C       45.41590000      54.81130000      48.31470000
C       48.21850000      45.39700000      54.88530000
C       54.94770000      48.26570000      45.29930000
C       44.85800000      45.04280000      51.72940000
C       54.33990000      45.53680000      48.04890000
C       55.02500000      55.17360000      51.78360000
C       48.15800000      54.24570000      45.55020000
C       51.79650000      54.66940000      55.11610000
C       51.69570000      44.96070000      44.94180000
C       54.75890000      52.15780000      54.54200000
C       45.19560000      51.50410000      45.14720000
C       45.44550000      48.10740000      54.38450000
C       54.68050000      54.97440000      48.30250000
C       51.68610000      45.13990000      54.97350000
C       45.33800000      47.84700000      45.33710000
C       54.31210000      45.61760000      51.83720000
C       44.83650000      44.96110000      48.18230000
C       45.06800000      54.98770000      51.77930000
C       51.95270000      54.32910000      45.54460000
C       48.31380000      54.56590000      55.08390000
C       48.20480000      45.20330000      45.00080000
C       45.49820000      51.89580000      54.43850000
C       55.08530000      51.73610000      45.02070000
C       54.78470000      48.52610000      54.38360000
C       49.26710000      57.52600000      50.98680000
C       50.87660000      49.22830000      57.68910000
C       57.71500000      50.93550000      49.16530000
C       49.03620000      42.53400000      49.27150000
C       50.50810000      42.49450000      50.71850000
C       50.73310000      57.67820000      49.53720000
C       50.84070000      50.57390000      42.34910000
C       49.39590000      50.66290000      57.91350000
C       49.42360000      49.08570000      42.20130000
C       57.81110000      49.48940000      50.63600000
C       42.31220000      49.32010000      49.15470000
C       42.36420000      50.76570000      50.63020000
C       50.73050000      57.54850000      50.98830000
C       49.42420000      49.20020000      57.79460000
C       42.42030000      50.76150000      49.15880000
C       50.50870000      42.47310000      49.27770000
C       49.03570000      42.55670000      50.71990000
C       49.26160000      57.65610000      49.53510000
C       49.40250000      50.55860000      42.29350000
C       50.85750000      50.68340000      57.86080000
C       50.87630000      49.10610000      42.30570000
C       42.28330000      49.32720000      50.63130000
C       57.78570000      49.48010000      49.16380000
C       57.76550000      50.94100000      50.62940000
C       47.32470000      51.46630000      43.28930000
C       43.13330000      47.26060000      51.66090000
C       51.55190000      43.30880000      47.22800000
C       47.33610000      48.24820000      56.66440000
C       52.85090000      48.12390000      43.55540000
C       52.86380000      51.82690000      56.81050000
C       43.72160000      52.67740000      48.19900000
C       56.87670000      53.02920000      51.64870000
C       56.63730000      47.39950000      48.21250000
C       51.78760000      56.35980000      52.95510000
C       48.30400000      56.53400000      47.44160000
C       48.07650000      43.73740000      52.72400000
C       52.85790000      51.59620000      43.28530000
C       56.60550000      47.47720000      51.63290000
C       48.06520000      43.62320000      47.22080000
C       52.82750000      48.34830000      56.28350000
C       47.34170000      48.00940000      43.15290000
C       47.32590000      51.67290000      56.76470000
C       56.46690000      52.91260000      48.17260000
C       43.30340000      52.78580000      51.64740000
C       43.09260000      47.17850000      48.18260000
C       48.25860000      56.27880000      52.94100000
C       51.72480000      56.59080000      47.44470000
C       51.54970000      43.39980000      52.74250000
C       49.14510000      44.21400000      45.16270000
C       45.48490000      48.92390000      44.41400000
C       43.90880000      45.12570000      49.23880000
C       49.30040000      55.52580000      54.96360000
C       50.77250000      55.11000000      45.73710000
C       50.59140000      44.24080000      54.83260000
C       45.65590000      50.72200000      55.23710000
C       54.94260000      50.63660000      44.13230000
C       54.64780000      49.56430000      55.27070000
C       44.19770000      54.84000000      50.66350000
C       55.70730000      54.92900000      49.21870000
C       55.13530000      45.76590000      50.67610000
C       50.59360000      44.07670000      45.11460000
C       54.87510000      49.18910000      44.27920000
C       55.14730000      45.73230000      49.21400000
C       50.76260000      55.57090000      54.97600000
C       49.30630000      55.07940000      45.73610000
C       49.14410000      44.38690000      54.77000000
C       54.63690000      51.01140000      55.38280000
C       45.38930000      50.36260000      44.35110000
C       45.64150000      49.25830000      55.21170000
C       55.88510000      55.03540000      50.65880000
C       44.38310000      54.73660000      49.22310000
C       43.91880000      45.15930000      50.68020000
C       43.73700000      50.73930000      52.75070000
C       52.64030000      43.85860000      50.69420000
C       50.79590000      52.65710000      43.77160000
C       43.66430000      49.17180000      47.03990000
C       56.54330000      49.57510000      52.74810000
C       56.49970000      50.88220000      47.02450000
C       52.91910000      56.56240000      49.49520000
C       47.10390000      56.35390000      50.92510000
C       46.88720000      43.76360000      49.24750000
C       50.83870000      47.12700000      56.41740000
C       49.41600000      46.90370000      43.34850000
C       49.35730000      52.86700000      56.84000000
C       56.52730000      51.01060000      52.79870000
C       46.89290000      43.79560000      50.69650000
C       49.35420000      52.62080000      43.76410000
C       56.59720000      49.44680000      47.02070000
C       43.69570000      49.30050000      52.73890000
C       43.79200000      50.60960000      47.09150000
C       47.11370000      56.47040000      49.49120000
C       52.93440000      56.45500000      50.93220000
C       52.64500000      43.83420000      49.25740000
C       49.40520000      47.09190000      56.55570000
C       50.84530000      46.94250000      43.49690000
C       50.78720000      52.91450000      56.84970000
C       55.47270000      53.03650000      47.07900000
C       47.13560000      55.33210000      53.09020000
C       52.94770000      47.24070000      55.30450000
C       55.69690000      47.39790000      52.69990000
C       43.93180000      46.85450000      47.05770000
C       44.13000000      53.04000000      52.78940000
C       46.95050000      44.56000000      46.98280000
C       52.68260000      44.23870000      52.99420000
C       52.83980000      55.74390000      47.30860000
C       53.10270000      52.72600000      44.12980000
C       47.22900000      52.78480000      55.90090000
C       47.18770000      46.94020000      44.05610000
C       44.73020000      52.81650000      47.13970000
C       52.95390000      55.46790000      53.11640000
C       47.21020000      47.17570000      55.76340000
C       43.99200000      46.99160000      52.78050000
C       55.76100000      47.26870000      47.11870000
C       56.06600000      53.28690000      52.81350000
C       52.69270000      44.12770000      46.94560000
C       46.97680000      44.69860000      52.91990000
C       47.22440000      55.64260000      47.31100000
C       47.05920000      52.58910000      44.14080000
C       52.94830000      52.95400000      55.96230000
C       52.99510000      47.02670000      44.53960000
C       43.19180000      51.35640000      48.17820000
C       48.04040000      43.24330000      51.38800000
C       51.54360000      48.09520000      42.98690000
C       42.91200000      48.65400000      51.66040000
C       57.17860000      48.75060000      48.16900000
C       57.19240000      51.65220000      51.66760000
C       48.26280000      57.06200000      48.79950000
C       51.77280000      56.91390000      51.64300000
C       51.55070000      43.08420000      48.61490000
C       51.53030000      51.77470000      57.35570000
C       48.71150000      51.53010000      42.98890000
C       48.69880000      48.21160000      57.17820000
C       57.02880000      51.59950000      48.15810000
C       51.54830000      43.12720000      51.36290000
C       48.71820000      48.02800000      42.72420000
C       57.16020000      48.82340000      51.64670000
C       42.89520000      48.57860000      48.14660000
C       43.01240000      51.41000000      51.65980000
C       51.75030000      57.11470000      48.80370000
C       48.24890000      56.84940000      51.63710000
C       48.03580000      43.18740000      48.57730000
C       48.66130000      51.69200000      57.35230000
C       51.47660000      51.59380000      43.01590000
C       51.54660000      48.27600000      56.93180000
C       48.38390000      46.41270000      55.81500000
C       55.85100000      48.42990000      46.33990000
C       46.44300000      55.72770000      48.47200000
C       48.26310000      53.26480000      44.50650000
C       51.73940000      53.65770000      56.06950000
C       51.79500000      46.22090000      44.31550000
C       55.77590000      52.07460000      53.51320000
C       44.58530000      51.58220000      46.39420000
C       44.40150000      48.20830000      53.41020000
C       46.15770000      44.51100000      51.72420000
C       53.33790000      44.52270000      48.15910000
C       53.72470000      55.70830000      51.89270000
C       51.77520000      46.41370000      55.57560000
C       44.32410000      48.03320000      46.35270000
C       53.61700000      55.84820000      48.47080000
C       51.87190000      53.34870000      44.50590000
C       48.39540000      53.55250000      56.03390000
C       48.37970000      46.20460000      44.05430000
C       44.47720000      51.81490000      53.43800000
C       55.69380000      51.83090000      46.28830000
C       55.74270000      48.60500000      53.39910000
C       53.32290000      44.59100000      51.76540000
C       46.13870000      44.42730000      48.19290000
C       46.34880000      55.56440000      51.87800000
C       44.72910000      54.23490000      52.91380000
C       52.80730000      44.83600000      54.18920000
C       54.30310000      52.85920000      44.71520000
C       44.51990000      45.64500000      46.99070000
C       54.59040000      46.58000000      52.99370000
C       54.48020000      54.09750000      47.10700000
C       53.13750000      54.64960000      46.47360000
C       47.12920000      54.37160000      54.18510000
C       46.97550000      45.43820000      45.82480000
C       53.97890000      47.27960000      54.27940000
C       46.31780000      46.69130000      45.14270000
C       46.44300000      53.06690000      54.76360000
C       55.41400000      54.45570000      52.92500000
C       47.01090000      45.62980000      54.03310000
C       45.87290000      52.67180000      44.76060000
C       54.65040000      46.44350000      46.85080000
C       44.56280000      45.78060000      52.89410000
C       45.66350000      53.92500000      47.13830000
C       46.97260000      54.52580000      46.48990000
C       53.00220000      54.52860000      54.23280000
C       52.82210000      44.67250000      45.72640000
C       46.37460000      46.92500000      54.65580000
C       54.07190000      47.06910000      45.51830000
C       53.74580000      53.27410000      54.83560000
C       53.77000000      49.12490000      43.36230000
C       43.46850000      53.62840000      49.16050000
C       49.07570000      43.50090000      53.63960000
C       53.76960000      50.84590000      56.53720000
C       46.37890000      50.44090000      43.28760000
C       46.41850000      49.24050000      56.44360000
C       43.00360000      46.28750000      50.67880000
C       56.38350000      46.50220000      49.21500000
C       56.84380000      53.95000000      50.61450000
C       49.29410000      56.30310000      46.52660000
C       50.75350000      56.46630000      53.85290000
C       50.54370000      43.22000000      46.28110000
C       46.39700000      48.98360000      43.27810000
C       56.65940000      53.85400000      49.15410000
C       50.54290000      43.34590000      53.69430000
C       46.42260000      50.68800000      56.47350000
C       53.81740000      50.59360000      43.22200000
C       53.71510000      49.39850000      56.35090000
C       56.37090000      46.53670000      50.66370000
C       42.98940000      46.25100000      49.20740000
C       43.27840000      53.72140000      50.62270000
C       50.74060000      56.32920000      46.53010000
C       49.27960000      56.42590000      53.84450000
C       49.07490000      43.36620000      46.32150000
