240
Lattice="100.0 0.0 0.0 0.0 100.0 0.0 0.0 0.0 100.0" Properties=species:S:1:pos:R:3 name=C-53965-5632-293 pressure=0.0113967959548424 energy=-1764.76038655952 spacegroup=C1 times_found=1 pbc="T T T"
C       51.67540000      57.26840000      51.34340000
C       51.27920000      51.55280000      57.01790000
C       56.64870000      51.39980000      51.72440000
C       48.27120000      56.98390000      48.41590000
C       51.83280000      43.28720000      48.62060000
C       48.40190000      42.89970000      51.54340000
C       48.69290000      51.83470000      42.67570000
C       51.30390000      48.19360000      42.69410000
C       48.46490000      48.08630000      57.06540000
C       43.05600000      51.50860000      48.28480000
C       57.02100000      48.64510000      48.22020000
C       42.88570000      48.67540000      51.87090000
C       51.91420000      43.19980000      51.44140000
C       51.29550000      48.04870000      57.29060000
C       57.00570000      48.63450000      51.75520000
C       48.32710000      42.93470000      48.73940000
C       51.78070000      57.30810000      48.47380000
C       48.19770000      57.16330000      51.26950000
C       48.47780000      48.34790000      42.77950000
C       51.51960000      51.68390000      42.70620000
C       48.51460000      51.59360000      57.00750000
C       43.29080000      48.71800000      48.36380000
C       56.70320000      51.42130000      48.23440000
C       43.05040000      51.50420000      51.80950000
C       45.03500000      48.19550000      54.79490000
C       55.04560000      45.04050000      48.22120000
C       48.46210000      54.53350000      45.09680000
C       54.62460000      47.95940000      45.37470000
C       45.42080000      52.14340000      45.40640000
C       54.76000000      51.55620000      54.82010000
C       45.53920000      45.31900000      52.15520000
C       54.48150000      54.91830000      51.67620000
C       45.07850000      55.11660000      48.21380000
C       51.79580000      54.29960000      54.47750000
C       48.31690000      44.91310000      55.16450000
C       51.58340000      45.57220000      45.19470000
C       44.91090000      51.69200000      54.99850000
C       54.59680000      54.97380000      48.20980000
C       47.95940000      45.61050000      45.38410000
C       54.91520000      51.59720000      45.07080000
C       45.13210000      48.50220000      45.22450000
C       54.62970000      47.89220000      54.62000000
C       45.32750000      54.93120000      51.69610000
C       55.09930000      45.00170000      51.77820000
C       45.59770000      45.30770000      48.49290000
C       51.80120000      45.22250000      55.01710000
C       48.01290000      54.33170000      54.48740000
C       52.09740000      54.50700000      45.21020000
C       57.57080000      49.38150000      49.25120000
C       49.23950000      57.69680000      49.11050000
C       49.13450000      49.11150000      57.72330000
C       42.38480000      49.36570000      50.79540000
C       57.39730000      50.81580000      50.72440000
C       42.47910000      50.79560000      49.31010000
C       50.66670000      57.86320000      50.60730000
C       49.45230000      42.37410000      50.80670000
C       50.88330000      42.56360000      49.31780000
C       50.67830000      49.24330000      42.07050000
C       49.30590000      50.76990000      42.06580000
C       50.59900000      50.57580000      57.71670000
C       57.41140000      50.81990000      49.25390000
C       49.42100000      42.37790000      49.35370000
C       49.16030000      50.57940000      57.67300000
C       42.41240000      50.82340000      50.77810000
C       57.55760000      49.37830000      50.72970000
C       42.52740000      49.34990000      49.32930000
C       50.91210000      42.53370000      50.76580000
C       49.20240000      57.77580000      50.56370000
C       50.69820000      57.83450000      49.14480000
C       50.75620000      50.71210000      42.07580000
C       49.22810000      49.30180000      42.10770000
C       50.58810000      49.10340000      57.81560000
C       52.67310000      48.13430000      43.15100000
C       43.30000000      52.90050000      48.30730000
C       48.43180000      43.17010000      52.92710000
C       47.14680000      48.09310000      56.51970000
C       52.66360000      51.50070000      56.70570000
C       47.33290000      51.90710000      43.15700000
C       56.10950000      52.71350000      51.71250000
C       43.35930000      47.31830000      51.88900000
C       56.81690000      47.24320000      48.24320000
C       51.74850000      43.83300000      47.29510000
C       48.33120000      56.37530000      47.11380000
C       51.63380000      56.66220000      52.67150000
C       52.89240000      51.58000000      43.08100000
C       43.84600000      47.39630000      48.40520000
C       48.21530000      56.62620000      52.62340000
C       47.13380000      51.58140000      56.73800000
C       52.66520000      48.04240000      56.83940000
C       47.11330000      48.46260000      43.18280000
C       56.82920000      47.22960000      51.73450000
C       43.59350000      52.82450000      51.79740000
C       56.19460000      52.74810000      48.22350000
C       51.82710000      56.77290000      47.13540000
C       48.26370000      43.42360000      47.38880000
C       51.90980000      43.63040000      52.80230000
C       52.89830000      56.75900000      49.21960000
C       49.18340000      52.66400000      56.25120000
C       56.24870000      49.22300000      52.87800000
C       47.06950000      56.57950000      50.54390000
C       53.03810000      43.79120000      50.74250000
C       47.24130000      43.54220000      49.51190000
C       50.92000000      52.84390000      43.37840000
C       49.09280000      47.20810000      43.47160000
C       50.59860000      46.91380000      56.68410000
C       43.86100000      49.43950000      47.23790000
C       56.16580000      50.68820000      47.11420000
C       43.54790000      50.81380000      52.97670000
C       53.00360000      43.82610000      49.28900000
C       49.16580000      46.93270000      56.56020000
C       56.09590000      50.65840000      52.83220000
C       47.24350000      43.56210000      50.94430000
C       52.84150000      56.73540000      50.64860000
C       47.10480000      56.48070000      49.10440000
C       50.52600000      47.16500000      43.39010000
C       49.48480000      52.88240000      43.32660000
C       50.62420000      52.64280000      56.25240000
C       43.77010000      50.88130000      47.16880000
C       56.28210000      49.24750000      47.09330000
C       43.44050000      49.38160000      53.01970000
C       44.68990000      45.49510000      51.01920000
C       50.51390000      44.75330000      45.43680000
C       45.48080000      51.06810000      44.47270000
C       55.98900000      45.17410000      49.26750000
C       44.18840000      54.95080000      49.31150000
C       55.45090000      54.78500000      50.70040000
C       49.43420000      44.04820000      54.97880000
C       50.64180000      55.13030000      54.31840000
C       49.53850000      55.35850000      45.28700000
C       54.58560000      50.40880000      55.61170000
C       45.12320000      49.14890000      55.78400000
C       54.54590000      49.00950000      44.41230000
C       44.32470000      54.85870000      50.75720000
C       50.98810000      55.39890000      45.32860000
C       45.31510000      49.63630000      44.40720000
C       55.50150000      54.80670000      49.23780000
C       44.76670000      45.49760000      49.56800000
C       56.00650000      45.16450000      50.70770000
C       49.17830000      55.13840000      54.31430000
C       50.87540000      44.21880000      54.88200000
C       49.06590000      44.71410000      45.50540000
C       54.49280000      48.96960000      55.54510000
C       45.05970000      50.59950000      55.89660000
C       54.71400000      50.43780000      44.29700000
C       44.14090000      48.35610000      53.74620000
C       53.73280000      44.53120000      48.24440000
C       48.52210000      53.57700000      44.10840000
C       55.62190000      48.12340000      46.40390000
C       44.44400000      51.99490000      46.45560000
C       55.32230000      51.63500000      53.55280000
C       46.54920000      44.28850000      52.03520000
C       53.49750000      55.89810000      51.60290000
C       46.36670000      55.69450000      48.13620000
C       51.70500000      53.30080000      55.50690000
C       48.20860000      46.18340000      55.77390000
C       51.50370000      46.49240000      44.17320000
C       44.32460000      51.77770000      53.71870000
C       53.61920000      55.96050000      48.26680000
C       48.03980000      46.58560000      44.30830000
C       55.44570000      51.68060000      46.35530000
C       44.60080000      48.44590000      46.51310000
C       55.62140000      48.08170000      53.58350000
C       46.36930000      55.83460000      51.54950000
C       53.80130000      44.46110000      51.78520000
C       46.54810000      44.31590000      48.54300000
C       51.63050000      46.22480000      55.96310000
C       48.10160000      53.34390000      55.51800000
C       51.99340000      53.49280000      44.17090000
C       43.26990000      53.82940000      49.33530000
C       49.47410000      43.16130000      53.83410000
C       53.67540000      49.05830000      43.24330000
C       56.31640000      53.63830000      50.71780000
C       43.57620000      46.41990000      50.88870000
C       56.91450000      46.29600000      49.24990000
C       50.67240000      43.73430000      46.43690000
C       49.39840000      56.42130000      46.24270000
C       50.63990000      56.37870000      53.56650000
C       46.23010000      49.10070000      56.69860000
C       53.61420000      50.47960000      56.69260000
C       46.33120000      50.98670000      43.29120000
C       43.73620000      46.49060000      49.43950000
C       49.19290000      56.37720000      53.55010000
C       53.78010000      50.51270000      43.18300000
C       56.92750000      46.28890000      50.72000000
C       43.40900000      53.75180000      50.80120000
C       56.36340000      53.65710000      49.24260000
C       50.85170000      56.54550000      46.21340000
C       49.21870000      43.60280000      46.43300000
C       50.93400000      43.35500000      53.73450000
C       46.18350000      50.57230000      56.80930000
C       53.60050000      49.02280000      56.69690000
C       46.22660000      49.53070000      43.27680000
C       52.88590000      44.74370000      47.06960000
C       47.27410000      52.95360000      44.09380000
C       44.20470000      47.16620000      53.00570000
C       47.26920000      43.96720000      53.22870000
C       52.71900000      55.76700000      52.76210000
C       47.18600000      55.44720000      46.95060000
C       52.91600000      52.63150000      55.85950000
C       46.99150000      46.96790000      55.56580000
C       52.74980000      47.11630000      44.11660000
C       55.97840000      46.93580000      47.11400000
C       44.11790000      53.19230000      47.16370000
C       55.15090000      52.87100000      52.80490000
C       52.91940000      55.88230000      47.05290000
C       46.85490000      47.33880000      44.05060000
C       44.55220000      52.97800000      52.91690000
C       47.12240000      55.74680000      52.72830000
C       53.01500000      44.58510000      53.01200000
C       47.19220000      44.32650000      47.30110000
C       52.81370000      46.97300000      55.93640000
C       46.87780000      52.70600000      55.89040000
C       53.17230000      52.73140000      43.90650000
C       55.29060000      52.93060000      47.08530000
C       44.77570000      47.22660000      47.27920000
C       56.01390000      46.90350000      52.87710000
C       47.19370000      54.46770000      45.87260000
C       45.89150000      46.97640000      54.60950000
C       55.36560000      45.73910000      47.03950000
C       52.96470000      54.60770000      53.53040000
C       47.17730000      44.57620000      54.42120000
C       52.86300000      45.67070000      45.94740000
C       53.60050000      46.85220000      45.21320000
C       46.44190000      53.25470000      45.19430000
C       54.09840000      52.72750000      55.23260000
C       45.28560000      46.30710000      53.30940000
C       54.24170000      54.00340000      52.83720000
C       44.73780000      54.38230000      47.06820000
C       46.88610000      45.42420000      46.46460000
C       45.67620000      52.82650000      55.30490000
C       54.41540000      54.09240000      47.01110000
C       53.00840000      45.46720000      54.16810000
C       46.83730000      54.63820000      53.55080000
C       53.20110000      54.74640000      46.25200000
C       54.31500000      52.78050000      44.60890000
C       45.73440000      47.31340000      44.78810000
C       53.66560000      46.72950000      54.83460000
C       45.52380000      54.05880000      52.89750000
C       55.43760000      45.68920000      52.96330000
C       45.69590000      46.10720000      47.24020000
