240
Lattice="100.0 0.0 0.0 0.0 100.0 0.0 0.0 0.0 100.0" Properties=species:S:1:pos:R:3 name=C-53965-5632-173 pressure=-1.9352671035849 spacegroup=C1 times_found=1 energy=-1767.13018765811 pbc="T T T"
C       46.59330000      55.56570000      48.37930000
C       49.54790000      46.58560000      56.03920000
C       56.15450000      49.35560000      46.11300000
C       46.13340000      44.25500000      50.46080000
C       52.76440000      43.75930000      49.45690000
C       53.58790000      55.40520000      51.30620000
C       48.72300000      53.06690000      44.67310000
C       51.54250000      53.47010000      55.49580000
C       51.15120000      45.92050000      43.49340000
C       55.58400000      51.37840000      53.50260000
C       44.45480000      51.44910000      46.53810000
C       44.03450000      49.64310000      53.50430000
C       46.71270000      48.69160000      55.39040000
C       49.54780000      55.76180000      46.08120000
C       55.35690000      46.75030000      48.50290000
C       46.11430000      50.65110000      43.88940000
C       53.51100000      48.55930000      44.26010000
C       53.07450000      50.40990000      56.45310000
C       48.56070000      44.49110000      53.30080000
C       50.64050000      55.93230000      53.44040000
C       51.23900000      44.62210000      46.28770000
C       56.50660000      54.01390000      51.25130000
C       44.73110000      46.91110000      51.28140000
C       43.83660000      53.12740000      49.65800000
C       55.35530000      45.89860000      53.01240000
C       52.79210000      55.19440000      45.59940000
C       46.12330000      53.22890000      55.34200000
C       54.74570000      54.82280000      46.75620000
C       45.42810000      54.23960000      53.14440000
C       45.01110000      46.05060000      46.69100000
C       53.38580000      44.92820000      53.89860000
C       46.55110000      44.28450000      46.31720000
C       47.29460000      55.13460000      54.62200000
C       45.63040000      47.16000000      44.37170000
C       54.14050000      46.97560000      54.97600000
C       54.65160000      53.82580000      45.71190000
C       55.64080000      52.84250000      45.71890000
C       53.11330000      45.96770000      54.89750000
C       46.47880000      55.22160000      53.49240000
C       55.24830000      46.84160000      54.02930000
C       45.27920000      53.15510000      54.14880000
C       45.61780000      46.17180000      45.35670000
C       53.32730000      53.95750000      45.08840000
C       46.65590000      45.16880000      45.24980000
C       47.08330000      54.17680000      55.61710000
C       45.53850000      44.81070000      47.22290000
C       53.68940000      55.71850000      46.62470000
C       54.34520000      44.92860000      52.86870000
C       43.12900000      48.68520000      50.77230000
C       50.78230000      43.18190000      48.29270000
C       49.09730000      49.87220000      42.62970000
C       42.96480000      51.95340000      49.76220000
C       57.38310000      51.02450000      50.18250000
C       56.74390000      48.78640000      49.21690000
C       50.13740000      57.11870000      50.63710000
C       49.88980000      57.29880000      49.22440000
C       48.75560000      42.83030000      51.41070000
C       48.61730000      49.23470000      56.93940000
C       51.40110000      49.05970000      42.93570000
C       51.82580000      50.32470000      57.21790000
C       43.14800000      51.03740000      48.71180000
C       50.11530000      48.84730000      42.49210000
C       48.58030000      42.38160000      50.17700000
C       42.35180000      49.61430000      51.35530000
C       56.90430000      50.75030000      51.45560000
C       57.33430000      50.06330000      49.09230000
C       50.94080000      51.39140000      56.88590000
C       49.52690000      48.53980000      57.59880000
C       49.30050000      51.12260000      43.27880000
C       48.51110000      57.09990000      48.91070000
C       51.49730000      43.00800000      49.51100000
C       51.55230000      56.77660000      50.75680000
C       44.25730000      47.05590000      47.40920000
C       47.50480000      43.26530000      46.55580000
C       46.62270000      47.15870000      43.34720000
C       42.19600000      53.26490000      52.95550000
C       56.62710000      53.74670000      47.77540000
C       55.99780000      46.05350000      51.77070000
C       46.99720000      56.21630000      52.60820000
C       52.69800000      57.75850000      46.99080000
C       52.25620000      44.12700000      53.82040000
C       46.22000000      51.99880000      55.98740000
C       53.45280000      51.91330000      43.87630000
C       53.12670000      47.11580000      58.07610000
C       43.82800000      48.14270000      46.62370000
C       47.65440000      46.22150000      43.34240000
C       46.92370000      42.22090000      47.29880000
C       41.67590000      52.36760000      53.70600000
C       55.95580000      48.03700000      53.93260000
C       56.65590000      52.84060000      46.71800000
C       48.28430000      54.02570000      56.35750000
C       52.24430000      46.24760000      58.41770000
C       52.62100000      52.95500000      44.32260000
C       46.15370000      56.48680000      51.55420000
C       51.94270000      43.14420000      52.91850000
C       53.47110000      56.74670000      47.56890000
C       49.29320000      56.13410000      53.54390000
C       53.68610000      49.09340000      56.57890000
C       56.39160000      54.29300000      49.97220000
C       49.81400000      44.37240000      45.81590000
C       49.91360000      44.14140000      53.73970000
C       50.75450000      56.59410000      46.19410000
C       53.93250000      49.85660000      43.94950000
C       46.25170000      49.99380000      55.63400000
C       45.91340000      49.36320000      43.61690000
C       55.59370000      46.22150000      49.76490000
C       44.62910000      46.40220000      49.93920000
C       43.85200000      53.69210000      51.00820000
C       50.29500000      53.96090000      55.89150000
C       54.14640000      55.62520000      49.91240000
C       55.73490000      50.06820000      53.93240000
C       49.86330000      45.66750000      43.56920000
C       50.07440000      53.57380000      44.63240000
C       50.82950000      46.29520000      56.37170000
C       53.30390000      43.72110000      50.81600000
C       45.92380000      55.90680000      49.58080000
C       46.21280000      43.40160000      49.24960000
C       56.43290000      50.64640000      45.95520000
C       44.00570000      50.18270000      46.13590000
C       43.61630000      50.92070000      53.70310000
C       44.86290000      54.41720000      51.70650000
C       51.11750000      44.72630000      54.42070000
C       54.56390000      51.11240000      44.39210000
C       45.22430000      45.16790000      49.72270000
C       55.26410000      45.25470000      50.77840000
C       55.57540000      54.70010000      47.88200000
C       51.49730000      55.61440000      45.41120000
C       48.64300000      55.59640000      54.67240000
C       49.17390000      44.96070000      44.63180000
C       54.35180000      48.36680000      55.58660000
C       45.12710000      48.49530000      44.45560000
C       45.39590000      51.09160000      55.24190000
C       44.63310000      51.77510000      54.28510000
C       50.28820000      54.82900000      45.20650000
C       54.29110000      44.49590000      51.44170000
C       44.34330000      48.90940000      45.48610000
C       55.58320000      51.51620000      45.18900000
C       55.30500000      49.00380000      54.79520000
C       51.65420000      45.70360000      55.33240000
C       49.25840000      54.92910000      55.72890000
C       47.76520000      45.27560000      44.39870000
C       55.33690000      55.01130000      49.29340000
C       45.40280000      44.38050000      48.51900000
C       45.42200000      55.42960000      50.92590000
C       52.78340000      46.49240000      45.13340000
C       45.46770000      52.50770000      46.27270000
C       46.57970000      45.55320000      52.53500000
C       52.64810000      53.66830000      54.52970000
C       47.60080000      53.51220000      45.50520000
C       47.48150000      46.63100000      54.52290000
C       45.50370000      47.56590000      53.39440000
C       54.64460000      47.40100000      46.39330000
C       54.64120000      52.46050000      53.80070000
C       46.37050000      54.50980000      47.41320000
C       53.88030000      54.48710000      52.49110000
C       53.36550000      45.44150000      47.29330000
C       52.45580000      45.52910000      46.10360000
C       45.61550000      46.56030000      52.39070000
C       46.52800000      52.56910000      45.35550000
C       52.79380000      54.56730000      53.44430000
C       47.57720000      45.57960000      53.59100000
C       47.46240000      54.52190000      46.47050000
C       45.41320000      53.47780000      47.37910000
C       54.43700000      46.40160000      47.41120000
C       54.82940000      53.47340000      52.79730000
C       46.43680000      47.61910000      54.42570000
C       53.57110000      52.54400000      54.70720000
C       53.79590000      47.49520000      45.27910000
C       46.57340000      57.01460000      50.30950000
C       51.20250000      46.78340000      57.66650000
C       57.13600000      51.49880000      46.89740000
C       47.07740000      42.47280000      48.64960000
C       52.38880000      42.94060000      51.59730000
C       53.35680000      56.50960000      49.03950000
C       51.14650000      52.73370000      44.08030000
C       49.30170000      53.04240000      56.56330000
C       48.93850000      46.51860000      42.83640000
C       56.37000000      49.06730000      53.03420000
C       43.34330000      49.36030000      47.15750000
C       42.33040000      51.25370000      53.21120000
C       47.12340000      50.95630000      56.37530000
C       51.33970000      57.43720000      47.14770000
C       56.30270000      47.03640000      50.78320000
C       46.83340000      48.50760000      42.89640000
C       52.95620000      50.72850000      43.29970000
C       53.04840000      48.43130000      57.66690000
C       50.52730000      43.08950000      52.94950000
C       48.39920000      56.58280000      52.51350000
C       48.97610000      43.49820000      46.68570000
C       57.10500000      53.42040000      49.06320000
C       44.02420000      47.25340000      48.88270000
C       42.72550000      53.13340000      51.67440000
C       51.78960000      49.07520000      57.88620000
C       57.58450000      52.12460000      49.25630000
C       48.86500000      57.09010000      51.26820000
C       51.64290000      50.47090000      43.08940000
C       48.41790000      50.69280000      56.85590000
C       48.08760000      48.83810000      42.41820000
C       56.68490000      48.36900000      50.61390000
C       43.34730000      48.44710000      49.34660000
C       42.33350000      51.93330000      50.99820000
C       49.46250000      42.93880000      47.90400000
C       50.10500000      42.59750000      51.72740000
C       51.08060000      57.37690000      48.54800000
C       52.11590000      56.99220000      49.46860000
C       56.74520000      49.33070000      51.71120000
C       49.51460000      51.67310000      56.90070000
C       51.24050000      42.56790000      50.82620000
C       47.90320000      57.28420000      50.18440000
C       48.52290000      42.43750000      48.88660000
C       57.58560000      51.14800000      48.15270000
C       43.09170000      49.60560000      48.48700000
C       42.06900000      50.80290000      51.83600000
C       49.13170000      47.80230000      42.33550000
C       50.70100000      51.51020000      43.42850000
C       50.71910000      48.13600000      57.96360000
C       43.90080000      51.81260000      47.78690000
C       46.83810000      44.44880000      51.64530000
C       52.04410000      46.78620000      43.93680000
C       44.44270000      48.51840000      52.98160000
C       55.70490000      48.32890000      46.82190000
C       56.32680000      51.72930000      52.33590000
C       47.85040000      56.24850000      47.98970000
C       52.32620000      56.02650000      51.65440000
C       52.81360000      44.41180000      48.17230000
C       51.80070000      52.24220000      56.12350000
C       48.32130000      51.90910000      43.96970000
C       48.40150000      47.06520000      55.60910000
C       44.01370000      48.02480000      51.66640000
C       46.90130000      51.63520000      44.29970000
C       51.58430000      43.99270000      47.48970000
C       44.41690000      53.03280000      48.34020000
C       56.04540000      47.98570000      48.20210000
C       56.01630000      53.11290000      52.07680000
C       47.88500000      48.35150000      56.07070000
C       53.04180000      51.64990000      55.73990000
C       52.32170000      48.14090000      43.55150000
C       51.82320000      55.56890000      52.96900000
C       48.02840000      43.80880000      52.14730000
C       48.36620000      55.59880000      46.79480000
