240
Lattice="100.0 0.0 0.0 0.0 100.0 0.0 0.0 0.0 100.0" Properties=species:S:1:pos:R:3 name=C-53965-5632-1014 pressure=-30.1338401322883 energy=-1733.65640636951 spacegroup=Th times_found=1 pbc="T T T"
C       56.48900000      48.50940000      51.45120000
C       51.45040000      56.48920000      48.50920000
C       48.50830000      51.45040000      56.48900000
C       56.48940000      51.49090000      48.55060000
C       43.51060000      51.49070000      51.44930000
C       43.51100000      48.50900000      48.54880000
C       51.45020000      43.51080000      51.49120000
C       48.55000000      43.51070000      48.50920000
C       48.54940000      56.48920000      51.49040000
C       48.51010000      48.54950000      43.51060000
C       51.48990000      48.54990000      56.48950000
C       51.49170000      51.45010000      43.51100000
C       43.51060000      48.50910000      51.44940000
C       48.54980000      56.48920000      48.50880000
C       51.48990000      51.45050000      56.48940000
C       43.51100000      51.49060000      48.54880000
C       56.48900000      51.49100000      51.45120000
C       56.48940000      48.50930000      48.55070000
C       48.54960000      43.51080000      51.49080000
C       51.45060000      43.51080000      48.50960000
C       51.45000000      56.48930000      51.49080000
C       51.49170000      48.54960000      43.51100000
C       48.50830000      48.54990000      56.48900000
C       48.51010000      51.45010000      43.51050000
C       55.92690000      52.67580000      49.23880000
C       49.23760000      55.92690000      52.67540000
C       52.67490000      49.23820000      55.92720000
C       55.92680000      47.32440000      50.76280000
C       44.07330000      47.32420000      49.23730000
C       44.07300000      52.67560000      50.76110000
C       49.23850000      44.07310000      47.32430000
C       50.76170000      44.07320000      52.67600000
C       50.76220000      55.92680000      47.32430000
C       52.67650000      50.76190000      44.07350000
C       47.32350000      50.76210000      55.92650000
C       47.32510000      49.23790000      44.07280000
C       44.07320000      52.67560000      49.23720000
C       50.76150000      55.92690000      52.67570000
C       47.32350000      49.23810000      55.92650000
C       44.07310000      47.32420000      50.76120000
C       55.92700000      47.32440000      49.23890000
C       55.92670000      52.67580000      50.76270000
C       50.76240000      44.07310000      47.32460000
C       49.23780000      44.07320000      52.67570000
C       49.23830000      55.92680000      47.32400000
C       47.32510000      50.76180000      44.07270000
C       52.67490000      50.76210000      55.92720000
C       52.67650000      49.23800000      44.07350000
C       45.95920000      55.11600000      53.13950000
C       53.13960000      45.95990000      55.11650000
C       55.11650000      53.14020000      45.96030000
C       45.96020000      44.88390000      46.85930000
C       54.04000000      44.88420000      53.14090000
C       54.04070000      55.11600000      46.86020000
C       53.14090000      54.04020000      44.88440000
C       46.85900000      54.04040000      55.11540000
C       46.86060000      45.95950000      44.88370000
C       55.11550000      46.86000000      54.04110000
C       44.88470000      46.85960000      45.95910000
C       44.88340000      53.14020000      54.03950000
C       54.03980000      55.11610000      53.14070000
C       46.85910000      45.95980000      55.11560000
C       44.88450000      53.14000000      45.95890000
C       54.04080000      44.88400000      46.86050000
C       45.95940000      44.88400000      53.13980000
C       45.96000000      55.11580000      46.85910000
C       46.86040000      54.04010000      44.88350000
C       53.13940000      54.04050000      55.11630000
C       53.14100000      45.95960000      44.88460000
C       44.88350000      46.85980000      54.03970000
C       55.11660000      46.85980000      45.96050000
C       55.11540000      53.14040000      54.04090000
C       43.82610000      50.71340000      47.34010000
C       47.34100000      43.82570000      50.71340000
C       50.71450000      47.34090000      43.82590000
C       43.82540000      49.28640000      52.65810000
C       56.17460000      49.28650000      47.34190000
C       56.17380000      50.71380000      52.65980000
C       47.34100000      56.17420000      49.28590000
C       52.65880000      56.17430000      50.71380000
C       52.65920000      43.82580000      49.28690000
C       50.71270000      52.65910000      56.17430000
C       49.28720000      52.65880000      43.82560000
C       49.28560000      47.34120000      56.17420000
C       56.17460000      50.71360000      47.34190000
C       52.65900000      43.82580000      50.71410000
C       49.28730000      47.34090000      43.82570000
C       56.17390000      49.28660000      52.65990000
C       43.82620000      49.28620000      47.34020000
C       43.82540000      50.71350000      52.65810000
C       52.65900000      56.17430000      49.28660000
C       47.34080000      56.17420000      50.71310000
C       47.34120000      43.82570000      49.28620000
C       49.28550000      52.65910000      56.17410000
C       50.71440000      52.65880000      43.82580000
C       50.71280000      47.34120000      56.17440000
C       54.91470000      46.02620000      52.88280000
C       52.88250000      54.91500000      46.02630000
C       46.02530000      52.88200000      54.91440000
C       54.91540000      53.97400000      47.11860000
C       45.08450000      53.97400000      52.88120000
C       45.08540000      46.02580000      47.11740000
C       52.88150000      45.08510000      53.97450000
C       47.11870000      45.08480000      46.02570000
C       47.11740000      54.91510000      53.97350000
C       46.02680000      47.11780000      45.08450000
C       53.97340000      47.11820000      54.91570000
C       53.97460000      52.88190000      45.08550000
C       45.08460000      46.02600000      52.88140000
C       47.11850000      54.91490000      46.02550000
C       53.97320000      52.88220000      54.91550000
C       45.08530000      53.97380000      47.11720000
C       54.91460000      53.97420000      52.88260000
C       54.91550000      46.02600000      47.11880000
C       47.11750000      45.08500000      53.97370000
C       52.88260000      45.08490000      46.02650000
C       52.88130000      54.91520000      53.97430000
C       53.97470000      47.11800000      45.08560000
C       46.02540000      47.11810000      54.91450000
C       46.02660000      52.88180000      45.08430000
C       57.36800000      49.27140000      50.70690000
C       50.70580000      57.36810000      49.27120000
C       49.27020000      50.70600000      57.36800000
C       57.36820000      50.72880000      49.29520000
C       42.63180000      50.72860000      50.70480000
C       42.63200000      49.27110000      49.29320000
C       50.70590000      42.63190000      50.72900000
C       49.29440000      42.63180000      49.27140000
C       49.29390000      57.36810000      50.72840000
C       49.27230000      49.29400000      42.63180000
C       50.72770000      49.29440000      57.36820000
C       50.72970000      50.70560000      42.63200000
C       42.63180000      49.27120000      50.70480000
C       49.29410000      57.36810000      49.27100000
C       50.72770000      50.70600000      57.36820000
C       42.63200000      50.72860000      49.29310000
C       57.36800000      50.72890000      50.70680000
C       57.36820000      49.27140000      49.29520000
C       49.29420000      42.63190000      50.72880000
C       50.70610000      42.63190000      49.27160000
C       50.70560000      57.36820000      50.72860000
C       50.72980000      49.29400000      42.63200000
C       49.27030000      49.29440000      57.36800000
C       49.27230000      50.70560000      42.63180000
C       54.32480000      56.36550000      52.55470000
C       52.55330000      54.32550000      56.36560000
C       56.36470000      52.55450000      54.32610000
C       54.32570000      43.63460000      47.44650000
C       45.67450000      43.63460000      52.55380000
C       45.67500000      56.36520000      47.44500000
C       52.55520000      45.67460000      43.63510000
C       47.44500000      45.67490000      56.36510000
C       47.44660000      54.32510000      43.63420000
C       56.36600000      47.44580000      45.67570000
C       43.63410000      47.44580000      54.32440000
C       43.63520000      52.55400000      45.67380000
C       45.67430000      56.36540000      52.55350000
C       47.44480000      54.32540000      56.36490000
C       43.63400000      52.55420000      54.32430000
C       45.67520000      43.63450000      47.44530000
C       54.32500000      43.63480000      52.55500000
C       54.32550000      56.36540000      47.44620000
C       47.44670000      45.67450000      43.63440000
C       52.55340000      45.67490000      56.36580000
C       52.55500000      54.32510000      43.63490000
C       43.63530000      47.44550000      45.67390000
C       56.36480000      47.44600000      54.32620000
C       56.36590000      52.55420000      45.67560000
C       51.48720000      55.27540000      46.23060000
C       46.22980000      51.48680000      55.27490000
C       55.27540000      46.23070000      51.48760000
C       51.48630000      44.72460000      53.76980000
C       48.51390000      44.72440000      46.23050000
C       48.51260000      55.27560000      53.76910000
C       46.23130000      48.51310000      44.72400000
C       53.76870000      48.51350000      55.27610000
C       53.77010000      51.48670000      44.72500000
C       55.27560000      53.76950000      48.51390000
C       44.72420000      53.76940000      51.48590000
C       44.72480000      46.23040000      48.51260000
C       48.51370000      55.27540000      46.23020000
C       53.76870000      51.48690000      55.27600000
C       44.72440000      46.23050000      51.48610000
C       48.51280000      44.72460000      53.76940000
C       51.48740000      44.72440000      46.23090000
C       51.48610000      55.27560000      53.76950000
C       53.77020000      48.51320000      44.72510000
C       46.22990000      48.51330000      55.27500000
C       46.23130000      51.48650000      44.72390000
C       44.72460000      53.76930000      48.51240000
C       55.27520000      53.76960000      51.48740000
C       55.27580000      46.23060000      48.51410000
C       55.83020000      51.33440000      46.09060000
C       46.08960000      55.82970000      51.33370000
C       51.33370000      46.09000000      55.83000000
C       55.82920000      48.66580000      53.91100000
C       44.17080000      48.66540000      46.08910000
C       44.16970000      51.33440000      53.90930000
C       46.09010000      44.17020000      48.66520000
C       53.91010000      44.17040000      51.33510000
C       53.91020000      55.82980000      48.66600000
C       51.33520000      53.91000000      44.17040000
C       48.66470000      53.91030000      55.82940000
C       48.66650000      46.08970000      44.17020000
C       44.17080000      51.33420000      46.08900000
C       53.90990000      55.82980000      51.33480000
C       48.66480000      46.09000000      55.82960000
C       44.16980000      48.66560000      53.90940000
C       55.83030000      48.66560000      46.09070000
C       55.82920000      51.33460000      53.91090000
C       53.91050000      44.17030000      48.66630000
C       46.08980000      44.17020000      51.33400000
C       46.08990000      55.82960000      48.66490000
C       48.66630000      53.91000000      44.17000000
C       51.33350000      53.91030000      55.82980000
C       51.33530000      46.08970000      44.17060000
C       54.79000000      50.68470000      54.69700000
C       54.69620000      54.79080000      50.68500000
C       50.68370000      54.69650000      54.79060000
C       54.79130000      49.31550000      45.30430000
C       45.20870000      49.31550000      54.69570000
C       45.21000000      50.68430000      45.30300000
C       54.69650000      45.20940000      49.31630000
C       45.30370000      45.20930000      50.68400000
C       45.30370000      54.79050000      49.31470000
C       50.68520000      45.30360000      45.20960000
C       49.31490000      45.30380000      54.79070000
C       49.31610000      54.69620000      45.20910000
C       45.20870000      50.68450000      54.69570000
C       45.30350000      54.79060000      50.68370000
C       49.31480000      54.69640000      54.79040000
C       45.21000000      49.31530000      45.30300000
C       54.79000000      49.31570000      54.69700000
C       54.79130000      50.68450000      45.30430000
C       45.30380000      45.20920000      49.31500000
C       54.69630000      45.20950000      50.68530000
C       54.69630000      54.79070000      49.31600000
C       49.31630000      45.30350000      45.20940000
C       50.68390000      45.30380000      54.79090000
C       50.68510000      54.69620000      45.20930000
