240
Lattice="100.0 0.0 0.0 0.0 100.0 0.0 0.0 0.0 100.0" Properties=species:S:1:pos:R:3 name=C-53965-5632-102 pressure=1.45116205023733 spacegroup=C1 times_found=1 energy=-1725.67350985302 pbc="T T T"
C       51.76860000      56.43920000      48.63580000
C       56.40910000      48.55170000      51.88440000
C       48.62360000      51.90130000      56.36800000
C       48.13400000      43.65300000      48.59330000
C       51.88790000      43.62650000      51.41460000
C       48.10090000      56.52270000      51.54630000
C       43.70840000      51.46620000      51.85280000
C       56.36520000      51.31180000      48.12050000
C       43.77660000      48.68710000      48.04290000
C       51.39640000      48.12030000      56.34980000
C       48.70280000      48.11800000      43.65430000
C       51.52290000      51.94140000      43.77970000
C       51.82970000      56.41380000      51.43720000
C       56.48680000      48.47510000      48.14590000
C       48.66340000      51.88120000      43.65740000
C       48.11530000      43.66430000      51.38520000
C       51.90440000      43.61680000      48.62260000
C       48.05750000      56.46920000      48.71040000
C       43.78380000      51.55410000      48.00190000
C       56.33680000      51.36000000      51.83600000
C       43.74090000      48.69390000      51.80600000
C       51.47410000      48.09860000      43.69220000
C       48.60490000      48.13140000      56.34570000
C       51.41600000      51.89280000      56.35960000
C       44.19090000      53.26910000      53.99900000
C       53.02040000      54.27120000      44.07700000
C       53.96060000      44.17960000      53.24780000
C       55.80490000      46.76100000      53.97840000
C       44.26520000      46.82220000      45.97690000
C       55.36870000      52.90430000      45.88350000
C       46.85150000      46.03170000      44.16470000
C       53.21110000      46.03530000      55.80590000
C       46.79390000      53.98180000      55.85790000
C       46.01840000      55.81250000      53.32930000
C       53.77670000      55.89500000      46.79720000
C       46.06920000      44.21640000      46.75050000
C       44.05450000      53.10620000      45.69690000
C       53.24800000      53.96270000      55.77440000
C       53.99580000      44.13320000      46.80680000
C       55.81790000      46.68470000      46.05020000
C       44.19810000      46.83790000      53.90950000
C       55.78180000      53.19570000      53.87710000
C       46.76520000      46.06460000      55.77110000
C       53.28910000      45.98100000      44.20630000
C       46.79520000      53.92070000      44.10260000
C       45.83750000      55.45250000      47.10960000
C       53.94440000      55.76970000      53.17430000
C       46.02470000      44.24510000      53.18840000
C       53.70710000      50.67100000      55.74460000
C       50.67640000      55.85200000      53.78280000
C       55.65030000      53.63520000      50.56340000
C       46.32030000      49.35350000      55.72940000
C       53.78900000      49.28090000      44.14730000
C       46.35920000      50.66250000      44.08840000
C       49.31580000      44.23850000      53.69690000
C       50.71130000      44.22130000      46.31520000
C       49.15170000      55.75350000      46.40010000
C       44.29450000      46.37780000      50.61770000
C       55.86390000      46.18180000      49.35480000
C       44.12090000      53.83080000      49.30130000
C       53.81180000      50.67960000      44.14270000
C       50.50570000      55.85900000      46.35510000
C       55.58420000      53.61040000      49.20570000
C       46.38100000      49.31760000      44.13570000
C       53.70040000      49.32270000      55.74830000
C       46.32950000      50.70040000      55.73400000
C       49.36360000      44.22590000      46.30130000
C       50.66440000      44.22760000      53.70760000
C       49.32840000      55.88400000      53.82910000
C       44.30580000      46.37860000      49.27050000
C       55.83400000      46.22050000      50.70250000
C       44.12950000      53.80030000      50.70130000
C       43.49460000      49.42800000      49.17870000
C       49.41110000      49.28910000      43.37570000
C       49.28000000      43.28760000      49.29520000
C       56.79830000      50.64480000      49.26820000
C       43.46050000      50.81480000      50.65000000
C       56.80560000      49.23860000      50.73680000
C       50.83740000      50.76570000      43.48580000
C       49.31140000      50.74450000      56.72150000
C       50.71130000      49.27570000      56.71390000
C       50.66190000      56.84650000      49.36210000
C       49.22160000      56.89750000      50.79720000
C       50.73440000      43.27620000      50.71680000
C       43.46240000      49.40740000      50.63790000
C       49.30190000      49.28070000      56.71330000
C       49.27090000      43.29230000      50.70460000
C       56.76330000      50.64910000      50.72480000
C       43.51460000      50.84870000      49.17310000
C       56.84110000      49.22650000      49.27290000
C       50.72090000      50.74000000      56.72120000
C       49.41770000      50.74720000      43.41240000
C       50.81830000      49.29190000      43.42160000
C       50.68220000      56.84020000      50.77290000
C       49.20640000      56.89880000      49.37800000
C       50.74320000      43.27170000      49.30730000
C       51.83740000      45.78660000      44.48520000
C       45.82380000      44.51580000      51.73830000
C       44.48440000      51.75030000      45.60260000
C       48.19750000      54.13800000      44.52670000
C       51.79390000      54.19410000      55.54090000
C       48.21820000      45.83770000      55.51670000
C       54.10860000      55.49060000      51.72340000
C       45.80770000      55.61870000      48.57950000
C       54.21480000      44.40490000      48.25580000
C       55.59090000      48.13210000      45.81370000
C       44.48840000      48.28230000      54.13150000
C       55.52290000      51.75250000      54.12950000
C       51.76220000      45.81940000      55.53480000
C       45.84850000      44.50260000      48.19590000
C       44.49040000      51.81980000      54.17490000
C       48.24490000      54.21180000      55.59250000
C       51.66030000      54.34080000      44.49860000
C       48.29490000      45.81220000      44.45620000
C       53.99740000      55.48990000      48.20290000
C       45.77820000      55.60360000      51.88080000
C       54.19270000      44.43570000      51.80030000
C       55.53600000      48.21210000      54.17350000
C       44.54560000      48.26640000      45.73760000
C       55.55750000      51.43710000      45.85420000
C       45.61980000      54.61510000      44.30600000
C       54.77700000      44.43560000      45.67020000
C       44.50670000      45.70730000      54.70300000
C       54.38990000      45.14950000      44.53180000
C       45.62750000      45.29770000      55.43370000
C       54.37960000      54.73490000      55.42370000
C       44.68960000      54.87150000      46.52640000
C       54.75750000      55.44700000      54.28040000
C       45.22530000      44.57850000      54.30450000
C       55.48590000      54.32480000      54.67470000
C       44.67060000      54.33900000      45.16620000
C       55.51170000      45.55130000      45.26100000
C       45.64580000      54.74880000      55.56400000
C       54.74470000      44.51100000      54.37600000
C       44.58450000      45.68110000      45.20450000
C       54.33870000      45.24620000      55.49190000
C       45.71230000      45.26290000      44.49150000
C       54.24040000      54.82680000      44.69250000
C       45.22730000      55.49200000      54.45690000
C       54.49310000      55.69450000      45.63850000
C       45.29360000      44.55070000      45.61820000
C       54.79680000      53.47590000      44.72480000
C       44.50730000      54.36170000      54.84740000
C       55.46850000      45.63960000      54.76890000
C       47.36000000      44.11590000      46.27740000
C       44.17920000      46.35910000      47.27130000
C       46.37890000      47.31940000      44.05560000
C       52.49640000      56.06150000      46.29390000
C       47.30860000      55.93320000      53.80620000
C       52.66930000      44.10290000      53.72240000
C       55.46150000      53.49190000      47.14960000
C       44.08260000      53.76580000      52.71440000
C       55.90420000      46.26090000      52.69960000
C       53.65550000      52.99590000      43.98400000
C       46.31410000      52.69270000      55.90360000
C       53.70000000      47.32180000      55.87720000
C       47.30780000      44.14700000      53.68250000
C       44.13370000      46.37170000      52.61530000
C       46.29340000      47.35550000      55.85150000
C       52.67860000      55.89380000      53.70490000
C       47.10020000      55.57570000      46.52170000
C       52.70990000      44.07030000      46.31830000
C       55.81560000      53.65720000      52.57640000
C       43.95750000      53.71420000      46.98430000
C       55.93380000      46.20690000      47.33960000
C       53.72130000      52.67230000      55.85230000
C       46.30000000      52.64530000      43.90470000
C       53.77760000      47.26950000      44.10320000
C       44.11960000      50.80340000      46.73830000
C       50.81830000      46.82770000      44.06370000
C       46.85170000      44.07060000      50.72170000
C       56.07270000      49.10130000      46.88530000
C       44.09290000      49.32110000      53.10190000
C       55.95670000      50.71720000      53.11900000
C       49.27270000      53.14510000      44.10130000
C       50.76580000      53.17230000      55.98030000
C       49.25030000      46.85570000      55.95380000
C       53.06470000      55.95720000      50.74300000
C       46.86100000      56.11880000      49.45130000
C       53.17830000      43.99620000      49.28010000
C       44.08630000      50.80540000      53.12080000
C       50.73880000      46.84900000      55.95850000
C       46.86150000      44.06430000      49.23360000
C       55.97770000      49.22510000      53.13960000
C       44.13890000      49.31430000      46.76330000
C       56.05200000      50.56950000      46.91340000
C       49.27600000      53.17850000      55.99440000
C       50.75000000      53.18950000      44.11740000
C       49.33300000      46.83630000      44.04790000
C       53.02740000      55.96360000      49.26250000
C       46.84030000      56.11140000      50.91860000
C       53.16950000      44.00580000      50.76890000
C       55.16160000      54.56300000      51.59110000
C       54.62690000      51.67170000      55.21420000
C       51.69950000      55.28210000      54.65080000
C       44.76870000      45.44260000      51.63270000
C       55.30520000      45.29070000      48.34210000
C       44.74910000      55.00530000      49.09220000
C       45.39250000      48.35810000      55.20700000
C       54.70580000      48.26330000      44.70150000
C       45.40740000      51.65910000      44.54410000
C       48.30460000      44.76670000      54.60810000
C       51.72990000      44.72360000      45.39910000
C       48.15690000      55.10080000      45.54710000
C       54.95920000      54.46570000      48.19310000
C       54.97530000      50.91020000      44.78530000
C       51.52400000      55.40060000      45.41520000
C       44.79760000      45.43580000      48.27190000
C       55.27830000      45.33170000      51.71430000
C       44.67260000      54.71160000      51.73340000
C       45.45470000      48.32440000      44.66370000
C       54.61890000      48.31150000      55.23810000
C       45.40650000      51.71250000      55.23570000
C       48.36800000      44.74370000      45.36950000
C       51.67100000      44.74330000      54.63120000
C       48.32040000      55.30970000      54.71660000
C       48.31160000      56.35070000      52.91310000
C       55.99540000      52.66060000      48.18770000
C       52.76720000      48.31710000      56.20660000
C       51.68010000      43.76890000      52.78420000
C       48.34200000      43.78040000      47.22270000
C       51.52000000      56.35930000      47.26220000
C       43.87550000      47.31190000      48.25570000
C       56.27060000      47.17550000      51.69890000
C       43.75070000      52.84760000      51.70140000
C       47.25480000      51.69920000      56.21630000
C       52.95200000      51.82810000      43.88510000
C       47.32580000      48.30450000      43.73070000
C       48.12650000      56.12680000      47.35570000
C       56.13790000      52.71920000      51.58130000
C       52.85180000      48.27060000      43.75860000
C       51.70970000      43.75420000      47.25100000
C       48.30520000      43.80090000      52.75770000
C       51.66360000      56.27780000      52.81400000
C       43.84900000      47.31940000      51.61810000
C       56.33330000      47.10430000      48.34670000
C       43.86960000      52.98500000      48.13840000
C       47.28150000      51.67480000      43.63370000
C       52.78460000      51.68680000      56.20280000
C       47.23680000      48.33740000      56.19300000
