240
Lattice="100.0 0.0 0.0 0.0 100.0 0.0 0.0 0.0 100.0" Properties=species:S:1:pos:R:3 name=C-53965-5632-1359 pressure=0.388999116212465 energy=-1725.5080092637 spacegroup=C1 times_found=1 pbc="T T T"
C       44.85480000      50.71810000      46.02730000
C       45.79110000      44.63940000      50.60540000
C       50.78340000      45.90350000      44.77700000
C       45.20240000      49.42410000      54.00920000
C       55.17030000      49.24410000      45.73400000
C       55.27630000      50.44770000      54.30390000
C       45.62220000      55.11390000      49.35760000
C       54.14900000      54.89780000      50.61170000
C       55.40290000      44.98040000      49.67000000
C       50.79610000      54.53310000      55.11720000
C       49.56090000      55.28480000      45.08800000
C       49.37980000      45.00350000      54.83120000
C       55.39340000      50.61610000      45.69450000
C       54.56980000      44.87890000      50.83710000
C       49.39280000      45.81110000      44.57890000
C       54.82850000      49.33090000      55.04450000
C       44.90550000      49.29100000      45.99540000
C       45.04260000      50.83460000      54.01030000
C       54.91080000      54.59960000      49.43200000
C       45.65030000      55.18390000      50.76120000
C       45.85990000      44.90470000      49.24060000
C       49.65660000      55.41720000      54.94210000
C       50.71900000      54.42140000      44.97170000
C       50.52260000      45.67290000      55.33280000
C       43.95990000      46.48560000      48.13350000
C       48.07900000      44.42540000      46.37440000
C       46.50820000      47.94740000      44.26370000
C       43.90500000      53.52070000      51.94420000
C       55.80250000      53.34170000      47.62370000
C       56.23240000      46.48840000      52.09520000
C       47.78400000      55.83750000      53.57370000
C       51.98150000      56.07350000      46.57470000
C       52.10310000      44.44330000      53.55480000
C       46.62360000      52.15170000      55.69230000
C       53.47870000      52.00630000      44.44970000
C       53.37170000      47.68090000      55.85340000
C       55.76690000      46.34170000      47.78320000
C       52.02610000      44.29080000      46.55320000
C       53.47210000      48.17490000      43.89870000
C       55.66570000      53.27010000      52.03230000
C       43.76960000      53.42420000      48.20280000
C       44.46900000      46.44240000      51.99230000
C       52.06230000      56.05160000      53.37170000
C       47.68020000      55.70640000      46.45400000
C       47.66470000      44.24320000      53.40610000
C       53.53520000      52.05550000      55.61690000
C       46.48770000      52.01670000      44.41490000
C       46.66650000      48.24560000      55.97150000
C       55.21870000      45.10620000      48.23540000
C       48.11430000      55.15180000      45.21220000
C       45.92370000      48.39870000      54.77290000
C       54.61480000      54.18540000      51.88690000
C       44.86840000      54.34210000      48.35600000
C       44.91660000      45.09270000      51.76080000
C       47.96170000      45.23910000      54.38010000
C       51.95330000      45.34090000      45.61310000
C       51.91920000      55.05590000      54.36670000
C       45.57480000      51.94430000      45.47840000
C       54.75980000      51.74500000      54.95350000
C       54.38290000      48.26600000      44.99550000
C       45.10620000      45.63700000      48.24420000
C       51.84630000      54.98580000      45.69160000
C       54.38430000      47.90040000      54.87200000
C       44.93430000      54.49080000      51.82430000
C       54.74430000      54.23050000      47.96870000
C       55.15740000      45.59140000      51.96680000
C       51.81060000      45.01600000      54.81710000
C       48.23950000      45.00630000      45.08590000
C       48.21370000      55.30140000      54.82940000
C       54.81840000      51.79160000      44.92550000
C       45.71030000      52.07540000      54.61960000
C       45.66720000      48.09520000      45.39030000
C       56.11090000      51.18640000      46.78930000
C       46.85420000      55.73280000      51.37530000
C       51.08760000      46.87820000      56.09590000
C       56.42160000      48.64620000      52.88060000
C       44.05820000      48.70270000      47.04230000
C       44.18350000      51.31100000      52.95300000
C       47.08920000      44.47540000      48.58630000
C       53.18790000      44.46760000      51.34990000
C       52.82260000      56.30900000      48.70880000
C       51.23760000      53.04520000      44.53270000
C       48.76160000      53.03820000      56.29380000
C       48.73490000      46.94030000      43.92970000
C       43.96000000      51.24060000      47.06570000
C       52.94800000      55.77190000      51.06810000
C       48.61810000      47.08920000      56.54160000
C       44.65030000      48.69610000      52.85750000
C       55.71610000      48.55200000      46.89970000
C       55.94060000      50.99430000      53.00190000
C       52.94910000      43.71120000      48.69490000
C       46.91560000      44.02030000      51.21610000
C       46.79900000      55.65330000      48.67710000
C       48.63640000      52.87970000      43.84820000
C       51.31520000      53.14910000      55.62040000
C       51.30720000      47.02600000      44.01530000
C       47.31100000      54.52200000      55.39590000
C       54.74780000      46.98680000      53.84840000
C       53.70750000      54.57600000      47.07720000
C       47.06390000      45.53020000      44.54460000
C       52.92110000      45.46170000      55.44750000
C       52.93540000      54.08060000      45.90070000
C       55.55210000      52.91540000      45.23360000
C       45.34880000      53.20760000      53.76410000
C       45.40190000      46.94110000      46.28590000
C       54.26490000      45.78620000      53.06820000
C       45.92720000      45.78950000      47.03940000
C       45.74150000      54.41210000      53.01110000
C       53.00320000      54.13520000      54.21600000
C       46.03210000      47.16540000      54.00120000
C       45.66930000      54.25780000      47.13660000
C       53.11530000      46.26250000      45.31460000
C       47.10340000      46.33730000      54.64510000
C       47.19690000      54.38770000      44.65180000
C       45.23850000      53.08440000      46.36120000
C       55.26440000      52.81960000      54.31340000
C       54.28730000      47.03110000      45.77460000
C       45.23940000      44.36280000      52.88520000
C       54.42550000      44.55390000      47.33770000
C       53.72390000      54.50640000      52.97340000
C       47.34470000      53.12360000      44.22820000
C       45.09840000      47.31300000      52.89830000
C       53.14750000      44.16020000      47.41560000
C       47.47170000      47.10530000      55.81110000
C       52.68390000      47.07400000      44.22920000
C       52.69240000      53.07570000      55.15550000
C       44.13870000      52.62620000      47.12320000
C       55.72440000      52.40780000      53.10450000
C       55.27050000      47.17860000      46.82130000
C       52.97140000      55.57880000      52.44740000
C       46.71570000      55.22960000      47.29590000
C       46.56510000      44.00900000      52.63070000
C       52.63330000      52.98510000      44.99830000
C       55.90030000      47.42120000      53.08040000
C       47.06440000      44.89790000      47.21440000
C       52.51480000      46.63130000      56.01680000
C       47.31690000      46.81470000      44.13280000
C       47.47860000      53.27020000      55.86410000
C       56.05370000      52.61090000      46.49880000
C       44.28770000      52.70520000      52.98430000
C       44.28780000      47.32780000      47.07090000
C       46.79070000      55.36400000      52.77840000
C       52.96810000      55.74440000      47.49860000
C       53.14490000      44.91410000      52.73810000
C       43.06810000      51.57070000      50.73530000
C       50.82100000      43.54110000      51.70280000
C       51.60290000      50.79480000      43.43790000
C       43.08350000      48.32570000      49.33670000
C       57.05750000      48.19750000      50.56470000
C       56.67480000      51.58260000      49.17180000
C       50.48790000      56.95030000      48.28480000
C       49.14940000      56.67930000      51.66120000
C       49.35010000      43.57760000      48.31750000
C       51.67700000      49.30850000      56.63560000
C       48.29910000      49.21570000      43.25730000
C       48.35710000      50.80460000      56.83180000
C       56.73680000      51.58240000      50.65980000
C       49.31770000      43.55240000      51.64850000
C       48.25600000      50.61550000      43.40330000
C       56.79400000      48.16470000      49.11940000
C       43.39730000      48.29970000      50.74670000
C       42.89190000      51.51880000      49.30390000
C       49.03630000      56.70140000      48.27910000
C       50.63330000      56.82470000      51.60620000
C       50.73550000      43.36900000      48.44790000
C       48.40400000      49.41260000      57.06740000
C       51.55840000      49.36990000      43.14750000
C       51.70540000      50.81300000      56.63020000
C       56.37050000      49.13200000      48.06790000
C       47.98890000      56.26970000      49.25940000
C       49.28260000      48.31780000      56.78050000
C       56.48660000      50.58720000      51.69230000
C       43.39000000      50.64310000      48.25190000
C       43.87870000      49.24470000      51.74440000
C       48.22970000      43.79680000      50.66440000
C       51.80130000      43.65180000      49.39100000
C       51.64460000      56.42500000      50.64030000
C       49.24330000      51.69370000      43.70860000
C       50.79950000      51.89480000      56.27420000
C       50.69160000      48.24890000      43.52780000
C       43.46540000      49.23750000      48.25260000
C       51.55270000      56.61860000      49.22430000
C       50.68310000      48.21840000      56.52210000
C       43.66730000      50.67670000      51.76570000
C       56.44230000      50.59560000      48.06660000
C       56.72990000      49.15960000      51.61430000
C       51.91600000      43.87720000      50.82380000
C       48.25780000      43.92050000      49.21740000
C       48.03360000      56.28450000      50.73460000
C       50.69300000      51.81660000      43.89090000
C       49.35120000      51.83910000      56.48840000
C       49.26600000      48.19560000      43.54030000
C       54.18520000      50.54680000      57.35040000
C       57.26900000      54.14320000      50.53080000
C       50.53590000      57.75500000      54.02600000
C       53.73290000      49.51850000      41.82530000
C       46.12410000      49.38990000      58.12470000
C       45.98860000      50.22370000      42.78460000
C       56.68730000      45.74670000      49.71180000
C       42.56470000      46.08430000      50.55320000
C       41.50820000      53.68290000      49.25220000
C       50.89020000      42.05120000      46.32670000
C       49.67180000      43.72260000      54.10380000
C       49.62160000      56.57610000      45.85190000
C       46.06630000      50.43150000      57.40230000
C       42.16790000      53.76900000      50.32890000
C       49.74660000      56.66400000      54.09950000
C       46.03970000      49.15210000      42.11230000
C       54.13080000      49.65650000      56.33980000
C       53.79890000      50.56640000      42.52190000
C       41.92370000      46.05430000      49.47360000
C       57.81000000      45.72470000      50.44890000
C       56.25620000      53.99570000      49.65180000
C       49.80840000      42.69240000      46.15060000
C       50.54360000      42.69150000      54.13140000
C       50.36470000      57.69820000      45.81060000
C       46.86660000      51.04530000      43.48390000
C       43.44490000      46.94500000      51.22460000
C       51.26630000      43.17920000      47.11150000
C       47.04490000      48.92890000      57.15640000
C       52.91880000      48.94820000      42.84860000
C       53.11130000      51.21320000      56.64520000
C       42.62800000      52.86810000      48.83250000
C       56.67760000      52.97980000      51.11660000
C       56.59070000      46.82780000      48.75000000
C       51.14010000      57.01210000      52.97400000
C       48.66380000      56.50190000      46.94170000
C       48.82390000      43.66120000      52.96000000
C       52.97320000      51.23960000      43.42900000
C       57.16220000      46.82680000      51.09200000
C       48.97740000      43.52950000      46.92540000
C       52.98080000      48.83090000      56.44850000
C       46.94670000      48.70970000      43.13630000
C       46.97050000      51.22410000      56.68260000
C       56.42420000      52.89640000      48.75150000
C       42.93280000      52.96640000      51.14840000
C       42.87170000      46.95280000      48.90300000
C       48.79370000      56.55810000      53.01820000
C       51.00360000      57.03190000      46.90800000
C       51.21830000      43.46070000      53.09890000
