240
Lattice="100.0 0.0 0.0 0.0 100.0 0.0 0.0 0.0 100.0" Properties=species:S:1:pos:R:3 name=C-53965-5632-624 pressure=-0.0217456668299647 spacegroup=Th times_found=1 energy=-1788.47672962579 pbc="T T T"
C       50.70940000      56.39720000      51.89120000
C       56.39730000      51.89090000      50.70920000
C       51.89110000      50.70900000      56.39730000
C       49.29130000      56.39730000      48.10880000
C       49.29060000      43.60280000      51.89120000
C       50.70880000      43.60270000      48.10880000
C       43.60290000      51.89150000      49.29080000
C       43.60260000      48.10910000      50.70890000
C       56.39720000      48.10850000      49.29110000
C       48.10900000      50.70910000      43.60270000
C       48.10860000      49.29110000      56.39720000
C       51.89130000      49.29080000      43.60280000
C       50.70870000      43.60270000      51.89120000
C       56.39710000      48.10850000      50.70920000
C       51.89100000      49.29090000      56.39730000
C       49.29060000      43.60280000      48.10880000
C       49.29120000      56.39730000      51.89120000
C       50.70940000      56.39720000      48.10880000
C       43.60270000      48.10910000      49.29080000
C       43.60280000      51.89150000      50.70890000
C       56.39740000      51.89090000      49.29110000
C       48.10890000      49.29100000      43.60270000
C       48.10870000      50.70920000      56.39720000
C       51.89140000      50.70890000      43.60280000
C       44.70960000      53.40710000      53.78040000
C       53.40710000      53.78030000      44.70960000
C       53.78020000      44.70930000      53.40690000
C       55.29070000      53.40650000      46.21960000
C       55.29020000      46.59290000      53.78070000
C       44.70940000      46.59340000      46.21940000
C       46.59330000      53.78070000      55.29040000
C       46.59310000      46.21960000      44.70950000
C       53.40650000      46.21930000      55.29050000
C       46.21920000      44.70970000      46.59310000
C       46.21970000      55.29070000      53.40670000
C       53.78090000      55.29030000      46.59320000
C       44.70930000      46.59350000      53.78040000
C       53.40670000      46.21930000      44.70960000
C       53.78080000      55.29030000      53.40690000
C       55.29040000      46.59290000      46.21960000
C       55.29060000      53.40660000      53.78060000
C       44.70980000      53.40710000      46.21930000
C       46.59290000      46.21970000      55.29040000
C       46.59350000      53.78070000      44.70950000
C       53.40690000      53.78040000      55.29050000
C       46.21980000      55.29070000      46.59310000
C       46.21910000      44.70970000      53.40680000
C       53.78030000      44.70930000      46.59330000
C       45.11090000      45.47380000      47.00540000
C       45.47350000      47.00570000      45.11100000
C       47.00530000      45.11130000      45.47350000
C       54.88860000      45.47330000      52.99460000
C       54.88920000      54.52620000      47.00560000
C       45.11130000      54.52670000      52.99440000
C       54.52620000      47.00530000      54.88900000
C       54.52670000      52.99430000      45.11120000
C       45.47360000      52.99480000      54.88880000
C       52.99420000      45.11100000      54.52650000
C       52.99490000      54.88870000      45.47360000
C       47.00560000      54.88900000      54.52640000
C       45.11140000      54.52670000      47.00540000
C       45.47380000      52.99470000      45.11100000
C       47.00580000      54.88900000      45.47350000
C       54.88910000      54.52620000      52.99460000
C       54.88870000      45.47330000      47.00560000
C       45.11080000      45.47380000      52.99440000
C       54.52650000      52.99430000      54.88900000
C       54.52640000      47.00520000      45.11120000
C       45.47330000      47.00570000      54.88880000
C       52.99470000      54.88870000      54.52650000
C       52.99440000      45.11100000      45.47360000
C       47.00510000      45.11130000      54.52640000
C       55.32780000      49.27930000      44.77330000
C       49.27920000      44.77320000      55.32780000
C       44.77350000      55.32800000      49.27950000
C       44.67210000      49.27990000      55.22670000
C       44.67240000      50.72060000      44.77310000
C       55.32770000      50.72010000      55.22690000
C       50.72020000      44.77310000      44.67230000
C       50.72050000      55.22680000      55.32780000
C       49.28000000      55.22680000      44.67220000
C       55.22710000      55.32750000      50.72050000
C       55.22650000      44.67190000      49.27970000
C       44.77290000      44.67250000      50.72030000
C       55.32790000      50.72010000      44.77330000
C       49.27980000      55.22690000      55.32770000
C       44.77290000      44.67250000      49.27950000
C       44.67220000      50.72070000      55.22670000
C       44.67230000      49.27990000      44.77310000
C       55.32760000      49.27940000      55.22690000
C       50.72080000      55.22680000      44.67220000
C       50.72000000      44.77320000      55.32780000
C       49.27950000      44.77320000      44.67220000
C       55.22650000      44.67200000      50.72050000
C       55.22710000      55.32750000      49.27970000
C       44.77350000      55.32810000      50.72030000
C       51.65140000      43.38100000      49.28360000
C       43.38110000      49.28390000      51.65160000
C       49.28380000      51.65180000      43.38110000
C       48.34790000      43.38120000      50.71640000
C       48.34860000      56.61900000      49.28350000
C       51.65210000      56.61880000      50.71650000
C       56.61890000      49.28320000      48.34840000
C       56.61890000      50.71610000      51.65190000
C       43.38120000      50.71680000      48.34810000
C       50.71640000      51.65180000      56.61890000
C       50.71650000      48.34820000      43.38110000
C       49.28330000      48.34830000      56.61890000
C       51.65210000      56.61880000      49.28360000
C       43.38110000      50.71680000      51.65160000
C       49.28360000      48.34820000      43.38110000
C       48.34860000      56.61900000      50.71640000
C       48.34790000      43.38120000      49.28350000
C       51.65140000      43.38100000      50.71650000
C       56.61890000      50.71610000      48.34840000
C       56.61880000      49.28320000      51.65190000
C       43.38110000      49.28390000      48.34810000
C       50.71620000      48.34820000      56.61890000
C       50.71670000      51.65170000      43.38110000
C       49.28350000      51.65180000      56.61890000
C       46.94690000      48.42660000      56.09090000
C       48.42680000      56.09100000      46.94700000
C       56.09080000      46.94680000      48.42650000
C       53.05300000      48.42620000      43.90910000
C       53.05290000      51.57350000      56.09100000
C       46.94730000      51.57380000      43.90900000
C       51.57390000      56.09090000      53.05290000
C       51.57340000      43.90900000      46.94710000
C       48.42600000      43.90910000      53.05290000
C       43.90890000      46.94740000      51.57350000
C       43.90920000      53.05320000      48.42620000
C       56.09110000      53.05260000      51.57370000
C       46.94700000      51.57380000      56.09090000
C       48.42610000      43.90910000      46.94710000
C       56.09110000      53.05260000      48.42650000
C       53.05310000      51.57340000      43.90910000
C       53.05270000      48.42620000      56.09100000
C       46.94710000      48.42650000      43.90900000
C       51.57320000      43.90900000      53.05300000
C       51.57400000      56.09090000      46.94710000
C       48.42660000      56.09100000      53.05290000
C       43.90920000      53.05320000      51.57350000
C       43.90890000      46.94740000      48.42630000
C       56.09080000      46.94680000      51.57380000
C       48.34650000      55.47280000      45.63550000
C       55.47250000      45.63520000      48.34620000
C       45.63530000      48.34630000      55.47260000
C       51.65410000      55.47270000      54.36450000
C       51.65370000      44.52720000      45.63560000
C       48.34570000      44.52740000      54.36440000
C       44.52700000      45.63580000      51.65380000
C       44.52750000      54.36480000      48.34600000
C       55.47290000      54.36420000      51.65400000
C       54.36450000      48.34590000      44.52740000
C       54.36440000      51.65370000      55.47280000
C       45.63570000      51.65410000      44.52720000
C       48.34590000      44.52730000      45.63550000
C       55.47300000      54.36420000      48.34620000
C       45.63550000      51.65410000      55.47260000
C       51.65350000      44.52720000      54.36450000
C       51.65430000      55.47260000      45.63560000
C       48.34630000      55.47280000      54.36440000
C       44.52750000      54.36480000      51.65380000
C       44.52710000      45.63580000      48.34600000
C       55.47250000      45.63520000      51.65400000
C       54.36470000      51.65370000      44.52740000
C       54.36430000      48.34590000      55.47280000
C       45.63560000      48.34630000      44.52720000
C       48.68570000      47.00300000      43.47260000
C       47.00260000      43.47270000      48.68560000
C       43.47260000      48.68600000      47.00280000
C       51.31400000      47.00290000      56.52750000
C       51.31460000      52.99700000      43.47260000
C       48.68570000      52.99710000      56.52740000
C       52.99670000      43.47240000      51.31440000
C       52.99740000      56.52730000      48.68570000
C       47.00330000      56.52760000      51.31420000
C       56.52730000      48.68540000      52.99720000
C       56.52760000      51.31400000      47.00310000
C       43.47260000      51.31470000      52.99690000
C       48.68600000      52.99710000      43.47250000
C       47.00330000      56.52760000      48.68560000
C       43.47270000      51.31460000      47.00280000
C       51.31430000      52.99700000      56.52740000
C       51.31430000      47.00290000      43.47260000
C       48.68540000      47.00300000      56.52740000
C       52.99740000      56.52730000      51.31440000
C       52.99670000      43.47240000      48.68580000
C       47.00260000      43.47270000      51.31430000
C       56.52740000      51.31400000      52.99720000
C       56.52740000      48.68530000      47.00310000
C       43.47240000      48.68600000      52.99690000
C       50.71160000      54.23800000      56.42590000
C       54.23840000      56.42570000      50.71160000
C       56.42590000      50.71120000      54.23820000
C       49.28890000      54.23810000      43.57410000
C       49.28820000      45.76200000      56.42590000
C       50.71140000      45.76190000      43.57410000
C       45.76230000      56.42610000      49.28840000
C       45.76160000      43.57430000      50.71140000
C       54.23770000      43.57390000      49.28860000
C       43.57420000      50.71180000      45.76180000
C       43.57400000      49.28890000      54.23790000
C       56.42600000      49.28820000      45.76210000
C       50.71110000      45.76190000      56.42590000
C       54.23770000      43.57390000      50.71160000
C       56.42580000      49.28820000      54.23820000
C       49.28840000      45.76200000      43.57410000
C       49.28860000      54.23810000      56.42590000
C       50.71180000      54.23800000      43.57410000
C       45.76160000      43.57430000      49.28840000
C       45.76230000      56.42610000      50.71140000
C       54.23840000      56.42570000      49.28860000
C       43.57410000      49.28880000      45.76180000
C       43.57400000      50.71180000      54.23790000
C       56.42600000      50.71110000      45.76210000
C       52.62290000      52.90600000      56.10910000
C       52.90640000      56.10890000      52.62290000
C       56.10910000      52.62250000      52.90620000
C       47.37740000      52.90620000      43.89090000
C       47.37690000      47.09400000      56.10900000
C       52.62280000      47.09370000      43.89100000
C       47.09430000      56.10920000      47.37710000
C       47.09350000      43.89110000      52.62280000
C       52.90580000      43.89080000      47.37720000
C       43.89120000      52.62320000      47.09380000
C       43.89080000      47.37750000      52.90600000
C       56.10890000      47.37680000      47.09400000
C       52.62260000      47.09380000      56.10910000
C       52.90570000      43.89080000      52.62290000
C       56.10880000      47.37680000      52.90620000
C       47.37710000      47.09400000      43.89090000
C       47.37720000      52.90630000      56.10900000
C       52.62310000      52.90600000      43.89100000
C       47.09360000      43.89110000      47.37710000
C       47.09420000      56.10920000      52.62280000
C       52.90650000      56.10890000      47.37720000
C       43.89090000      47.37750000      47.09380000
C       43.89110000      52.62320000      52.90600000
C       56.10920000      52.62250000      47.09400000
