240
Lattice="100.0 0.0 0.0 0.0 100.0 0.0 0.0 0.0 100.0" Properties=species:S:1:pos:R:3 name=C-53965-5632-1079 pressure=10.5026022094424 energy=-1781.79512040761 spacegroup=Th times_found=1 pbc="T T T"
C       43.91770000      52.62200000      52.84750000
C       52.84740000      43.91760000      52.62190000
C       52.62190000      52.84740000      43.91760000
C       56.08240000      52.62190000      47.15250000
C       43.91750000      47.37810000      47.15270000
C       56.08240000      47.37800000      52.84730000
C       47.15250000      43.91760000      47.37810000
C       52.84740000      56.08240000      47.37790000
C       47.15270000      56.08240000      52.62200000
C       47.37810000      52.84750000      56.08240000
C       52.62210000      47.15260000      56.08240000
C       47.37790000      47.15260000      43.91770000
C       43.91760000      47.37810000      52.84750000
C       52.84750000      56.08240000      52.62190000
C       52.62190000      47.15250000      43.91760000
C       56.08230000      47.37800000      47.15250000
C       43.91760000      52.62200000      47.15270000
C       56.08250000      52.62190000      52.84730000
C       47.15260000      56.08240000      47.37810000
C       52.84730000      43.91760000      47.37800000
C       47.15260000      43.91760000      52.62210000
C       47.37810000      47.15260000      56.08240000
C       52.62210000      52.84740000      56.08230000
C       47.37790000      52.84740000      43.91760000
C       54.16880000      55.46980000      52.76420000
C       52.76440000      54.16870000      55.46980000
C       55.47000000      52.76430000      54.16860000
C       45.83130000      55.46990000      47.23580000
C       54.16860000      44.53010000      47.23560000
C       45.83130000      44.53020000      52.76440000
C       47.23560000      54.16870000      44.53020000
C       52.76420000      45.83130000      44.53010000
C       47.23580000      45.83140000      55.46990000
C       44.53010000      52.76430000      45.83140000
C       55.46980000      47.23560000      45.83120000
C       44.53020000      47.23570000      54.16880000
C       54.16870000      44.53010000      52.76420000
C       52.76440000      45.83130000      55.46980000
C       55.46990000      47.23570000      54.16860000
C       45.83120000      44.53020000      47.23580000
C       54.16870000      55.46980000      47.23560000
C       45.83140000      55.46990000      52.76440000
C       47.23560000      45.83130000      44.53020000
C       52.76420000      54.16860000      44.53010000
C       47.23580000      54.16870000      55.46990000
C       44.53000000      47.23570000      45.83140000
C       55.46980000      52.76430000      45.83120000
C       44.53020000      52.76440000      54.16880000
C       43.78340000      50.67700000      54.07190000
C       54.07170000      43.78330000      50.67690000
C       50.67690000      54.07170000      43.78330000
C       56.21660000      50.67690000      45.92810000
C       43.78330000      49.32310000      45.92830000
C       56.21670000      49.32300000      54.07170000
C       45.92820000      43.78340000      49.32320000
C       54.07180000      56.21660000      49.32300000
C       45.92830000      56.21670000      50.67700000
C       49.32320000      54.07180000      56.21660000
C       50.67700000      45.92820000      56.21660000
C       49.32290000      45.92820000      43.78340000
C       43.78340000      49.32310000      54.07190000
C       54.07180000      56.21660000      50.67680000
C       50.67680000      45.92820000      43.78340000
C       56.21660000      49.32300000      45.92810000
C       43.78330000      50.67700000      45.92830000
C       56.21670000      50.67690000      54.07170000
C       45.92830000      56.21670000      49.32310000
C       54.07170000      43.78330000      49.32300000
C       45.92820000      43.78340000      50.67700000
C       49.32310000      45.92830000      56.21670000
C       50.67710000      54.07180000      56.21660000
C       49.32300000      54.07180000      43.78340000
C       53.98170000      54.64360000      55.11370000
C       55.11390000      53.98160000      54.64350000
C       54.64370000      55.11380000      53.98150000
C       46.01830000      54.64360000      44.88620000
C       53.98150000      45.35630000      44.88610000
C       46.01840000      45.35640000      55.11390000
C       44.88610000      53.98160000      45.35650000
C       55.11370000      46.01830000      45.35630000
C       44.88620000      46.01840000      54.64370000
C       45.35630000      55.11380000      46.01850000
C       54.64350000      44.88610000      46.01830000
C       45.35640000      44.88620000      53.98170000
C       53.98170000      45.35640000      55.11380000
C       55.11390000      46.01840000      54.64350000
C       54.64370000      44.88620000      53.98150000
C       46.01830000      45.35640000      44.88630000
C       53.98160000      54.64360000      44.88610000
C       46.01850000      54.64370000      55.11390000
C       44.88610000      46.01840000      45.35650000
C       55.11380000      53.98160000      45.35630000
C       44.88630000      53.98170000      54.64370000
C       45.35630000      44.88620000      46.01850000
C       54.64360000      55.11380000      46.01830000
C       45.35650000      55.11390000      53.98170000
C       51.44300000      45.22230000      55.26970000
C       55.26970000      51.44290000      45.22220000
C       45.22240000      55.26980000      51.44300000
C       48.55690000      45.22230000      44.73030000
C       51.44290000      54.77770000      44.73020000
C       48.55720000      54.77770000      55.26980000
C       44.73030000      51.44300000      54.77780000
C       55.26980000      48.55700000      54.77760000
C       44.73020000      48.55710000      45.22240000
C       54.77770000      55.26970000      48.55700000
C       45.22230000      44.73030000      48.55720000
C       54.77770000      44.73020000      51.44290000
C       51.44310000      54.77770000      55.26970000
C       55.26970000      48.55700000      45.22220000
C       45.22230000      44.73030000      51.44300000
C       48.55700000      54.77770000      44.73030000
C       51.44280000      45.22230000      44.73020000
C       48.55710000      45.22230000      55.26980000
C       44.73030000      48.55710000      54.77780000
C       55.26980000      51.44290000      54.77760000
C       44.73020000      51.44300000      45.22240000
C       54.77760000      44.73020000      48.55700000
C       45.22230000      55.26980000      48.55710000
C       54.77770000      55.26970000      51.44280000
C       48.55040000      56.01420000      46.97330000
C       46.97340000      48.55050000      56.01430000
C       56.01420000      46.97320000      48.55040000
C       51.44960000      56.01420000      53.02670000
C       48.55050000      43.98580000      53.02680000
C       51.44940000      43.98580000      46.97330000
C       53.02660000      48.55040000      43.98570000
C       46.97320000      51.44950000      43.98580000
C       53.02680000      51.44950000      56.01420000
C       43.98580000      46.97330000      51.44970000
C       56.01430000      53.02670000      51.44940000
C       43.98580000      53.02680000      48.55060000
C       48.55040000      43.98580000      46.97330000
C       46.97340000      51.44960000      56.01430000
C       56.01420000      53.02670000      48.55030000
C       51.44960000      43.98580000      53.02670000
C       48.55060000      56.01420000      53.02670000
C       51.44950000      56.01420000      46.97320000
C       53.02660000      51.44950000      43.98570000
C       46.97320000      48.55050000      43.98580000
C       53.02680000      48.55050000      56.01420000
C       43.98580000      53.02680000      51.44960000
C       56.01420000      46.97320000      51.44940000
C       43.98570000      46.97330000      48.55060000
C       43.23050000      49.27900000      51.60850000
C       51.60830000      43.23050000      49.27890000
C       49.27880000      51.60830000      43.23050000
C       56.76950000      49.27890000      48.39150000
C       43.23050000      50.72110000      48.39180000
C       56.76950000      50.72100000      51.60820000
C       48.39160000      43.23050000      50.72110000
C       51.60840000      56.76950000      50.72100000
C       48.39170000      56.76950000      49.27890000
C       50.72120000      51.60840000      56.76950000
C       49.27900000      48.39170000      56.76950000
C       50.72100000      48.39160000      43.23050000
C       43.23050000      50.72110000      51.60850000
C       51.60840000      56.76950000      49.27890000
C       49.27880000      48.39160000      43.23050000
C       56.76950000      50.72100000      48.39150000
C       43.23050000      49.27900000      48.39180000
C       56.76950000      49.27890000      51.60820000
C       48.39170000      56.76950000      50.72110000
C       51.60830000      43.23050000      50.72110000
C       48.39160000      43.23050000      49.27900000
C       50.72120000      48.39170000      56.76950000
C       49.27900000      51.60840000      56.76950000
C       50.72100000      51.60830000      43.23050000
C       56.60480000      51.32070000      52.87180000
C       52.87200000      56.60470000      51.32060000
C       51.32090000      52.87190000      56.60470000
C       43.39520000      51.32080000      47.12820000
C       56.60470000      48.67920000      47.12800000
C       43.39530000      48.67930000      52.87200000
C       47.12810000      56.60480000      48.67930000
C       52.87180000      43.39520000      48.67920000
C       47.12810000      43.39530000      51.32080000
C       48.67920000      52.87190000      43.39530000
C       51.32060000      47.12810000      43.39520000
C       48.67940000      47.12810000      56.60480000
C       56.60480000      48.67920000      52.87180000
C       52.87190000      43.39520000      51.32070000
C       51.32080000      47.12810000      56.60470000
C       43.39520000      48.67930000      47.12820000
C       56.60470000      51.32070000      47.12800000
C       43.39530000      51.32080000      52.87200000
C       47.12800000      43.39530000      48.67940000
C       52.87190000      56.60470000      48.67920000
C       47.12820000      56.60480000      51.32080000
C       48.67910000      47.12810000      43.39530000
C       51.32060000      52.87190000      43.39520000
C       48.67940000      52.87190000      56.60480000
C       49.23870000      44.52350000      54.19130000
C       54.19110000      49.23860000      44.52340000
C       44.52350000      54.19130000      49.23870000
C       50.76120000      44.52350000      45.80880000
C       49.23860000      55.47650000      45.80880000
C       50.76150000      55.47650000      54.19120000
C       45.80890000      49.23870000      55.47660000
C       54.19130000      50.76130000      55.47640000
C       45.80870000      50.76140000      44.52360000
C       55.47650000      54.19120000      50.76120000
C       44.52350000      45.80880000      50.76150000
C       55.47650000      45.80870000      49.23860000
C       49.23880000      55.47650000      54.19120000
C       54.19110000      50.76130000      44.52340000
C       44.52350000      45.80880000      49.23880000
C       50.76130000      55.47650000      45.80870000
C       49.23850000      44.52350000      45.80880000
C       50.76140000      44.52350000      54.19120000
C       45.80890000      50.76140000      55.47660000
C       54.19130000      49.23860000      55.47640000
C       45.80870000      49.23870000      44.52360000
C       55.47650000      45.80870000      50.76130000
C       44.52350000      54.19130000      50.76140000
C       55.47650000      54.19120000      49.23850000
C       49.31150000      43.52170000      48.15340000
C       48.15320000      49.31160000      43.52170000
C       43.52170000      48.15340000      49.31170000
C       50.68840000      43.52170000      51.84670000
C       49.31170000      56.47830000      51.84670000
C       50.68840000      56.47830000      48.15330000
C       51.84680000      49.31160000      56.47830000
C       48.15350000      50.68840000      56.47830000
C       51.84650000      50.68840000      43.52170000
C       56.47830000      48.15330000      50.68830000
C       43.52170000      51.84670000      50.68850000
C       56.47830000      51.84660000      49.31150000
C       49.31160000      56.47830000      48.15330000
C       48.15320000      50.68840000      43.52170000
C       43.52170000      51.84670000      49.31170000
C       50.68850000      56.47830000      51.84660000
C       49.31160000      43.52170000      51.84670000
C       50.68830000      43.52170000      48.15330000
C       51.84680000      50.68840000      56.47830000
C       48.15350000      49.31160000      56.47830000
C       51.84650000      49.31160000      43.52170000
C       56.47830000      51.84660000      50.68830000
C       43.52170000      48.15340000      50.68850000
C       56.47830000      48.15330000      49.31150000
