240
Lattice="100.0 0.0 0.0 0.0 100.0 0.0 0.0 0.0 100.0" Properties=species:S:1:pos:R:3 name=C-53965-5632-914 pressure=-3.16701022948696 spacegroup=C1 times_found=1 energy=-1691.88362620713 pbc="T T T"
C       43.49530000      52.70630000      47.18980000
C       46.59200000      43.08420000      53.50840000
C       52.68000000      46.99020000      44.06830000
C       56.88300000      46.58120000      46.56160000
C       55.94750000      52.77950000      52.78380000
C       43.99660000      47.29730000      52.91740000
C       52.44420000      56.22470000      52.75310000
C       52.78110000      44.01810000      47.07030000
C       47.02300000      56.09070000      46.93220000
C       46.61460000      53.69010000      43.57230000
C       47.05630000      47.27340000      56.20040000
C       52.86870000      52.55990000      56.02310000
C       43.82270000      52.93710000      52.93520000
C       47.55540000      43.69320000      47.30620000
C       52.72130000      47.00250000      56.15170000
C       56.48280000      47.43070000      52.78600000
C       56.23180000      52.82480000      47.17710000
C       44.15940000      47.24050000      47.23760000
C       52.61860000      56.32550000      47.45130000
C       52.99020000      43.97730000      52.85660000
C       46.95390000      56.15410000      52.75020000
C       47.39640000      52.83010000      56.37940000
C       47.16940000      47.34130000      43.84180000
C       52.99640000      52.78350000      44.03430000
C       44.84660000      53.68390000      45.37880000
C       45.21730000      45.22780000      53.69670000
C       52.78720000      44.52800000      44.58720000
C       54.88670000      46.23120000      45.25240000
C       54.99790000      53.05880000      55.07980000
C       44.84250000      46.95510000      55.29290000
C       54.44470000      54.74650000      53.43460000
C       54.93300000      45.21330000      46.29080000
C       44.76160000      54.71930000      46.38700000
C       47.14580000      55.84260000      44.36730000
C       45.61470000      45.81340000      54.92540000
C       54.13760000      54.14960000      54.69460000
C       45.39230000      53.57630000      54.89590000
C       45.56460000      45.19480000      46.57540000
C       53.29460000      44.89100000      55.17290000
C       54.34820000      45.76940000      54.76400000
C       55.24590000      53.24410000      45.03090000
C       45.05770000      46.86890000      44.91540000
C       54.78070000      54.29920000      45.88350000
C       54.98300000      45.43580000      53.52570000
C       44.79340000      55.26460000      53.29850000
C       45.69260000      54.84200000      54.34110000
C       45.90360000      45.79730000      45.32340000
C       53.53050000      54.85340000      45.49870000
C       55.66540000      47.26480000      49.16290000
C       49.14040000      55.07200000      47.19850000
C       47.30680000      49.39750000      55.19630000
C       44.58940000      52.82010000      49.30610000
C       45.16130000      47.23880000      50.80750000
C       54.97430000      52.70860000      50.58100000
C       50.69680000      45.03810000      47.42230000
C       50.40600000      55.09150000      52.70620000
C       49.34960000      44.70190000      52.69190000
C       52.74600000      50.38070000      55.04250000
C       52.86020000      49.17450000      45.07360000
C       47.38310000      51.03070000      44.69280000
C       55.62960000      47.22970000      50.56820000
C       49.02640000      55.05180000      52.71650000
C       47.22850000      49.62210000      44.67550000
C       44.58710000      52.87590000      50.68550000
C       45.14690000      47.23540000      49.41400000
C       54.99940000      52.64950000      49.19500000
C       50.73330000      44.67770000      52.82940000
C       50.52690000      55.16690000      47.26080000
C       49.34020000      45.19170000      47.70080000
C       52.96220000      50.55530000      44.93150000
C       52.57170000      49.01470000      54.93850000
C       47.49440000      50.76130000      55.11370000
C       53.61560000      54.87550000      51.30110000
C       51.51870000      53.88270000      54.73110000
C       55.08990000      51.02300000      53.97200000
C       46.27670000      44.91200000      51.68190000
C       45.79260000      54.92880000      48.44990000
C       54.17100000      45.23640000      48.47510000
C       48.28300000      45.94220000      54.75680000
C       48.69290000      54.07640000      44.78920000
C       50.96680000      45.93530000      45.03310000
C       44.94210000      48.95130000      54.14300000
C       45.21580000      51.54100000      46.08980000
C       55.22990000      48.38250000      46.09510000
C       53.64960000      54.81030000      48.65870000
C       51.41760000      53.98880000      45.10390000
C       55.36480000      51.11260000      45.88930000
C       46.23090000      44.90380000      48.76820000
C       45.62560000      55.24440000      51.14570000
C       54.25690000      45.11760000      51.33270000
C       48.40070000      46.38900000      45.52400000
C       48.66860000      53.97640000      55.09830000
C       51.09460000      45.66640000      55.21300000
C       45.02930000      48.91770000      45.96670000
C       45.32440000      51.52780000      53.86140000
C       54.75010000      48.48450000      53.63590000
C       48.09840000      55.73670000      48.18650000
C       48.26740000      48.28600000      55.79010000
C       56.01170000      48.51360000      48.51320000
C       51.85430000      44.38760000      48.28580000
C       51.34540000      55.74130000      51.60010000
C       48.74390000      44.27620000      51.48240000
C       51.73110000      51.50870000      55.66100000
C       51.71040000      48.20120000      44.44720000
C       48.64900000      51.60190000      44.26510000
C       44.13050000      51.68180000      48.36910000
C       44.44260000      48.35010000      51.78170000
C       55.67880000      51.71410000      51.65760000
C       48.03920000      55.75470000      51.63950000
C       48.30070000      48.52030000      44.24120000
C       56.03720000      48.33640000      51.51230000
C       51.89910000      44.27440000      51.73400000
C       51.37250000      55.76350000      48.35970000
C       48.47160000      44.12370000      48.56110000
C       51.84190000      51.66960000      44.33730000
C       51.58110000      48.08310000      55.73370000
C       48.51230000      51.64000000      55.83110000
C       44.19980000      51.75860000      51.67860000
C       44.51420000      48.32580000      48.37310000
C       55.88370000      51.68020000      48.28110000
C       50.53990000      47.29580000      45.02870000
C       45.01590000      50.82350000      47.34990000
C       47.46030000      44.57940000      50.91980000
C       49.35040000      52.80180000      44.63810000
C       49.11530000      47.12240000      55.10970000
C       50.77250000      52.64620000      55.03150000
C       55.57130000      49.13870000      47.29240000
C       55.09510000      50.56930000      52.61990000
C       44.95370000      49.44780000      52.79280000
C       52.37250000      55.05780000      50.65230000
C       52.98710000      45.02290000      49.26490000
C       47.01500000      55.16020000      49.16770000
C       50.48380000      46.98330000      55.23410000
C       44.99880000      50.83280000      52.66920000
C       47.38460000      44.56570000      49.51270000
C       49.40330000      52.71190000      55.16700000
C       49.17270000      47.54480000      45.11570000
C       50.76270000      52.77480000      44.80990000
C       54.98250000      49.20760000      52.40190000
C       55.49470000      50.53510000      47.18810000
C       45.03200000      49.44300000      47.29650000
C       52.33560000      54.93290000      49.28750000
C       53.02080000      44.95850000      50.65520000
C       46.95070000      55.23600000      50.55340000
C       45.93050000      49.02270000      44.83960000
C       45.30020000      45.98260000      48.75050000
C       48.59060000      45.43590000      46.49050000
C       54.28010000      51.12620000      44.92750000
C       53.76040000      48.26850000      54.56400000
C       46.34980000      51.53420000      54.80920000
C       54.62540000      53.85260000      48.46240000
C       55.30990000      46.07550000      51.32830000
C       44.63940000      54.20120000      51.25060000
C       51.32570000      54.98660000      46.10200000
C       51.23460000      44.70340000      54.14070000
C       48.31530000      54.76920000      53.98330000
C       45.92090000      48.97210000      55.20110000
C       45.33630000      46.00680000      51.53670000
C       48.49740000      44.86580000      53.86470000
C       54.10470000      50.90890000      55.03160000
C       54.04630000      48.38150000      45.30870000
C       46.22540000      51.81410000      45.11350000
C       54.65400000      53.90620000      51.27540000
C       55.34180000      46.04830000      48.44860000
C       44.68610000      54.07360000      48.60910000
C       51.18740000      55.01110000      53.94850000
C       51.04450000      44.98500000      46.05910000
C       48.61850000      54.92190000      45.88370000
C       47.54060000      43.83900000      53.90490000
C       53.92110000      47.11400000      44.67540000
C       43.92700000      54.04250000      47.39910000
C       52.02410000      56.22120000      54.03680000
C       52.21660000      44.18300000      45.80670000
C       47.57490000      55.89350000      45.66420000
C       45.89860000      53.10960000      44.56940000
C       45.77440000      47.80770000      55.99330000
C       54.16250000      52.11390000      55.78120000
C       55.95510000      45.78100000      47.17830000
C       55.28930000      53.97720000      52.53750000
C       44.55610000      46.05100000      52.71870000
C       48.23160000      44.04340000      46.20480000
C       53.89940000      47.08750000      55.32410000
C       44.06360000      54.26350000      52.55530000
C       52.57990000      55.64160000      46.22060000
C       52.56930000      44.18670000      54.17480000
C       47.03550000      55.38730000      53.95450000
C       46.24290000      52.68550000      55.59590000
C       45.87570000      47.77990000      44.12760000
C       54.30360000      52.42070000      44.32340000
C       55.84400000      46.17510000      52.65300000
C       55.35210000      53.95610000      47.23500000
C       44.72320000      45.99320000      47.46350000
C       56.12970000      48.09540000      53.89220000
C       53.75360000      56.16250000      48.13740000
C       47.86630000      54.08930000      56.34700000
C       44.58110000      52.69920000      54.06130000
C       44.41620000      47.63780000      45.92670000
C       56.02470000      52.37580000      45.86780000
C       46.30300000      44.33780000      47.44960000
C       45.62330000      55.98530000      52.35860000
C       54.22690000      44.56430000      52.63400000
C       52.33290000      45.68410000      55.92610000
C       52.72560000      54.03130000      44.59750000
C       47.23620000      46.20620000      44.73900000
C       55.89250000      47.14970000      45.79960000
C       53.63400000      55.51730000      52.55750000
C       47.56220000      54.56710000      43.93070000
C       44.21070000      52.54230000      45.99100000
C       44.22770000      47.72130000      54.24050000
C       55.69570000      52.32870000      54.07850000
C       46.01390000      44.32130000      52.96540000
C       45.79280000      55.45740000      47.13780000
C       54.02400000      44.60630000      47.19720000
C       52.13760000      45.71640000      44.22120000
C       52.81470000      53.79440000      55.28850000
C       47.02350000      46.07140000      55.43530000
C       49.56410000      43.50150000      49.26920000
C       49.40700000      49.27550000      43.68890000
C       43.88200000      49.22210000      49.32630000
C       50.42650000      56.38200000      49.24490000
C       51.08000000      43.67520000      50.71790000
C       48.94550000      56.31910000      50.67040000
C       50.97720000      50.66410000      43.76320000
C       50.72780000      49.09590000      56.29750000
C       49.38460000      50.64080000      56.37610000
C       56.49850000      50.88070000      49.30550000
C       56.63670000      49.40620000      50.77260000
C       43.71730000      50.71080000      50.76990000
C       49.63180000      43.58620000      50.68330000
C       49.28000000      49.17350000      56.35480000
C       43.86750000      49.24940000      50.79360000
C       50.40070000      56.35030000      50.70000000
C       51.04250000      43.66130000      49.24520000
C       48.97430000      56.33330000      49.19340000
C       50.82550000      50.57310000      56.29750000
C       50.88240000      49.19230000      43.78190000
C       49.52770000      50.69370000      43.69420000
C       56.45860000      50.87770000      50.77480000
C       56.61250000      49.44420000      49.34780000
C       43.70860000      50.67830000      49.31460000
