240
Lattice="100.0 0.0 0.0 0.0 100.0 0.0 0.0 0.0 100.0" Properties=species:S:1:pos:R:3 name=C-53965-5632-953 pressure=-0.00896348541516398 spacegroup=Td times_found=1 energy=-1728.28632183222 pbc="T T T"
C       53.86590000      44.13430000      51.90420000
C       44.13640000      51.90640000      53.86810000
C       51.90700000      53.86880000      44.13710000
C       46.13420000      55.86440000      51.90840000
C       53.86860000      55.86390000      48.09550000
C       46.13130000      44.13740000      48.09190000
C       55.86390000      48.09100000      53.86640000
C       44.13520000      48.09640000      46.13230000
C       55.86450000      51.90620000      46.13320000
C       48.09260000      46.13520000      44.13460000
C       51.90560000      46.13030000      55.86280000
C       48.09480000      53.86570000      55.86550000
C       44.13680000      53.86800000      51.90780000
C       51.90500000      44.13410000      53.86520000
C       53.86750000      51.90740000      44.13630000
C       55.86330000      46.13070000      51.90480000
C       55.86500000      53.86650000      48.09480000
C       44.13490000      46.13480000      48.09260000
C       48.09520000      55.86330000      53.86930000
C       48.09220000      44.13760000      46.13080000
C       51.90760000      55.86500000      46.13460000
C       46.13210000      48.09660000      44.13530000
C       46.13340000      51.90520000      55.86490000
C       53.86700000      48.09080000      55.86340000
C       51.58680000      43.86190000      50.52160000
C       43.86270000      50.52470000      51.58860000
C       50.52390000      51.59010000      43.86300000
C       48.41330000      56.13770000      50.52590000
C       51.58960000      56.13730000      49.47830000
C       48.41040000      43.86300000      49.47420000
C       56.13740000      49.47430000      51.58780000
C       43.86230000      49.47820000      48.41180000
C       56.13760000      50.52280000      48.41180000
C       49.47570000      48.41400000      43.86200000
C       50.52360000      48.40960000      56.13700000
C       49.47680000      51.58620000      56.13810000
C       43.86290000      51.58950000      50.52450000
C       50.52230000      43.86180000      51.58610000
C       51.58810000      50.52540000      43.86260000
C       56.13710000      48.41020000      50.52300000
C       56.13790000      51.58690000      49.47660000
C       43.86210000      48.41340000      49.47590000
C       49.47780000      56.13710000      51.59030000
C       49.47480000      43.86320000      48.40980000
C       50.52510000      56.13790000      48.41390000
C       48.41150000      49.47870000      43.86240000
C       48.41210000      50.52210000      56.13770000
C       51.58830000      49.47380000      56.13730000
C       44.84600000      46.85880000      45.85670000
C       46.85510000      45.86010000      44.84560000
C       45.85630000      44.84900000      46.85470000
C       55.15370000      53.14390000      45.85850000
C       44.84780000      53.14360000      54.14360000
C       55.15250000      46.85360000      54.14110000
C       53.14460000      54.14340000      44.84820000
C       46.85740000      54.14140000      55.15460000
C       53.14300000      45.85520000      55.15160000
C       54.14350000      55.15320000      46.85780000
C       45.85890000      55.15300000      53.14560000
C       54.14130000      44.84490000      53.14190000
C       46.85490000      44.84900000      45.85600000
C       45.85670000      46.85900000      44.84600000
C       44.84580000      45.85990000      46.85500000
C       53.14480000      55.15370000      45.85930000
C       53.14270000      44.84480000      54.14050000
C       46.85760000      55.15240000      54.14420000
C       54.14290000      53.14450000      44.84780000
C       54.14180000      46.85350000      55.15190000
C       45.85850000      53.14300000      55.15430000
C       55.15400000      54.14220000      46.85750000
C       55.15220000      45.85540000      53.14220000
C       44.84800000      54.14250000      53.14530000
C       55.63920000      50.77380000      45.37870000
C       50.77270000      45.37660000      55.63760000
C       45.38000000      55.64000000      50.77560000
C       44.36050000      49.22930000      45.37860000
C       55.63910000      49.22350000      54.62090000
C       44.36120000      50.77340000      54.62180000
C       49.22770000      54.61970000      55.64080000
C       50.77450000      54.62310000      44.36240000
C       49.22510000      45.38070000      44.35930000
C       54.62010000      44.35950000      50.77150000
C       45.37730000      44.36220000      49.22470000
C       54.62270000      55.63830000      49.22810000
C       50.77480000      55.64050000      45.38050000
C       45.37900000      50.77280000      55.63960000
C       55.63810000      45.37700000      50.77190000
C       49.22490000      44.36260000      45.37680000
C       49.22790000      55.63780000      54.62330000
C       50.77240000      44.35910000      54.61940000
C       54.62140000      49.22340000      55.63880000
C       54.62140000      50.77440000      44.36090000
C       45.37830000      49.22940000      44.36070000
C       44.36190000      54.62240000      50.77530000
C       44.35970000      45.38020000      49.22500000
C       55.64020000      54.62030000      49.22780000
C       52.99960000      45.09000000      48.76180000
C       45.09010000      48.76370000      53.00050000
C       48.76410000      53.00270000      45.09140000
C       47.00040000      54.91080000      48.76530000
C       53.00200000      54.90860000      51.23800000
C       46.99810000      45.09060000      51.23490000
C       54.91010000      51.23430000      53.00100000
C       45.09050000      51.23860000      46.99980000
C       54.90930000      48.76340000      46.99870000
C       51.23550000      47.00060000      45.08930000
C       48.76300000      46.99790000      54.90870000
C       51.23730000      52.99880000      54.91060000
C       45.09100000      53.00230000      48.76480000
C       48.76250000      45.08960000      52.99920000
C       53.00030000      48.76450000      45.08980000
C       54.90890000      46.99850000      48.76240000
C       54.91040000      52.99920000      51.23730000
C       45.08970000      47.00000000      51.23560000
C       51.23770000      54.90840000      53.00240000
C       51.23520000      45.09100000      46.99750000
C       48.76460000      54.91100000      47.00090000
C       46.99940000      51.23880000      45.09080000
C       46.99910000      48.76260000      54.90940000
C       53.00120000      51.23410000      54.91000000
C       46.60570000      47.60020000      51.38670000
C       47.60010000      51.38910000      46.60670000
C       51.38650000      46.60670000      47.59870000
C       53.39440000      52.39890000      51.38810000
C       46.60670000      52.40140000      48.61350000
C       53.39320000      47.59950000      48.61170000
C       52.39970000      48.61320000      46.60570000
C       47.59970000      48.61210000      53.39340000
C       52.40060000      51.38570000      53.39420000
C       48.61330000      53.39490000      47.60110000
C       51.38830000      53.39270000      52.40120000
C       48.61190000      46.60570000      52.39900000
C       47.59910000      46.60630000      51.38630000
C       51.38670000      47.60070000      46.60530000
C       46.60640000      51.38900000      47.60040000
C       52.40100000      53.39280000      51.38840000
C       52.39930000      46.60610000      48.61140000
C       47.60060000      53.39480000      48.61380000
C       48.61310000      52.40160000      46.60700000
C       48.61220000      47.59910000      53.39300000
C       51.38810000      52.39870000      53.39460000
C       53.39340000      48.61260000      47.59930000
C       53.39420000      51.38580000      52.40050000
C       46.60600000      48.61260000      52.39980000
C       50.79830000      48.21160000      44.29660000
C       48.20860000      44.29740000      50.79710000
C       44.29740000      50.80090000      48.21040000
C       49.20130000      51.79220000      44.29790000
C       50.79960000      51.78800000      55.70330000
C       49.20080000      48.20820000      55.70220000
C       51.79150000      55.70210000      50.80080000
C       48.21120000      55.70350000      49.20300000
C       51.78870000      44.29710000      49.19910000
C       55.70250000      49.20030000      48.20940000
C       44.29710000      49.20180000      51.79000000
C       55.70300000      50.79700000      51.79020000
C       48.20990000      50.80130000      44.29760000
C       44.29680000      48.21100000      50.79850000
C       50.79760000      44.29770000      48.20800000
C       51.78970000      49.20250000      44.29690000
C       51.79050000      50.79660000      55.70300000
C       48.20990000      49.19950000      55.70260000
C       55.70320000      51.78850000      50.79940000
C       55.70230000      48.20880000      49.20020000
C       44.29760000      51.79170000      49.20180000
C       49.20230000      55.70360000      48.21180000
C       49.19980000      44.29680000      51.78820000
C       50.80040000      55.70200000      51.79200000
C       47.33770000      46.36860000      54.66300000
C       46.37050000      54.66590000      47.34010000
C       54.66340000      47.33850000      46.36850000
C       52.66260000      53.62830000      54.66530000
C       47.33910000      53.63270000      45.33720000
C       52.66060000      46.37050000      45.33460000
C       53.62930000      45.33590000      47.33670000
C       46.36850000      45.33580000      52.66020000
C       53.63170000      54.66240000      52.66310000
C       45.33640000      52.66400000      46.37060000
C       54.66490000      52.65930000      53.63120000
C       45.33540000      47.33820000      53.62970000
C       46.36910000      47.33770000      54.66340000
C       54.66320000      46.36930000      47.33700000
C       47.33930000      54.66600000      46.37120000
C       53.63130000      52.65920000      54.66490000
C       53.62970000      47.33910000      45.33480000
C       46.37000000      52.66410000      45.33690000
C       45.33660000      53.63250000      47.33970000
C       45.33510000      46.36970000      52.66060000
C       54.66510000      53.62850000      52.66270000
C       52.66040000      45.33640000      46.36790000
C       52.66290000      54.66230000      53.63190000
C       47.33740000      45.33530000      53.62900000
C       55.19670000      45.82080000      49.47840000
C       45.82190000      49.47920000      55.19770000
C       49.48110000      55.19930000      45.82370000
C       44.80320000      54.17950000      49.48160000
C       55.19870000      54.17670000      50.52120000
C       44.80130000      45.82290000      50.51880000
C       54.17840000      50.51730000      55.19780000
C       45.82180000      50.52270000      44.80260000
C       54.17780000      49.48080000      44.80200000
C       50.51860000      44.80360000      45.82010000
C       49.47890000      44.80100000      54.17640000
C       50.52140000      55.19620000      54.17980000
C       45.82310000      55.19890000      49.48190000
C       49.47920000      45.82030000      55.19630000
C       55.19750000      49.48020000      45.82150000
C       54.17690000      44.80150000      49.47810000
C       54.17930000      55.19660000      50.52160000
C       45.82070000      44.80310000      50.51840000
C       50.52120000      54.17620000      55.19910000
C       50.51880000      45.82350000      44.80090000
C       49.48080000      54.18000000      44.80370000
C       44.80230000      50.52260000      45.82220000
C       44.80230000      49.47980000      54.17810000
C       55.19800000      50.51740000      54.17810000
C       43.68530000      52.58950000      51.60040000
C       52.58870000      51.60090000      43.68510000
C       51.59800000      43.68340000      52.58640000
C       56.31480000      47.40940000      51.59830000
C       43.68400000      47.41350000      48.40000000
C       56.31590000      52.58760000      48.40130000
C       47.41090000      48.40340000      43.68420000
C       52.58840000      48.39790000      56.31470000
C       47.41200000      51.59780000      56.31600000
C       48.40220000      56.31490000      52.59070000
C       51.60080000      56.31580000      47.41350000
C       48.39910000      43.68590000      47.40940000
C       52.58710000      43.68350000      51.59710000
C       51.59980000      52.59030000      43.68550000
C       43.68510000      51.60000000      52.58930000
C       47.41300000      56.31540000      51.60160000
C       47.40990000      43.68580000      48.39860000
C       52.59000000      56.31530000      48.40270000
C       48.39980000      47.41400000      43.68380000
C       48.40150000      52.58680000      56.31630000
C       51.59900000      47.40900000      56.31440000
C       56.31510000      48.39830000      52.58780000
C       56.31560000      51.59870000      47.41180000
C       43.68420000      48.40300000      47.41110000
