240
Lattice="100.0 0.0 0.0 0.0 100.0 0.0 0.0 0.0 100.0" Properties=species:S:1:pos:R:3 name=C-53965-5632-73 pressure=0.0162907592098851 energy=-1790.69978007432 spacegroup=C1 times_found=1 pbc="T T T"
C       52.79760000      55.46850000      46.19970000
C       55.61370000      46.12140000      52.68630000
C       46.24840000      52.94200000      55.43440000
C       47.07070000      44.64090000      46.25840000
C       52.79000000      44.55380000      53.80720000
C       47.21370000      55.44550000      53.79390000
C       44.38220000      53.85570000      52.67240000
C       55.63290000      53.88200000      47.31510000
C       44.47650000      45.98230000      47.28970000
C       53.75650000      47.05810000      55.46540000
C       46.25250000      47.14850000      44.29340000
C       53.76620000      52.96840000      44.55590000
C       52.80640000      55.71280000      53.82870000
C       55.29280000      46.25820000      46.99320000
C       46.04280000      52.71660000      44.41110000
C       47.19620000      44.26560000      53.88240000
C       52.73100000      44.32870000      46.18850000
C       47.20150000      55.72240000      46.16530000
C       44.69890000      53.73000000      46.98610000
C       55.32930000      53.74710000      53.00600000
C       44.67250000      46.23310000      53.04340000
C       53.92920000      47.31820000      44.43840000
C       46.03660000      47.29920000      55.59250000
C       53.96910000      52.70040000      55.57270000
C       45.38290000      54.81090000      46.41480000
C       55.25400000      46.94680000      44.70760000
C       46.42120000      45.17030000      54.67400000
C       54.57720000      45.19720000      46.42180000
C       45.36800000      45.16610000      53.62750000
C       54.63170000      54.81750000      53.57930000
C       44.71350000      53.05490000      44.70000000
C       55.29700000      53.05660000      55.29450000
C       44.70650000      46.94320000      55.32390000
C       53.58290000      54.81900000      54.62960000
C       46.42780000      54.82910000      45.36120000
C       53.51750000      45.20670000      45.38230000
C       45.12160000      54.79280000      53.38500000
C       54.63260000      46.19290000      54.64150000
C       46.51340000      45.33560000      45.18180000
C       54.88400000      45.17650000      53.39090000
C       44.75650000      44.65840000      46.92120000
C       54.89020000      54.81790000      46.60530000
C       45.36000000      53.79550000      54.61960000
C       54.65390000      53.82050000      45.37070000
C       45.44720000      46.36780000      45.17810000
C       53.40360000      54.84910000      45.10670000
C       46.61080000      54.82190000      54.88570000
C       53.39910000      45.18640000      54.89270000
C       48.61260000      48.52670000      43.28930000
C       48.51200000      43.29300000      48.57860000
C       43.46170000      48.44330000      48.58700000
C       51.41620000      51.55320000      43.36030000
C       48.60470000      51.51890000      56.62000000
C       51.39960000      48.48690000      56.63230000
C       51.45830000      56.71180000      48.54570000
C       48.54930000      56.70150000      51.45220000
C       51.44240000      43.29400000      51.46920000
C       56.62440000      51.51520000      48.60370000
C       43.39860000      51.48530000      51.37720000
C       56.61240000      48.48050000      51.39580000
C       48.49360000      48.59150000      56.62200000
C       48.53460000      43.21400000      51.51250000
C       43.41670000      48.56070000      51.50290000
C       51.51130000      51.41480000      56.61500000
C       48.51440000      51.46450000      43.32450000
C       51.50630000      48.62300000      43.37360000
C       51.46730000      56.75260000      51.46410000
C       48.54020000      56.75370000      48.53380000
C       51.41260000      43.29040000      48.54420000
C       56.61120000      51.40740000      51.50990000
C       43.45050000      51.36600000      48.46870000
C       56.60240000      48.58760000      48.48900000
C       46.32600000      51.53200000      55.42810000
C       51.37480000      55.52080000      46.28440000
C       55.50570000      46.23970000      51.28400000
C       53.67890000      48.46650000      55.44520000
C       46.34390000      48.52570000      44.41850000
C       53.68530000      51.55750000      44.56510000
C       48.52470000      44.58720000      46.33950000
C       51.36810000      44.49390000      53.73000000
C       48.63600000      55.49930000      53.70710000
C       44.49590000      53.73420000      51.27170000
C       55.52460000      53.76210000      48.71610000
C       44.52840000      46.19200000      48.72560000
C       46.26640000      51.29230000      44.44540000
C       51.42730000      55.59100000      53.71440000
C       55.36560000      46.31770000      48.44580000
C       53.73730000      48.75020000      44.49150000
C       46.25040000      48.72730000      55.52280000
C       53.75530000      51.27150000      55.51640000
C       48.57550000      44.38630000      53.75770000
C       51.35180000      44.46820000      46.31270000
C       48.58200000      55.60600000      46.27610000
C       44.63840000      53.66390000      48.43740000
C       55.39330000      53.68740000      51.55310000
C       44.62080000      46.28740000      51.58750000
C       45.37140000      50.83460000      54.62780000
C       50.62450000      54.72680000      45.32080000
C       54.64350000      45.30890000      50.61580000
C       54.63190000      49.15580000      54.63630000
C       45.40910000      49.14160000      45.31790000
C       54.63640000      50.85760000      45.36680000
C       49.30500000      45.37330000      45.37310000
C       50.61750000      45.29510000      54.68800000
C       49.38800000      54.69960000      54.66420000
C       45.35170000      54.67470000      50.60750000
C       54.66700000      54.69770000      49.38460000
C       45.33170000      45.24740000      49.44570000
C       45.34960000      50.54490000      45.28090000
C       50.79980000      54.68710000      54.64120000
C       54.61040000      45.32790000      49.20480000
C       54.67830000      49.46090000      45.31500000
C       45.31840000      49.43950000      54.68970000
C       54.68600000      50.55180000      54.68800000
C       49.20530000      45.30260000      54.67190000
C       50.72220000      45.37430000      45.39130000
C       49.21190000      54.71130000      45.34130000
C       45.37930000      54.66440000      49.19660000
C       54.64220000      54.68400000      50.79620000
C       45.36580000      45.28470000      50.85130000
C       48.45020000      46.30510000      55.41810000
C       46.29820000      55.57800000      48.57200000
C       55.50170000      48.73500000      46.24530000
C       51.55570000      53.69130000      55.39290000
C       48.45830000      53.71980000      44.57930000
C       51.50130000      46.35310000      44.62320000
C       53.66970000      44.43720000      48.58120000
C       46.28220000      44.37590000      51.48460000
C       53.71610000      55.58910000      51.42350000
C       44.53430000      51.24690000      46.22880000
C       55.51340000      51.26870000      53.75450000
C       44.48970000      48.71520000      53.76290000
C       48.67720000      46.28960000      44.45930000
C       46.30100000      55.48200000      51.36210000
C       55.43180000      48.46260000      53.67890000
C       51.30020000      53.79480000      44.46540000
C       48.71620000      53.76240000      55.51720000
C       51.28890000      46.23740000      55.53650000
C       53.68980000      44.50750000      51.37020000
C       46.26640000      44.41770000      48.71460000
C       53.71210000      55.50090000      48.63210000
C       44.56450000      51.51760000      53.66840000
C       55.44710000      51.54190000      46.32130000
C       44.67020000      48.39060000      46.31160000
C       47.37690000      56.21370000      49.26430000
C       56.09500000      49.38280000      47.35360000
C       49.15100000      47.37680000      56.08800000
C       52.58730000      43.81270000      49.27320000
C       47.36480000      43.74420000      50.80130000
C       52.63370000      56.22090000      50.73240000
C       43.97160000      50.57380000      47.33370000
C       56.09820000      50.61560000      52.64530000
C       43.91100000      49.35850000      52.64310000
C       50.85490000      52.62550000      56.07220000
C       49.16560000      52.66590000      43.88700000
C       50.82580000      47.41780000      43.91450000
C       47.38020000      56.16720000      50.71500000
C       56.08730000      49.15110000      52.59990000
C       49.36900000      47.37970000      43.84110000
C       52.60100000      43.83810000      50.72490000
C       47.35940000      43.79010000      49.35100000
C       52.63000000      56.17950000      49.28130000
C       43.91630000      50.82160000      52.58840000
C       56.09640000      50.84730000      47.39960000
C       44.00360000      49.09570000      47.37710000
C       50.63020000      52.70520000      43.86300000
C       49.38930000      52.66810000      56.10950000
C       50.61610000      47.33480000      56.12600000
C       46.08270000      44.39110000      47.28530000
C       44.73560000      46.93760000      46.24470000
C       47.29950000      46.14640000      44.30590000
C       53.80180000      55.45110000      47.20990000
C       46.20940000      55.42950000      52.78380000
C       53.78960000      44.55160000      52.79240000
C       55.47500000      52.95020000      46.24560000
C       44.53950000      52.92500000      53.74250000
C       55.44440000      47.05270000      53.75430000
C       52.70440000      53.90490000      44.37370000
C       47.31220000      53.87600000      55.61520000
C       52.69160000      46.12330000      55.63510000
C       46.16560000      44.25950000      52.86300000
C       44.42780000      47.28960000      53.99260000
C       46.99680000      46.24680000      55.35870000
C       53.83120000      55.71120000      52.80240000
C       46.17970000      55.70590000      47.19440000
C       53.76860000      44.31560000      47.20230000
C       55.57300000      52.69780000      53.96680000
C       44.45510000      52.68210000      46.02610000
C       55.54530000      47.30500000      46.03230000
C       53.00890000      53.75010000      55.32880000
C       47.00350000      53.76910000      44.65060000
C       52.95380000      46.28160000      44.68750000
C       43.96520000      47.34860000      50.86400000
C       47.37780000      50.67390000      43.82660000
C       50.65920000      43.83360000      47.38920000
C       56.07270000      52.62030000      50.85330000
C       43.96980000      52.58680000      49.13050000
C       56.05540000      47.37870000      49.14490000
C       52.63920000      49.41020000      43.89820000
C       47.35890000      49.38240000      56.10580000
C       52.64660000      50.62090000      56.10530000
C       49.27180000      56.22990000      47.36390000
C       50.73660000      56.22000000      52.63060000
C       49.26600000      43.75130000      52.67430000
C       43.95710000      47.30050000      49.38620000
C       47.40320000      50.84690000      56.09090000
C       50.71490000      43.80920000      52.65420000
C       56.11440000      52.66460000      49.38860000
C       43.91490000      52.63310000      50.59530000
C       56.09770000      47.33390000      50.61030000
C       52.60150000      49.15670000      56.10150000
C       47.42150000      49.22330000      43.79860000
C       52.60760000      50.87550000      43.90270000
C       49.28590000      56.17520000      52.62530000
C       50.72300000      56.18930000      47.36950000
C       49.20060000      43.87350000      47.40040000
C       49.25900000      42.37060000      49.29370000
C       42.54830000      49.21570000      49.27430000
C       49.33680000      49.30950000      42.41230000
C       50.72760000      57.63370000      49.27680000
C       49.27720000      57.62850000      50.72460000
C       50.71750000      42.37040000      50.73420000
C       57.51830000      50.73390000      49.30570000
C       42.51500000      50.70050000      50.66310000
C       57.51210000      49.25500000      50.69430000
C       50.72710000      50.78210000      42.44960000
C       49.30580000      50.74520000      57.52130000
C       50.69730000      49.26680000      57.52760000
C       49.27950000      42.34550000      50.73870000
C       42.52410000      49.26060000      50.71320000
C       49.26010000      49.30390000      57.52550000
C       50.71810000      57.63790000      50.71710000
C       49.28660000      57.63840000      49.28440000
C       50.69430000      42.38230000      49.29180000
C       57.51590000      50.69640000      50.74260000
C       42.53990000      50.65600000      49.22640000
C       57.51150000      49.29230000      49.25710000
C       50.74320000      50.70820000      57.52200000
C       49.29040000      50.75370000      42.42320000
C       50.76980000      49.33860000      42.44650000
