240
Lattice="100.0 0.0 0.0 0.0 100.0 0.0 0.0 0.0 100.0" Properties=species:S:1:pos:R:3 name=C-53965-5632-44 pressure=-56.0777446959478 spacegroup=Th times_found=1 energy=-1740.03551923995 pbc="T T T"
C       53.01800000      57.02000000      50.73510000
C       57.01920000      50.73640000      53.01950000
C       50.73440000      53.01950000      57.01940000
C       53.02080000      42.98120000      49.26490000
C       46.97930000      57.01880000      49.26500000
C       46.98190000      42.98000000      50.73500000
C       57.01960000      49.26630000      46.98070000
C       42.98050000      50.73370000      46.98050000
C       42.98070000      49.26360000      53.01930000
C       50.73570000      46.98080000      42.98060000
C       49.26450000      53.01930000      42.98060000
C       49.26540000      46.98040000      57.01940000
C       46.97920000      57.01880000      50.73510000
C       42.98040000      50.73370000      53.01930000
C       49.26430000      53.01920000      57.01940000
C       46.98200000      42.98000000      49.26490000
C       53.01810000      57.02000000      49.26500000
C       53.02070000      42.98120000      50.73500000
C       42.98080000      49.26360000      46.98050000
C       57.01930000      50.73640000      46.98070000
C       57.01950000      49.26630000      53.01950000
C       49.26560000      46.98050000      42.98060000
C       50.73460000      53.01960000      42.98060000
C       50.73550000      46.98070000      57.01940000
C       54.25660000      56.99860000      48.62210000
C       56.99800000      48.62330000      54.25800000
C       48.62110000      54.25760000      56.99780000
C       54.25930000      43.00300000      51.37800000
C       45.74070000      56.99690000      51.37800000
C       45.74340000      43.00140000      48.62190000
C       56.99760000      51.37940000      45.74210000
C       43.00260000      48.62070000      45.74190000
C       43.00190000      51.37660000      54.25790000
C       48.62290000      45.74180000      43.00220000
C       51.37730000      54.25830000      43.00230000
C       51.37870000      45.74230000      56.99780000
C       45.74070000      56.99700000      48.62200000
C       43.00240000      48.62060000      54.25790000
C       51.37710000      54.25820000      56.99780000
C       45.74340000      43.00140000      51.37790000
C       54.25660000      56.99860000      51.37810000
C       54.25930000      43.00300000      48.62200000
C       43.00200000      51.37670000      45.74200000
C       56.99810000      48.62340000      45.74210000
C       56.99750000      51.37930000      54.25810000
C       51.37890000      45.74240000      43.00220000
C       48.62130000      54.25770000      43.00220000
C       48.62270000      45.74170000      56.99770000
C       44.05180000      50.72320000      54.93700000
C       50.72350000      54.93720000      44.05210000
C       54.93820000      44.05290000      50.72440000
C       44.05220000      49.27450000      45.06290000
C       55.94790000      50.72560000      45.06300000
C       55.94810000      49.27670000      54.93710000
C       50.72520000      45.06310000      55.94800000
C       49.27460000      54.93690000      55.94800000
C       49.27660000      45.06290000      44.05200000
C       54.93590000      55.94890000      49.27570000
C       45.06410000      44.05110000      49.27550000
C       45.06180000      55.94700000      50.72440000
C       55.94780000      50.72550000      54.93710000
C       49.27470000      54.93690000      44.05200000
C       45.06410000      44.05110000      50.72430000
C       55.94820000      49.27680000      45.06300000
C       44.05190000      50.72330000      45.06290000
C       44.05210000      49.27440000      54.93700000
C       49.27650000      45.06280000      55.94790000
C       50.72340000      54.93710000      55.94800000
C       50.72540000      45.06310000      44.05200000
C       45.06180000      55.94710000      49.27560000
C       54.93820000      44.05300000      49.27560000
C       54.93590000      55.94890000      50.72450000
C       49.26050000      49.29000000      43.20070000
C       49.29140000      43.20060000      49.26020000
C       43.20080000      49.25900000      49.29000000
C       49.26000000      50.70980000      56.79930000
C       50.73980000      49.29010000      56.79930000
C       50.73970000      50.71010000      43.20070000
C       49.28870000      56.79920000      50.73980000
C       50.71120000      43.20080000      50.73970000
C       50.70870000      56.79950000      49.26030000
C       43.20050000      50.73840000      50.70990000
C       56.79940000      49.26160000      50.71000000
C       56.79920000      50.74100000      49.29010000
C       50.74000000      49.29020000      43.20070000
C       50.71130000      43.20080000      49.26020000
C       56.79950000      49.26160000      49.29010000
C       50.73950000      50.71000000      56.79930000
C       49.26030000      49.28990000      56.79930000
C       49.26020000      50.70990000      43.20070000
C       50.70860000      56.79940000      50.73980000
C       49.29130000      43.20050000      50.73970000
C       49.28880000      56.79920000      49.26030000
C       56.79920000      50.74100000      50.71010000
C       43.20080000      49.25900000      50.70990000
C       43.20060000      50.73840000      49.29000000
C       45.29630000      48.65200000      45.02460000
C       48.65390000      45.02450000      45.29590000
C       45.02560000      45.29500000      48.65280000
C       45.29560000      51.34620000      54.97530000
C       54.70420000      48.65370000      54.97540000
C       54.70390000      51.34810000      45.02480000
C       48.65180000      54.97500000      54.70410000
C       51.34800000      45.02490000      54.70400000
C       51.34620000      54.97560000      45.29600000
C       45.02380000      54.70310000      51.34710000
C       54.97620000      45.29690000      51.34720000
C       54.97440000      54.70500000      48.65300000
C       54.70440000      48.65380000      45.02470000
C       51.34820000      45.02500000      45.29590000
C       54.97620000      45.29690000      48.65290000
C       54.70370000      51.34800000      54.97540000
C       45.29610000      48.65190000      54.97520000
C       45.29580000      51.34630000      45.02460000
C       51.34610000      54.97550000      54.70410000
C       48.65380000      45.02440000      54.70400000
C       48.65200000      54.97510000      45.29600000
C       54.97440000      54.70500000      51.34720000
C       45.02560000      45.29500000      51.34700000
C       45.02380000      54.70310000      48.65280000
C       56.54970000      51.46170000      51.86520000
C       51.46010000      51.86530000      56.55000000
C       51.86380000      56.55030000      51.46060000
C       56.55030000      48.54080000      48.13500000
C       43.44980000      51.45930000      48.13480000
C       43.45030000      48.53820000      51.86500000
C       51.46090000      48.13520000      43.45000000
C       48.53920000      51.86490000      43.45000000
C       48.53980000      48.13460000      56.54990000
C       51.86640000      43.45040000      48.53950000
C       48.13370000      56.54960000      48.53950000
C       48.13610000      43.44960000      51.46040000
C       43.44970000      51.45920000      51.86500000
C       48.53910000      51.86480000      56.55000000
C       48.13360000      56.54960000      51.46050000
C       43.45030000      48.53830000      48.13480000
C       56.54970000      51.46180000      48.13500000
C       56.55020000      48.54070000      51.86520000
C       48.53990000      48.13470000      43.45000000
C       51.46020000      51.86540000      43.45000000
C       51.46080000      48.13510000      56.55000000
C       48.13620000      43.44970000      48.53940000
C       51.86390000      56.55030000      48.53960000
C       51.86630000      43.45040000      51.46050000
C       44.45320000      46.46610000      50.74130000
C       46.46710000      50.74080000      44.45250000
C       50.74250000      44.45270000      46.46720000
C       44.45190000      53.53170000      49.25850000
C       55.54820000      46.46830000      49.25860000
C       55.54680000      53.53390000      50.74150000
C       46.46730000      49.25790000      55.54740000
C       53.53260000      50.74200000      55.54750000
C       53.53300000      49.25930000      44.45260000
C       50.74030000      55.54760000      53.53280000
C       49.25960000      44.45240000      53.53270000
C       49.25760000      55.54730000      46.46720000
C       55.54810000      46.46830000      50.74150000
C       53.53270000      50.74210000      44.45260000
C       49.25970000      44.45240000      46.46720000
C       55.54680000      53.53390000      49.25870000
C       44.45320000      46.46620000      49.25850000
C       44.45180000      53.53170000      50.74140000
C       53.53290000      49.25920000      55.54750000
C       46.46700000      50.74070000      55.54740000
C       46.46740000      49.25800000      44.45250000
C       49.25750000      55.54730000      53.53280000
C       50.74240000      44.45270000      53.53280000
C       50.74040000      55.54760000      46.46730000
C       44.25690000      47.37470000      48.09260000
C       47.37630000      48.09220000      44.25630000
C       48.09380000      44.25610000      47.37570000
C       44.25590000      52.62310000      51.90730000
C       55.74410000      47.37690000      51.90740000
C       55.74310000      52.62530000      48.09280000
C       47.37540000      51.90680000      55.74360000
C       52.62450000      48.09310000      55.74360000
C       52.62390000      51.90790000      44.25640000
C       48.09150000      55.74320000      52.62420000
C       51.90840000      44.25670000      52.62420000
C       51.90630000      55.74400000      47.37590000
C       55.74410000      47.37690000      48.09270000
C       52.62460000      48.09320000      44.25640000
C       51.90850000      44.25680000      47.37580000
C       55.74310000      52.62530000      51.90740000
C       44.25690000      47.37470000      51.90720000
C       44.25590000      52.62310000      48.09260000
C       52.62370000      51.90780000      55.74360000
C       47.37610000      48.09210000      55.74360000
C       47.37550000      51.90690000      44.25640000
C       51.90620000      55.74390000      52.62430000
C       48.09370000      44.25600000      52.62410000
C       48.09160000      55.74330000      47.37580000
C       52.55740000      45.75110000      54.36400000
C       45.74970000      54.36310000      52.55660000
C       54.36350000      52.55750000      45.75070000
C       52.55590000      54.24990000      45.63610000
C       47.44430000      45.75010000      45.63600000
C       47.44250000      54.24890000      54.36400000
C       45.75150000      45.63520000      47.44330000
C       54.24860000      54.36480000      47.44350000
C       54.25020000      45.63680000      52.55660000
C       54.36440000      47.44420000      54.24940000
C       45.63550000      52.55580000      54.24940000
C       45.63660000      47.44260000      45.75050000
C       47.44410000      45.75010000      54.36390000
C       54.24850000      54.36480000      52.55670000
C       45.63560000      52.55580000      45.75060000
C       47.44260000      54.24890000      45.63600000
C       52.55750000      45.75110000      45.63600000
C       52.55570000      54.24990000      54.36400000
C       54.25030000      45.63690000      47.44340000
C       45.74980000      54.36320000      47.44340000
C       45.75140000      45.63520000      52.55650000
C       45.63650000      47.44250000      54.24930000
C       54.36340000      52.55740000      54.24950000
C       54.36450000      47.44430000      45.75060000
C       46.97660000      45.13700000      53.10970000
C       45.13710000      53.10890000      46.97570000
C       53.11040000      46.97640000      45.13770000
C       46.97480000      54.86180000      46.89020000
C       53.02520000      45.13820000      46.89020000
C       53.02330000      54.86290000      53.10990000
C       45.13820000      46.88930000      53.02420000
C       54.86170000      53.11070000      53.02440000
C       54.86300000      46.89120000      46.97580000
C       53.10910000      53.02480000      54.86240000
C       46.89070000      46.97510000      54.86230000
C       46.88970000      53.02370000      45.13760000
C       53.02520000      45.13820000      53.10980000
C       54.86180000      53.11070000      46.97580000
C       46.89090000      46.97520000      45.13760000
C       53.02340000      54.86300000      46.89030000
C       46.97670000      45.13710000      46.89010000
C       46.97480000      54.86180000      53.10980000
C       54.86290000      46.89110000      53.02430000
C       45.13700000      53.10880000      53.02420000
C       45.13830000      46.88930000      46.97560000
C       46.88960000      53.02360000      54.86230000
C       53.11030000      46.97630000      54.86240000
C       53.10930000      53.02490000      45.13770000
