240
Lattice="100.0 0.0 0.0 0.0 100.0 0.0 0.0 0.0 100.0" Properties=species:S:1:pos:R:3 name=C-53965-5632-12 pressure=0.0090912981227638 spacegroup=C1 times_found=1 energy=-1764.91643877047 pbc="T T T"
C       54.35050000      54.54880000      48.11610000
C       54.99610000      48.22620000      54.49390000
C       47.89040000      54.63880000      54.62010000
C       54.44900000      45.41220000      51.84160000
C       45.28190000      55.12740000      51.74220000
C       45.14500000      45.14620000      48.43800000
C       55.00380000      51.72510000      45.47530000
C       45.44090000      47.93970000      45.51050000
C       44.93530000      51.79320000      55.01430000
C       48.30720000      45.27980000      45.10650000
C       51.60230000      54.80900000      45.17960000
C       51.77690000      44.89860000      54.90520000
C       45.33620000      55.06730000      48.27000000
C       45.04930000      48.28380000      54.72250000
C       51.56220000      54.81070000      54.80330000
C       45.37530000      45.38720000      52.10050000
C       54.33000000      54.53610000      51.87610000
C       54.46970000      45.43850000      48.06260000
C       45.17930000      51.60840000      45.20640000
C       55.06960000      48.27130000      45.42430000
C       54.94080000      51.68280000      54.49410000
C       51.78960000      44.98640000      44.97540000
C       47.94570000      54.56730000      45.38500000
C       48.22260000      44.91330000      54.98530000
C       56.03430000      48.34960000      46.42420000
C       48.23850000      46.22250000      55.50110000
C       46.29280000      56.07640000      48.32700000
C       55.93750000      51.64060000      53.52530000
C       44.10900000      48.45680000      53.71590000
C       44.60560000      51.71230000      46.46900000
C       48.13290000      53.49210000      44.43000000
C       51.88130000      46.27110000      44.40400000
C       51.63620000      53.52500000      55.32400000
C       46.38170000      44.36150000      51.92570000
C       53.32820000      55.56420000      51.79030000
C       53.46060000      44.42760000      48.15180000
C       44.44790000      48.13410000      46.54890000
C       51.77700000      46.21410000      55.39120000
C       53.34480000      55.57360000      48.19990000
C       44.33950000      51.89810000      53.73900000
C       55.98620000      48.31310000      53.51970000
C       55.98620000      51.67490000      46.45720000
C       51.68920000      53.53250000      44.64150000
C       48.46640000      46.29370000      44.17390000
C       48.07110000      53.55690000      55.55840000
C       53.45310000      44.38570000      51.75420000
C       46.26130000      56.11550000      51.66400000
C       46.38880000      44.52310000      48.35780000
C       57.37530000      51.46630000      48.26570000
C       51.43680000      48.13490000      56.59310000
C       48.10570000      57.46650000      51.41900000
C       57.38660000      48.56200000      51.72110000
C       43.09750000      51.61140000      51.81230000
C       43.03360000      48.69550000      48.35740000
C       51.47070000      51.69130000      43.33340000
C       48.78970000      48.12870000      42.85860000
C       48.61550000      51.67850000      56.87010000
C       48.18830000      43.15000000      48.61720000
C       51.60310000      57.09540000      48.60120000
C       51.68360000      42.91120000      51.32830000
C       43.29400000      51.47630000      48.30900000
C       48.63490000      48.13600000      56.71380000
C       51.59610000      57.09470000      51.38220000
C       42.80090000      48.79540000      51.87760000
C       57.35150000      51.44890000      51.73280000
C       57.40610000      48.57930000      48.24840000
C       48.68980000      51.65090000      43.05430000
C       51.60910000      48.19400000      43.15510000
C       51.37670000      51.64970000      56.58200000
C       51.67900000      42.97360000      48.57390000
C       48.11490000      57.45350000      48.55740000
C       48.16660000      42.91520000      51.40040000
C       46.38590000      50.51110000      43.38190000
C       50.64120000      43.20540000      46.26210000
C       43.32740000      46.44970000      50.95370000
C       46.36830000      49.16200000      56.55590000
C       53.62850000      50.66500000      56.27260000
C       53.79160000      49.25610000      43.60640000
C       50.50260000      56.72230000      53.70580000
C       49.23430000      43.04100000      53.72420000
C       49.06520000      56.70970000      46.28920000
C       43.55430000      53.74560000      49.27230000
C       56.53900000      46.33020000      49.24290000
C       56.44110000      53.68270000      50.72820000
C       53.73950000      50.72930000      43.64620000
C       49.17560000      43.37850000      46.34250000
C       56.53040000      46.32230000      50.69150000
C       53.65400000      49.19100000      56.27320000
C       46.30220000      50.62600000      56.72670000
C       46.45350000      49.05800000      43.42070000
C       49.04560000      56.74620000      53.69420000
C       50.70580000      43.03820000      53.69140000
C       50.52070000      56.70930000      46.27340000
C       56.44970000      53.68890000      49.28120000
C       43.31530000      46.38630000      49.49870000
C       43.51280000      53.79460000      50.74660000
C       50.71590000      43.97080000      54.80500000
C       44.36440000      54.95090000      50.72630000
C       54.88220000      50.73980000      44.51750000
C       50.44870000      55.59040000      45.34590000
C       49.23650000      44.27190000      45.21800000
C       48.97770000      55.55970000      54.53650000
C       44.37150000      45.38870000      49.58790000
C       55.18080000      54.40730000      49.27010000
C       55.27700000      45.57920000      50.68690000
C       54.82190000      49.21810000      55.43660000
C       45.13600000      50.67130000      55.86790000
C       45.55430000      49.00420000      44.56690000
C       49.27390000      43.97720000      54.83490000
C       55.17240000      54.40150000      50.73040000
C       45.41080000      50.43930000      44.46030000
C       49.01160000      55.51450000      45.45500000
C       50.67990000      44.10830000      45.13000000
C       50.41740000      55.60760000      54.63710000
C       55.28670000      45.58750000      49.22540000
C       44.39530000      54.91010000      49.26460000
C       44.45210000      45.52540000      51.02400000
C       45.20840000      49.22650000      55.70970000
C       54.79580000      50.68240000      55.43460000
C       54.92560000      49.27710000      44.48820000
C       49.27320000      52.80320000      43.77470000
C       52.77490000      43.70010000      49.23400000
C       43.41670000      49.49510000      53.01010000
C       49.29910000      46.97760000      56.14170000
C       50.64630000      52.77840000      56.04990000
C       50.92180000      47.02070000      43.61750000
C       52.67510000      56.32990000      50.71600000
C       47.05980000      43.67560000      50.79500000
C       46.97330000      56.90610000      49.27660000
C       43.87440000      50.72390000      47.22210000
C       56.85240000      49.30440000      47.11400000
C       56.79540000      50.70920000      52.85730000
C       50.71360000      52.78670000      43.89200000
C       47.10070000      43.76560000      49.35170000
C       56.81430000      49.27570000      52.85380000
C       50.74720000      46.97230000      56.08690000
C       49.20990000      52.82790000      56.17210000
C       49.49310000      46.99510000      43.46650000
C       46.96440000      56.91690000      50.70230000
C       52.76950000      43.67560000      50.67190000
C       52.68080000      56.33260000      49.27250000
C       56.83570000      50.73770000      47.12590000
C       43.77490000      49.27850000      47.21750000
C       43.56670000      50.92740000      52.98470000
C       49.17690000      57.99210000      50.71900000
C       58.00320000      50.75550000      49.26750000
C       50.78190000      49.14930000      57.25880000
C       49.17460000      42.39830000      49.22820000
C       50.64130000      57.81910000      49.27060000
C       50.64900000      42.28110000      50.66450000
C       58.00760000      49.28680000      50.72450000
C       42.45760000      50.94380000      50.77870000
C       42.41870000      49.45790000      49.33090000
C       50.89470000      50.68550000      42.59030000
C       49.49200000      49.19780000      42.35120000
C       49.34000000      50.62650000      57.39060000
C       50.63780000      57.82020000      50.70930000
C       42.55310000      50.89630000      49.31470000
C       49.33460000      49.15130000      57.34120000
C       50.64640000      42.33750000      49.22510000
C       49.18020000      57.99080000      49.25610000
C       49.17260000      42.31510000      50.67060000
C       42.30270000      49.49560000      50.80340000
C       57.99360000      50.74830000      50.73230000
C       58.01570000      49.29390000      49.26010000
C       49.45530000      50.67010000      42.45460000
C       50.94150000      49.22180000      42.50610000
C       50.78250000      50.62120000      57.28420000
C       46.96980000      52.72800000      44.11110000
C       52.80570000      44.07450000      46.93140000
C       44.11050000      47.26100000      52.98460000
C       47.02900000      47.03410000      55.36880000
C       52.87550000      52.78340000      55.15420000
C       53.08180000      47.07400000      44.65260000
C       52.65460000      55.89920000      53.00310000
C       47.08900000      43.98590000      53.10860000
C       47.02810000      55.98310000      47.13840000
C       44.72050000      52.98060000      47.17790000
C       55.92670000      47.16700000      47.16880000
C       55.81130000      52.82050000      52.77790000
C       52.93890000      52.80920000      44.80230000
C       47.12280000      44.62570000      47.11000000
C       55.89300000      47.13850000      52.76180000
C       52.97760000      47.02960000      55.17830000
C       46.89070000      52.83050000      55.90970000
C       47.27610000      47.03260000      44.20380000
C       46.98580000      56.04190000      52.85980000
C       52.82140000      43.99660000      52.97630000
C       52.67750000      55.90880000      46.98410000
C       55.84600000      52.84570000      47.21580000
C       44.10740000      46.97210000      47.30540000
C       44.55630000      53.11500000      52.94340000
C       46.42810000      46.78060000      45.30440000
C       47.10680000      45.51700000      45.96440000
C       44.73370000      45.78380000      47.25620000
C       45.67060000      52.94010000      55.35560000
C       54.11640000      47.03130000      54.27120000
C       54.07580000      52.87480000      45.70220000
C       46.72820000      54.90170000      53.65800000
C       52.94710000      44.57390000      54.18350000
C       52.77600000      55.25440000      45.81620000
C       45.47410000      54.25330000      52.95000000
C       54.74510000      46.35100000      53.00700000
C       54.67320000      53.59330000      46.96290000
C       54.18460000      47.07350000      45.60870000
C       52.92730000      44.66000000      45.72970000
C       54.78470000      46.38170000      46.89540000
C       54.02320000      52.84410000      54.26850000
C       45.87020000      47.05150000      54.49450000
C       45.78480000      52.79200000      44.74250000
C       52.74330000      55.24580000      54.17260000
C       47.02860000      44.59310000      54.30880000
C       46.79860000      54.81690000      46.36880000
C       54.63830000      53.57050000      53.02380000
C       45.18860000      46.38510000      53.24480000
C       45.57470000      54.15680000      47.10530000
C       51.52970000      56.75590000      52.76150000
C       56.72780000      52.77050000      51.70810000
C       52.70230000      51.66100000      56.07430000
C       51.66490000      43.24980000      47.19610000
C       48.09330000      56.90590000      47.22020000
C       48.20880000      43.13700000      52.79660000
C       56.81690000      47.24350000      48.26170000
C       43.78220000      52.81050000      48.28830000
C       43.21430000      47.41350000      51.91030000
C       52.91080000      48.21230000      43.73020000
C       47.29260000      51.56730000      43.32410000
C       47.27200000      48.15710000      56.29550000
C       48.07120000      56.94280000      52.76430000
C       43.64880000      52.92250000      51.79690000
C       47.21980000      51.66070000      56.67620000
C       48.20110000      43.63960000      47.28040000
C       51.54510000      56.75710000      47.22110000
C       51.68990000      43.14910000      52.71790000
C       43.29430000      47.29710000      48.44530000
C       56.74930000      52.78660000      48.29620000
C       56.79920000      47.22520000      51.68490000
C       47.41480000      48.10120000      43.29760000
C       52.79320000      51.70610000      43.85370000
C       52.76530000      48.15970000      56.08830000
