240
Lattice="100.0 0.0 0.0 0.0 100.0 0.0 0.0 0.0 100.0" Properties=species:S:1:pos:R:3 name=C-53965-5632-990 pressure=0.00959743225264631 spacegroup=Cs times_found=1 energy=-1670.27185113432 pbc="T T T"
C       43.67620000      53.92660000      50.80680000
C       50.78090000      43.63870000      53.78000000
C       53.75210000      50.70320000      43.80150000
C       56.57200000      46.16990000      51.01760000
C       56.61620000      53.86590000      49.58230000
C       43.69420000      46.06960000      49.38100000
C       49.36180000      56.35870000      53.74350000
C       49.51820000      43.33400000      45.83980000
C       50.94950000      56.60510000      45.89540000
C       45.89270000      49.27410000      43.62890000
C       46.09900000      50.71530000      56.81760000
C       53.90180000      49.29270000      56.96690000
C       43.69350000      53.92850000      49.37570000
C       50.95060000      43.38960000      45.90420000
C       53.90170000      50.71730000      56.96590000
C       56.61690000      46.13460000      49.58750000
C       56.57140000      53.83260000      51.01240000
C       43.67690000      46.07340000      50.81200000
C       49.51710000      56.66040000      45.83090000
C       49.36290000      43.64630000      53.75200000
C       50.77980000      56.36640000      53.77150000
C       46.09910000      49.29320000      56.81860000
C       45.89260000      50.71670000      43.62800000
C       53.75220000      49.28910000      43.80250000
C       47.77260000      44.49580000      52.50400000
C       52.53380000      47.63170000      44.55640000
C       44.44300000      52.75890000      47.66910000
C       52.47220000      55.55790000      52.62300000
C       52.57600000      44.77340000      46.91670000
C       47.86210000      55.50810000      46.90790000
C       46.87330000      52.51130000      44.81780000
C       47.16500000      47.76890000      55.49320000
C       52.89290000      52.26640000      55.62060000
C       55.30740000      47.13170000      48.01310000
C       55.13170000      52.97870000      52.66750000
C       44.99350000      47.05550000      52.48750000
C       47.86300000      44.48740000      46.91530000
C       52.89320000      47.74160000      55.62360000
C       44.99300000      52.94700000      52.48350000
C       52.57510000      55.22290000      46.90970000
C       52.47320000      44.44600000      52.63040000
C       47.77170000      55.50720000      52.49660000
C       47.16470000      52.23800000      55.49020000
C       46.87370000      47.48130000      44.82120000
C       52.53340000      52.36140000      44.55330000
C       55.13220000      47.02570000      52.67150000
C       55.30690000      52.86660000      48.00930000
C       44.44340000      47.23700000      47.67280000
C       54.24570000      56.11040000      50.58860000
C       50.77730000      53.87930000      55.43010000
C       55.81810000      50.74870000      54.36270000
C       46.05600000      44.06040000      50.39550000
C       46.19740000      55.72070000      48.93900000
C       54.23450000      43.99000000      49.12470000
C       49.28350000      46.13580000      55.40340000
C       49.06060000      54.08650000      43.92700000
C       50.53280000      45.88920000      43.83450000
C       44.25160000      49.25910000      54.14060000
C       43.71640000      50.72210000      45.98360000
C       55.24380000      49.25190000      46.40560000
C       54.23350000      56.00950000      49.11670000
C       50.53210000      54.10260000      43.82900000
C       55.24360000      50.74420000      46.40460000
C       46.19840000      44.27730000      48.94660000
C       46.05500000      55.93950000      50.38750000
C       54.24670000      43.89110000      50.59680000
C       49.06120000      45.90520000      43.93250000
C       49.28290000      53.87130000      55.39820000
C       50.77800000      46.12810000      55.43530000
C       43.71650000      49.27140000      45.98460000
C       44.25150000      50.74550000      54.13960000
C       55.81820000      49.25810000      54.36370000
C       48.52140000      56.27100000      48.04230000
C       48.32110000      48.32100000      56.27810000
C       55.96900000      48.32090000      48.66570000
C       51.91500000      43.81970000      48.07880000
C       51.80360000      56.38050000      51.49830000
C       48.44830000      43.64890000      51.42430000
C       51.70610000      51.69670000      56.34630000
C       51.45420000      48.33740000      43.71230000
C       48.05550000      51.74030000      43.94070000
C       43.65480000      51.66170000      48.42670000
C       44.08020000      48.25550000      51.79500000
C       55.95310000      51.72760000      52.02050000
C       48.44720000      56.35270000      51.41580000
C       48.05580000      48.25130000      43.94310000
C       55.95340000      48.27610000      52.02280000
C       51.80470000      43.62190000      51.50690000
C       51.91400000      56.17800000      48.07050000
C       48.52250000      43.72610000      48.05070000
C       51.45390000      51.65450000      43.71010000
C       51.70640000      48.31210000      56.34860000
C       48.32080000      51.68710000      56.27590000
C       44.07990000      51.74590000      51.79270000
C       43.65510000      48.33520000      48.42890000
C       55.96880000      51.67830000      48.66350000
C       49.39730000      42.89240000      52.45140000
C       52.47750000      49.30030000      43.00150000
C       43.01840000      52.60480000      49.46160000
C       50.79400000      57.12220000      52.47630000
C       50.95540000      42.87940000      47.25870000
C       49.52980000      57.17830000      47.21080000
C       47.24420000      50.71160000      43.11130000
C       47.50270000      49.29460000      57.28730000
C       52.48230000      50.71590000      57.38020000
C       56.97600000      47.56730000      49.62120000
C       56.93750000      52.43280000      51.03690000
C       43.09540000      47.40690000      50.87480000
C       49.53100000      42.81780000      47.22040000
C       52.48240000      49.29450000      57.38120000
C       43.09500000      52.59310000      50.87130000
C       50.95420000      57.11700000      47.24920000
C       50.79520000      42.88120000      52.48590000
C       49.39610000      57.11080000      52.44180000
C       47.50250000      50.71480000      57.28640000
C       47.24430000      49.27870000      43.11230000
C       52.47740000      50.69080000      43.00060000
C       56.93800000      47.56970000      51.04020000
C       56.97560000      52.43330000      49.61790000
C       43.01880000      47.39330000      49.46510000
C       55.60560000      54.05460000      48.63260000
C       48.47240000      55.28370000      53.66370000
C       54.05120000      48.44090000      55.86870000
C       44.72080000      46.08820000      48.39660000
C       44.75120000      54.06780000      51.65110000
C       55.47210000      45.91880000      51.83440000
C       51.69170000      44.69710000      53.74740000
C       51.75760000      55.47860000      45.76550000
C       48.54470000      44.33760000      45.72870000
C       45.99690000      51.54470000      55.69860000
C       45.72880000      48.31350000      44.62900000
C       53.65530000      51.61180000      44.85530000
C       55.47140000      54.08460000      51.82900000
C       48.54380000      55.65650000      45.72110000
C       53.65560000      48.38190000      44.85750000
C       44.75190000      45.93350000      51.65650000
C       44.72020000      53.90880000      48.39140000
C       55.60630000      45.94460000      48.63800000
C       51.75850000      44.51600000      45.77290000
C       51.69080000      55.30820000      53.74020000
C       48.47320000      44.72100000      53.67070000
C       45.72850000      51.67860000      44.62680000
C       45.99720000      48.46230000      55.70060000
C       54.05090000      51.56770000      55.86660000
C       44.55530000      49.27690000      50.79190000
C       50.92830000      44.32680000      49.08670000
C       49.05910000      50.73630000      44.46690000
C       55.31090000      50.71890000      51.09130000
C       55.30240000      49.28740000      49.62880000
C       44.38430000      50.70900000      49.33640000
C       49.46160000      55.68150000      49.05110000
C       49.43610000      44.25850000      50.48480000
C       50.88900000      55.74300000      50.51040000
C       50.48590000      49.27050000      44.36730000
C       50.74070000      50.73370000      55.72310000
C       49.31660000      49.27480000      55.69630000
C       44.38440000      49.28920000      49.33740000
C       50.88990000      44.25790000      50.51810000
C       49.31640000      50.73270000      55.69530000
C       55.30230000      50.71300000      49.62790000
C       55.31100000      49.28340000      51.09230000
C       44.55510000      50.72320000      50.79100000
C       49.43510000      55.74210000      50.47710000
C       49.46250000      44.31720000      49.05870000
C       50.92730000      55.67210000      49.07910000
C       50.74080000      49.27410000      55.72410000
C       50.48580000      50.72210000      44.36630000
C       49.05930000      49.25620000      44.46790000
C       47.36030000      43.38440000      50.41890000
C       50.47570000      47.27490000      43.37800000
C       43.23280000      50.71230000      47.36530000
C       52.89410000      56.65960000      50.52260000
C       52.89630000      43.45440000      49.09010000
C       47.43310000      56.47160000      48.98120000
C       49.03830000      52.71370000      43.49480000
C       49.29130000      47.23330000      56.34980000
C       50.73400000      52.78250000      56.37760000
C       56.08920000      49.28050000      47.57720000
C       56.31200000      50.72600000      53.00910000
C       43.77450000      49.27370000      52.77860000
C       47.43420000      43.52660000      48.98990000
C       50.73450000      47.22620000      56.38130000
C       43.77430000      50.72900000      52.77760000
C       52.89520000      56.54480000      49.08140000
C       52.89520000      43.34160000      50.53160000
C       47.35920000      56.61570000      50.41000000
C       49.29090000      52.77510000      56.34610000
C       49.03880000      47.27740000      43.49850000
C       50.47530000      52.71630000      43.37430000
C       56.31210000      49.27910000      53.01010000
C       56.08910000      50.71720000      47.57620000
C       43.23290000      49.28310000      47.36620000
C       47.09610000      53.16310000      54.43520000
C       54.35570000      47.22100000      53.85470000
C       53.72360000      54.41410000      47.21050000
C       53.00140000      46.81590000      54.57090000
C       52.49150000      53.59820000      44.96080000
C       47.13070000      46.25500000      45.52420000
C       45.74780000      52.74360000      53.67260000
C       44.87070000      47.33000000      46.43760000
C       54.36570000      52.98410000      46.97100000
C       46.82600000      45.44380000      46.88230000
C       46.57000000      55.00200000      52.43980000
C       53.68970000      44.91730000      52.59680000
C       47.13000000      53.73850000      45.51920000
C       54.36620000      47.01260000      46.97500000
C       53.68880000      55.08680000      52.59000000
C       52.49210000      46.39550000      44.96560000
C       53.00090000      53.19070000      54.56660000
C       47.09660000      46.84240000      54.43950000
C       44.87030000      52.66440000      46.43400000
C       45.74820000      47.26060000      53.67630000
C       54.35520000      52.78490000      53.85100000
C       46.57090000      45.00070000      52.44650000
C       46.82530000      54.55150000      46.87610000
C       53.72440000      45.58280000      47.21640000
C       54.60580000      45.01810000      48.27960000
C       48.20550000      54.56000000      44.90190000
C       45.19060000      48.32330000      54.55920000
C       45.85610000      54.70200000      48.00870000
C       45.65180000      44.87910000      51.47550000
C       54.62830000      55.20470000      51.62230000
C       51.54950000      45.45490000      44.73450000
C       51.87900000      54.16590000      54.54940000
C       48.22270000      45.85980000      54.47230000
C       54.88920000      51.70650000      54.74980000
C       54.39960000      48.16070000      46.03540000
C       44.65460000      51.67710000      45.53050000
C       54.62920000      44.79820000      51.62930000
C       48.22200000      54.14590000      54.46670000
C       44.65490000      48.31600000      45.53280000
C       45.65090000      55.12210000      51.46870000
C       45.85690000      45.29460000      48.01500000
C       54.60500000      54.98030000      48.27290000
C       51.87970000      45.84060000      54.55500000
C       51.54870000      54.53830000      44.72840000
C       48.20630000      45.43290000      44.90800000
C       54.39930000      51.83470000      46.03290000
C       54.88950000      48.30070000      54.75210000
C       45.19030000      51.68200000      54.55700000
