240
Lattice="100.0 0.0 0.0 0.0 100.0 0.0 0.0 0.0 100.0" Properties=species:S:1:pos:R:3 name=C-53965-5632-247 pressure=21.5386866968328 spacegroup=C1 times_found=1 energy=-1793.80653163575 pbc="T T T"
C       51.62400000      55.54370000      46.25430000
C       55.62330000      46.24190000      51.62050000
C       46.27730000      51.61980000      55.59950000
C       48.37210000      44.38670000      46.26100000
C       51.63360000      44.44650000      53.72680000
C       48.37990000      55.59550000      53.72910000
C       44.40650000      53.72310000      51.62490000
C       55.55170000      53.71800000      48.37010000
C       44.39540000      46.24840000      48.37860000
C       53.75150000      48.37590000      55.54710000
C       46.27780000      48.37480000      44.45870000
C       53.75380000      51.61680000      44.37870000
C       51.63180000      55.53700000      53.71710000
C       55.55930000      46.25160000      48.37570000
C       46.26370000      51.62490000      44.38700000
C       48.38660000      44.37800000      53.75040000
C       51.61920000      44.43930000      46.26060000
C       48.37650000      55.60640000      46.24320000
C       44.45970000      53.72170000      48.37230000
C       55.61570000      53.73110000      51.61930000
C       44.45470000      46.24940000      51.62640000
C       53.74150000      48.37200000      44.44130000
C       46.28610000      48.36860000      55.54910000
C       53.76280000      51.62320000      55.60550000
C       50.74390000      47.19940000      43.92090000
C       47.20000000      43.90990000      50.74320000
C       43.93640000      50.73700000      47.19920000
C       49.26800000      52.80580000      43.91490000
C       50.75420000      52.80050000      56.06810000
C       49.27780000      47.19610000      56.07290000
C       52.80370000      56.06100000      50.72820000
C       47.19990000      56.06690000      49.25250000
C       52.79850000      43.91260000      49.25420000
C       56.08450000      49.24750000      47.19940000
C       43.93880000      49.24120000      52.79800000
C       56.08920000      50.72810000      52.80450000
C       50.75790000      47.20210000      56.07300000
C       47.19290000      43.91500000      49.26750000
C       43.93970000      50.71870000      52.80780000
C       49.27880000      52.80440000      56.06460000
C       50.74390000      52.79980000      43.91130000
C       49.26390000      47.19640000      43.92760000
C       52.79800000      56.06410000      49.24830000
C       47.19630000      56.06150000      50.72800000
C       52.80570000      43.91610000      50.73430000
C       56.09280000      49.25230000      52.80050000
C       43.93010000      49.25930000      47.19900000
C       56.08120000      50.72770000      47.19420000
C       52.79790000      54.76120000      46.28400000
C       54.80230000      46.28690000      52.78180000
C       46.32210000      52.77570000      54.76830000
C       47.21460000      45.21320000      46.31040000
C       52.80840000      45.22550000      53.69140000
C       47.22380000      54.76430000      53.68410000
C       45.23740000      53.67780000      52.78080000
C       54.77320000      53.68480000      47.19480000
C       45.22260000      46.29220000      47.22030000
C       53.72080000      47.20130000      54.76560000
C       46.31090000      47.20250000      45.24370000
C       53.71030000      52.77770000      45.20040000
C       52.80570000      54.75430000      53.68490000
C       54.78190000      46.28210000      47.19980000
C       46.30980000      52.78590000      45.20910000
C       47.22410000      45.19750000      53.70950000
C       52.79720000      45.21380000      46.28900000
C       47.21730000      54.78010000      46.28580000
C       45.24150000      53.69080000      47.19760000
C       54.79320000      53.68550000      52.77990000
C       45.23770000      46.27860000      52.80020000
C       53.71100000      47.19560000      45.21810000
C       46.31750000      47.19140000      54.77330000
C       53.71890000      52.78070000      54.77690000
C       54.66730000      50.68270000      54.92880000
C       50.70870000      54.89440000      54.63190000
C       54.93490000      54.63650000      50.67850000
C       45.37120000      49.29050000      54.90140000
C       54.65700000      49.29260000      45.08910000
C       45.35870000      50.68480000      45.06900000
C       49.32720000      45.06160000      54.65220000
C       50.69720000      45.08990000      45.34880000
C       49.31620000      54.92900000      45.33830000
C       45.09980000      45.33870000      50.70250000
C       54.91080000      45.33750000      49.29730000
C       45.10470000      54.63270000      49.29700000
C       54.65960000      50.67820000      45.06020000
C       50.70150000      54.89960000      45.34060000
C       54.90510000      54.63340000      49.29270000
C       45.36330000      49.29920000      45.10050000
C       54.66500000      49.29740000      54.90130000
C       45.37090000      50.67630000      54.92720000
C       49.31140000      45.06450000      45.35130000
C       50.71280000      45.09280000      54.64480000
C       49.32310000      54.92210000      54.63460000
C       45.07110000      45.34070000      49.31720000
C       54.94050000      45.33600000      50.68290000
C       45.07850000      54.63100000      50.68270000
C       53.78620000      54.70820000      52.69960000
C       54.74350000      52.70340000      53.77060000
C       52.73300000      53.76010000      54.71890000
C       46.23860000      45.24860000      52.72630000
C       53.77600000      45.25550000      47.27460000
C       46.23760000      54.72290000      47.27170000
C       45.28660000      47.26570000      53.77440000
C       54.73920000      47.26910000      46.22230000
C       45.28700000      52.70640000      46.21620000
C       47.30360000      46.20880000      54.73050000
C       52.72310000      46.21900000      45.26180000
C       47.29340000      53.77490000      45.26000000
C       53.77270000      54.71390000      47.27060000
C       54.73190000      52.69960000      46.21110000
C       52.72540000      53.76120000      45.25290000
C       46.22680000      45.26540000      47.29510000
C       53.79090000      45.26590000      52.70500000
C       46.23680000      54.70650000      52.70170000
C       45.27920000      47.27740000      46.24010000
C       54.75100000      47.27250000      53.76470000
C       45.29440000      52.69530000      53.76820000
C       47.29430000      46.21990000      45.28750000
C       52.73400000      46.22660000      54.72020000
C       47.30390000      53.76390000      54.71150000
C       48.49310000      51.74190000      43.24560000
C       51.71830000      43.27560000      48.50430000
C       43.29880000      48.49460000      51.71860000
C       51.49540000      48.27600000      43.28010000
C       48.52740000      48.27570000      56.71170000
C       51.52930000      51.74170000      56.74320000
C       48.25940000      56.74180000      48.47800000
C       51.72600000      56.70200000      51.47860000
C       48.26390000      43.23940000      51.51660000
C       56.75830000      51.50190000      51.73990000
C       43.29940000      51.48270000      48.28170000
C       56.72350000      48.49650000      48.27730000
C       48.50590000      51.74340000      56.73940000
C       51.72780000      43.27780000      51.48660000
C       43.25450000      48.48130000      48.25610000
C       51.50890000      48.27990000      56.71180000
C       48.51390000      48.27450000      43.28780000
C       51.51820000      51.73700000      43.24080000
C       48.25780000      56.73540000      51.50120000
C       51.72140000      56.70570000      48.49790000
C       48.25430000      43.24400000      48.49130000
C       56.71970000      51.47880000      48.27300000
C       43.26280000      51.49590000      51.75060000
C       56.76280000      48.47670000      51.73820000
C       53.79820000      44.69440000      48.61340000
C       44.72420000      48.60460000      53.79430000
C       48.62930000      53.80640000      44.69520000
C       46.21000000      55.28240000      48.61360000
C       53.81030000      55.27740000      51.36630000
C       46.20870000      44.69110000      51.38450000
C       55.30920000      51.36810000      53.80450000
C       44.71830000      51.37310000      46.19290000
C       55.30110000      48.60760000      46.20030000
C       51.38320000      46.19960000      44.70310000
C       48.63860000      46.18690000      55.29370000
C       51.39240000      53.78930000      55.28120000
C       53.81440000      44.69740000      51.37220000
C       44.71590000      48.61780000      46.20870000
C       48.63900000      53.80030000      55.27970000
C       46.20050000      55.27570000      51.36710000
C       53.79510000      55.27830000      48.60880000
C       46.19360000      44.69800000      48.62980000
C       55.29940000      51.36650000      46.18640000
C       44.72550000      51.36030000      53.80490000
C       55.31090000      48.61330000      53.79300000
C       51.39680000      46.20410000      55.28720000
C       48.62520000      46.19140000      44.71320000
C       51.38420000      53.79110000      44.69360000
C       50.37280000      42.50740000      53.36740000
C       42.01040000      53.49340000      50.78870000
C       53.51110000      50.77690000      41.98080000
C       49.22010000      57.99080000      53.49530000
C       50.36260000      57.47990000      46.62170000
C       49.20710000      41.98610000      46.49300000
C       58.02120000      46.48200000      50.77970000
C       41.99980000      46.48520000      49.21710000
C       57.48900000      53.35780000      49.63290000
C       46.63500000      49.63310000      42.51750000
C       53.38610000      49.63970000      57.48200000
C       46.51120000      50.78550000      57.99790000
C       50.35250000      42.50720000      46.63020000
C       42.52530000      53.35980000      49.64070000
C       53.52350000      50.78520000      58.00220000
C       49.21780000      58.00170000      46.48530000
C       50.36630000      57.47250000      53.35820000
C       49.23000000      41.98190000      53.50800000
C       57.49600000      46.62060000      49.63640000
C       42.51880000      46.61940000      50.36340000
C       58.01270000      53.49720000      50.77660000
C       46.64920000      49.63890000      57.48040000
C       53.37180000      49.63360000      42.50560000
C       46.49800000      50.77660000      41.99300000
C       50.72580000      57.27770000      49.26530000
C       57.28300000      49.25710000      50.72580000
C       49.28450000      50.73010000      57.26270000
C       49.26910000      42.72090000      49.26870000
C       50.72880000      42.70470000      50.72260000
C       49.27210000      57.25760000      50.72290000
C       42.73550000      50.72280000      50.73240000
C       57.29290000      50.71380000      49.27100000
C       42.72960000      49.25650000      49.27250000
C       50.74200000      49.27620000      57.28330000
C       49.27860000      49.27160000      42.71280000
C       50.73660000      50.72520000      42.72110000
C       50.72660000      57.27350000      50.71440000
C       57.29670000      49.26450000      49.27190000
C       49.27120000      50.72620000      42.72600000
C       49.27470000      42.71940000      50.73430000
C       50.72330000      42.70450000      49.27330000
C       49.27190000      57.26220000      49.25790000
C       42.73610000      50.71280000      49.27820000
C       57.27890000      50.72260000      50.72560000
C       42.73340000      49.26650000      50.72610000
C       50.72790000      49.27130000      42.70760000
C       49.29290000      49.27560000      57.28070000
C       50.74970000      50.73010000      57.26600000
C       47.06100000      51.47980000      43.22940000
C       51.38030000      43.34120000      47.09450000
C       43.35640000      47.08230000      51.38920000
C       52.90640000      48.60980000      43.34350000
C       47.11700000      48.61110000      56.64770000
C       52.96180000      51.48260000      56.76170000
C       48.51860000      56.76150000      47.04550000
C       51.39190000      56.63750000      52.88880000
C       48.52860000      43.22160000      52.94880000
C       56.77420000      52.93410000      51.47660000
C       43.35920000      52.89430000      48.61270000
C       56.65820000      47.08580000      48.61240000
C       47.07430000      51.48190000      56.75760000
C       51.39500000      43.34490000      52.89770000
C       43.23950000      47.05000000      48.51910000
C       52.91930000      48.61400000      56.64620000
C       47.10420000      48.61020000      43.35550000
C       52.95120000      51.47470000      43.22250000
C       48.51960000      56.75310000      52.93250000
C       51.38720000      56.64220000      47.08760000
C       48.51370000      43.22770000      47.05810000
C       56.65300000      52.88910000      48.60860000
C       43.24860000      52.92630000      51.48650000
C       56.78010000      47.04340000      51.47730000
