240
Lattice="100.0 0.0 0.0 0.0 100.0 0.0 0.0 0.0 100.0" Properties=species:S:1:pos:R:3 name=C-53965-5632-513 pressure=-21.0890233527622 spacegroup=C2v times_found=1 energy=-1752.49578235474 pbc="T T T"
C       51.84750000      57.25460000      49.36390000
C       57.02420000      49.25970000      51.84590000
C       49.26540000      51.85010000      56.33540000
C       48.15280000      42.74560000      49.35990000
C       51.83920000      42.60270000      50.82690000
C       48.16040000      57.39700000      50.82900000
C       42.97480000      50.73950000      51.84260000
C       56.50960000      50.73070000      48.17720000
C       43.49130000      49.27000000      48.17350000
C       50.73130000      48.14720000      56.33500000
C       49.27410000      48.15300000      42.71430000
C       50.72970000      51.85010000      42.71550000
C       51.84070000      57.39660000      50.83000000
C       56.50950000      49.26870000      48.17690000
C       49.27450000      51.85020000      42.71510000
C       48.15890000      42.60300000      50.82590000
C       51.84610000      42.74530000      49.36090000
C       48.15430000      57.25500000      49.36290000
C       43.49150000      50.73200000      48.17380000
C       57.02440000      50.73810000      51.84620000
C       42.97470000      49.26110000      51.84220000
C       50.72930000      48.15280000      42.71470000
C       49.26500000      48.14740000      56.33460000
C       50.73170000      51.85000000      56.33580000
C       55.17570000      47.36110000      46.99980000
C       47.28250000      46.87140000      55.23520000
C       46.95350000      55.97660000      47.56180000
C       44.82590000      52.64010000      46.99820000
C       55.98700000      52.64180000      53.12460000
C       44.01140000      47.35690000      53.12040000
C       52.71470000      53.12650000      55.23790000
C       47.43520000      52.85480000      44.13800000
C       52.56780000      47.14760000      44.13810000
C       53.04770000      44.02440000      47.56090000
C       47.10750000      43.90460000      52.72980000
C       52.89100000      56.09420000      52.73380000
C       55.98650000      47.35570000      53.12350000
C       47.43470000      47.14820000      44.13680000
C       47.10880000      56.09480000      52.73230000
C       44.01190000      52.64300000      53.12150000
C       55.17620000      52.63910000      47.00090000
C       44.82530000      47.36220000      46.99710000
C       52.56840000      52.85430000      44.13930000
C       47.28320000      53.12700000      55.23650000
C       52.71410000      46.87080000      55.23660000
C       52.88980000      43.90400000      52.73130000
C       46.95230000      44.02500000      47.55930000
C       53.04890000      55.97600000      47.56340000
C       44.62490000      53.39260000      48.22740000
C       53.37450000      48.26360000      43.88910000
C       48.24750000      43.71540000      53.51680000
C       55.37600000      46.60820000      48.22880000
C       44.36910000      46.58470000      51.97710000
C       55.62990000      53.41450000      51.98150000
C       46.62870000      51.73900000      43.88800000
C       53.52040000      51.90490000      55.45890000
C       46.47680000      48.09290000      55.45630000
C       51.75060000      56.28310000      53.52040000
C       48.12220000      55.61290000      46.84560000
C       51.87940000      44.38840000      46.84420000
C       44.36980000      53.41560000      51.97850000
C       53.52000000      48.09210000      55.45810000
C       48.12110000      44.38880000      46.84320000
C       55.62920000      46.58360000      51.98000000
C       44.62430000      46.60930000      48.22600000
C       55.37670000      53.39150000      48.23020000
C       46.47720000      51.90560000      55.45710000
C       53.37490000      51.73830000      43.88980000
C       46.62830000      48.26420000      43.88730000
C       51.88050000      55.61250000      46.84650000
C       48.24880000      56.28340000      53.51950000
C       51.74940000      43.71510000      53.51780000
C       48.07570000      54.59560000      45.79030000
C       54.93340000      45.27650000      48.38870000
C       45.08960000      48.16460000      55.12840000
C       51.92650000      45.40620000      45.78940000
C       48.22430000      44.66970000      54.54720000
C       51.77340000      55.32840000      54.55030000
C       45.06740000      54.72410000      48.38810000
C       54.72450000      54.56250000      52.11810000
C       45.27440000      45.43670000      52.11370000
C       54.90780000      51.83320000      55.13170000
C       45.58000000      51.75230000      44.81960000
C       54.42270000      48.24980000      44.82120000
C       48.22530000      55.32870000      54.54940000
C       54.72350000      45.43570000      52.11620000
C       45.57960000      48.25070000      44.81890000
C       51.77230000      44.66940000      54.54810000
C       48.07480000      45.40660000      45.78840000
C       51.92740000      54.59520000      45.79130000
C       45.27540000      54.56340000      52.11560000
C       54.93440000      54.72310000      48.39070000
C       45.06640000      45.27750000      48.38610000
C       54.42310000      51.75140000      44.82190000
C       45.08990000      51.83420000      55.12910000
C       54.90740000      48.16370000      55.13090000
C       49.27570000      57.07690000      53.03200000
C       56.01210000      52.82780000      49.32560000
C       52.90310000      49.25540000      55.91830000
C       50.72270000      42.92180000      53.02940000
C       49.26580000      43.72460000      47.31110000
C       50.73560000      56.27650000      47.31410000
C       43.98830000      47.17240000      49.32130000
C       56.15220000      47.11680000      50.78800000
C       43.84740000      52.88290000      50.78610000
C       47.09390000      50.74210000      55.91710000
C       52.91220000      50.72900000      43.05870000
C       47.09140000      49.27390000      43.05690000
C       49.26710000      56.27670000      47.31370000
C       56.15270000      52.88160000      50.78930000
C       52.91200000      49.27330000      43.05840000
C       50.73430000      43.72440000      47.31150000
C       49.27430000      42.92200000      53.02900000
C       50.72420000      57.07670000      53.03230000
C       43.84680000      47.11810000      50.78480000
C       56.01150000      47.17120000      49.32450000
C       43.98880000      52.82910000      49.32250000
C       47.09160000      50.72960000      43.05720000
C       52.90320000      50.74150000      55.91860000
C       47.09370000      49.25600000      55.91680000
C       50.72760000      57.54280000      51.63940000
C       56.77540000      51.54350000      50.74880000
C       51.50880000      50.72200000      56.32540000
C       49.27160000      42.45650000      51.63590000
C       50.72810000      42.92130000      48.54720000
C       49.27270000      57.07930000      48.54980000
C       43.22420000      48.45620000      50.74460000
C       56.59410000      48.49490000      49.31010000
C       43.40630000      51.50540000      49.30730000
C       48.48790000      49.27540000      56.32430000
C       51.54190000      49.26790000      42.54950000
C       48.46200000      50.73520000      42.54910000
C       50.72950000      57.07910000      48.55020000
C       56.59440000      51.50410000      49.31070000
C       51.54200000      50.73490000      42.54990000
C       49.27120000      42.92150000      48.54690000
C       50.72610000      42.45640000      51.63620000
C       49.27310000      57.54290000      51.63900000
C       43.40590000      48.49620000      49.30670000
C       56.77510000      48.45480000      50.74810000
C       43.22450000      51.54490000      50.74530000
C       48.46190000      49.26820000      42.54870000
C       51.50860000      49.27510000      56.32510000
C       48.48810000      50.72230000      56.32460000
C       52.94580000      46.42900000      45.35350000
C       46.34340000      45.09090000      53.10710000
C       45.75630000      52.80120000      45.83820000
C       47.05660000      53.57290000      45.35350000
C       52.86270000      54.34130000      54.37220000
C       47.13500000      45.65690000      54.36890000
C       53.65500000      54.90780000      53.11110000
C       45.83470000      55.22660000      47.37750000
C       54.16670000      44.77450000      47.37750000
C       54.24590000      47.20050000      45.83920000
C       44.66990000      47.16010000      54.29610000
C       55.32790000      52.83810000      54.30000000
C       52.86180000      45.65630000      54.37040000
C       45.83360000      44.77540000      47.37530000
C       44.67050000      52.83920000      54.29730000
C       47.13590000      54.34180000      54.37070000
C       52.94660000      53.57240000      45.35500000
C       47.05590000      46.42960000      45.35200000
C       54.16770000      55.22570000      47.37970000
C       46.34440000      54.90850000      53.10920000
C       53.65400000      45.09020000      53.10900000
C       55.32730000      47.15900000      54.29880000
C       45.75570000      47.20140000      45.83700000
C       54.24640000      52.80040000      45.84040000
C       49.29220000      54.10650000      43.66450000
C       54.22710000      43.27510000      49.49520000
C       43.13280000      49.27970000      54.25940000
C       50.71110000      45.89620000      43.66310000
C       49.27990000      45.82980000      56.30630000
C       50.71680000      54.16760000      56.30840000
C       45.77320000      56.72510000      49.49580000
C       54.16950000      56.71310000      50.92610000
C       45.83000000      43.28650000      50.92110000
C       56.86500000      50.71850000      54.26330000
C       43.72350000      50.72090000      45.86100000
C       56.27860000      49.28080000      45.86400000
C       49.28070000      54.16770000      56.30800000
C       54.16820000      43.28570000      50.92330000
C       43.72340000      49.28210000      45.86070000
C       50.71600000      45.82960000      56.30660000
C       49.29140000      45.89630000      43.66280000
C       50.71190000      54.10640000      43.66490000
C       45.83130000      56.71390000      50.92390000
C       54.22840000      56.72420000      49.49800000
C       45.77180000      43.27600000      49.49300000
C       56.27880000      50.71970000      45.86430000
C       43.13300000      50.71990000      54.25970000
C       56.86480000      49.27840000      54.26300000
C       49.25020000      45.33820000      44.98630000
C       44.96340000      44.47090000      49.55450000
C       44.62630000      49.24810000      44.77060000
C       50.75240000      54.66390000      44.98860000
C       49.24470000      55.31610000      55.48030000
C       50.75250000      44.68160000      55.47850000
C       55.03680000      55.52930000      49.55940000
C       45.10420000      55.47980000      51.03630000
C       54.89520000      44.51970000      51.03660000
C       55.37640000      50.75400000      44.77370000
C       44.18130000      50.74330000      55.26150000
C       55.81600000      49.25450000      55.26420000
C       49.24360000      44.68170000      55.47810000
C       45.10310000      44.52070000      51.03400000
C       44.18110000      49.25570000      55.26120000
C       50.75350000      55.31600000      55.48070000
C       49.25110000      54.66410000      44.98820000
C       50.75150000      45.33800000      44.98670000
C       54.89630000      55.47880000      51.03890000
C       44.96450000      55.53030000      49.55680000
C       55.03570000      44.46990000      49.55710000
C       55.81610000      50.74210000      55.26450000
C       44.62650000      50.75510000      44.77090000
C       55.37620000      49.24710000      44.77340000
C       43.21850000      51.43120000      53.06810000
C       51.40460000      52.96930000      43.35320000
C       52.97950000      43.11220000      51.56230000
C       56.77990000      48.56750000      53.07100000
C       43.96320000      48.55750000      47.00650000
C       56.03830000      51.44380000      47.01020000
C       48.59890000      47.03340000      43.35120000
C       51.46070000      46.94930000      56.01010000
C       48.53620000      53.04820000      56.01060000
C       47.01970000      56.88720000      51.56360000
C       53.05580000      56.80670000      48.73800000
C       46.94480000      43.19380000      48.73360000
C       43.96350000      51.44500000      47.00710000
C       51.46130000      53.04790000      56.01140000
C       53.05440000      43.19320000      48.73520000
C       56.03800000      48.55620000      47.00960000
C       43.21820000      48.56880000      53.06750000
C       56.78020000      51.42990000      53.07160000
C       48.53560000      46.94960000      56.00940000
C       51.40400000      47.03320000      43.35190000
C       48.59950000      52.96960000      43.35250000
C       46.94620000      56.80740000      48.73640000
C       52.98090000      56.88660000      51.56520000
C       47.01830000      43.11280000      51.56070000
