240
Lattice="100.0 0.0 0.0 0.0 100.0 0.0 0.0 0.0 100.0" Properties=species:S:1:pos:R:3 name=C-53965-5632-658 pressure=-9.89481794545913 energy=-1793.6952195002 spacegroup=S4 times_found=1 pbc="T T T"
C       48.62630000      51.44610000      43.30670000
C       51.43880000      43.28950000      48.52620000
C       43.30650000      48.55480000      51.37360000
C       48.57470000      48.40930000      56.55500000
C       51.37380000      51.44440000      56.69360000
C       51.42520000      48.41080000      43.44460000
C       51.47320000      56.71040000      51.43990000
C       48.56060000      43.28930000      51.47220000
C       48.52730000      56.71090000      48.56170000
C       43.44490000      51.59040000      48.57500000
C       56.69340000      48.55460000      48.62610000
C       56.55530000      51.58950000      51.42540000
C       51.52160000      51.33600000      43.42420000
C       48.50010000      43.25180000      48.58010000
C       56.57590000      48.66430000      51.52140000
C       51.48520000      48.50940000      56.63460000
C       48.47850000      51.33460000      56.57610000
C       48.51470000      48.51110000      43.36510000
C       48.58110000      56.74830000      51.50040000
C       51.49930000      43.25140000      51.41830000
C       51.41940000      56.74850000      48.50120000
C       56.63480000      51.48960000      48.51490000
C       43.42400000      48.66520000      48.47830000
C       43.36530000      51.48980000      51.48550000
C       46.14300000      44.30870000      47.25950000
C       44.44220000      47.33120000      46.06540000
C       46.96580000      46.22210000      44.68590000
C       46.21610000      55.72410000      52.85210000
C       53.85650000      44.30770000      52.73910000
C       53.78440000      55.72450000      47.14930000
C       44.43820000      52.72210000      53.98460000
C       55.55760000      47.32990000      53.93390000
C       55.56210000      52.72260000      46.01600000
C       47.03880000      53.70810000      55.31850000
C       53.03390000      46.22060000      55.31320000
C       52.96150000      53.70910000      44.68240000
C       53.75740000      44.63990000      47.08240000
C       55.71130000      47.15710000      46.26320000
C       52.72510000      45.96500000      44.48450000
C       53.90190000      55.61600000      52.72970000
C       46.24220000      44.63950000      52.91630000
C       46.09850000      55.61690000      47.27170000
C       55.25780000      53.07320000      53.76550000
C       44.28850000      47.15670000      53.73610000
C       44.74240000      53.07450000      46.23520000
C       52.68650000      53.84030000      55.70140000
C       47.27460000      45.96400000      55.51460000
C       47.31380000      53.84190000      44.29950000
C       46.25390000      48.70070000      44.46390000
C       48.52820000      44.38890000      46.31470000
C       44.62560000      46.36720000      48.48920000
C       46.25060000      51.23250000      55.47340000
C       53.74600000      48.69910000      55.53580000
C       53.74950000      51.23350000      44.52690000
C       48.63860000      55.55010000      53.72110000
C       51.47140000      44.38790000      53.68400000
C       51.36180000      55.55090000      46.28020000
C       44.61990000      53.73270000      51.57740000
C       55.37410000      46.36640000      51.50990000
C       55.38040000      53.73260000      48.42350000
C       53.68990000      48.37880000      44.67100000
C       51.29840000      44.41350000      46.28300000
C       55.54210000      46.30640000      48.68960000
C       53.65040000      51.46560000      55.57820000
C       46.31000000      48.37790000      55.32860000
C       46.34970000      51.46720000      44.42210000
C       51.46460000      55.41530000      53.67990000
C       48.70120000      44.41270000      53.71560000
C       48.53590000      55.41630000      46.32140000
C       55.47130000      53.83100000      51.28860000
C       44.45760000      46.30660000      51.30960000
C       44.52900000      53.83180000      48.71230000
C       51.31010000      53.69280000      55.54270000
C       53.71650000      55.58660000      51.29920000
C       55.32890000      51.62100000      53.69010000
C       51.28800000      46.16920000      44.52840000
C       48.69020000      53.69420000      44.45810000
C       48.71170000      46.16800000      55.47070000
C       53.67900000      44.58420000      48.53500000
C       46.28390000      55.58720000      48.70210000
C       46.32050000      44.58410000      51.46370000
C       55.57800000      48.53380000      46.34950000
C       44.67120000      51.62230000      46.31030000
C       44.42190000      48.53340000      53.65020000
C       48.48980000      53.63260000      55.37470000
C       46.31560000      55.61160000      51.47230000
C       44.46410000      51.29990000      53.74620000
C       48.42290000      46.26800000      44.61930000
C       51.51050000      53.63380000      44.62620000
C       51.57680000      46.26660000      55.37980000
C       46.27930000      44.44980000      48.63770000
C       53.68490000      55.61160000      48.52910000
C       53.72020000      44.44920000      51.36090000
C       44.52670000      48.76770000      46.25040000
C       55.53600000      51.30030000      46.25410000
C       55.47320000      48.76630000      53.74930000
C       43.94210000      52.73280000      49.37330000
C       52.62400000      49.07360000      43.99600000
C       49.33720000      43.79680000      52.61620000
C       43.85440000      47.40630000      50.61760000
C       56.05810000      52.73210000      50.62730000
C       56.14540000      47.40590000      49.38180000
C       52.57270000      50.75750000      56.18850000
C       47.37590000      49.07240000      56.00370000
C       47.42740000      50.75920000      43.81170000
C       49.21160000      56.14030000      47.37580000
C       50.66230000      43.79740000      47.38230000
C       50.78890000      56.13960000      52.62570000
C       56.05990000      52.68820000      49.15060000
C       47.37410000      49.30900000      43.84830000
C       50.78840000      43.76760000      52.59740000
C       56.06160000      47.44660000      50.83830000
C       43.94030000      52.68850000      50.85000000
C       43.93820000      47.44730000      49.16110000
C       47.34590000      50.55030000      56.03910000
C       52.62590000      49.30740000      56.15150000
C       52.65420000      50.55150000      43.96100000
C       50.66810000      56.19520000      47.35240000
C       49.21110000      43.76820000      47.40110000
C       49.33240000      56.19470000      52.64910000
C       52.59840000      56.23210000      49.21210000
C       56.03900000      49.44860000      52.65410000
C       49.16150000      52.55240000      56.06200000
C       52.64810000      43.80490000      50.66710000
C       47.40210000      56.23210000      50.78940000
C       47.35140000      43.80530000      49.33140000
C       56.15170000      50.69190000      47.37420000
C       43.96090000      49.44970000      47.34580000
C       43.84840000      50.69180000      52.62600000
C       49.15020000      47.31240000      43.93990000
C       50.83870000      52.55380000      43.93860000
C       50.84960000      47.31090000      56.05950000
C       47.38330000      56.20310000      49.33820000
C       43.81160000      49.24160000      52.57260000
C       50.61800000      52.59320000      56.14580000
C       47.37480000      43.86010000      50.78800000
C       52.61720000      56.20270000      50.66330000
C       52.62470000      43.86010000      49.21060000
C       43.99620000      50.92760000      47.37610000
C       56.18840000      49.24170000      47.42720000
C       56.00390000      50.92650000      52.62410000
C       50.62690000      47.26820000      43.94160000
C       49.38220000      52.59470000      43.85480000
C       49.37290000      47.26680000      56.05770000
C       45.40960000      50.86180000      45.32340000
C       50.56690000      45.23420000      45.34080000
C       45.36160000      45.37900000      50.68350000
C       45.32330000      49.13860000      54.59030000
C       54.59050000      50.86030000      54.67680000
C       54.67670000      49.13930000      45.40950000
C       50.68420000      54.62060000      54.63870000
C       49.43270000      45.23320000      54.65810000
C       49.31610000      54.62170000      45.36240000
C       45.34160000      54.76650000      49.43350000
C       54.63800000      45.37870000      49.31540000
C       54.65880000      54.76600000      50.56760000
C       54.70420000      50.54240000      45.34340000
C       49.16070000      45.27670000      45.37840000
C       54.62250000      45.37500000      50.73190000
C       54.65660000      49.45720000      54.70410000
C       45.29580000      50.54170000      54.65670000
C       45.34330000      49.45870000      45.29580000
C       49.26780000      54.62420000      54.62320000
C       50.83890000      45.27560000      54.62050000
C       50.73260000      54.62520000      45.37790000
C       54.62130000      54.72370000      49.16150000
C       45.37720000      45.37550000      49.26710000
C       45.37910000      54.72390000      50.83960000
C       46.38270000      45.17140000      45.40760000
C       45.34990000      45.20060000      46.47370000
C       44.68610000      46.94870000      44.73990000
C       46.47440000      54.79960000      54.65040000
C       53.61690000      45.17000000      54.59130000
C       53.52600000      54.80050000      45.35070000
C       45.40840000      54.82910000      53.61760000
C       54.64970000      45.19930000      53.52520000
C       54.59200000      54.82960000      46.38350000
C       44.74030000      53.05170000      55.31420000
C       55.31370000      46.94700000      55.25940000
C       55.25990000      53.05250000      44.68650000
C       53.09480000      44.64390000      44.77110000
C       54.83160000      45.33930000      46.52660000
C       54.83350000      46.36730000      45.45790000
C       53.47300000      54.66020000      54.83240000
C       46.90480000      44.64290000      55.22770000
C       46.52740000      54.66160000      45.16870000
C       55.22850000      55.35610000      53.09560000
C       45.16800000      45.33890000      53.47230000
C       44.77190000      55.35720000      46.90560000
C       54.54180000      53.63230000      54.83410000
C       45.16620000      46.36660000      54.54120000
C       45.45850000      53.63380000      45.16680000
C       47.27080000      44.38320000      53.90100000
C       44.48510000      54.03600000      47.27520000
C       53.76500000      46.92660000      44.74190000
C       47.08320000      55.36080000      46.24300000
C       52.72880000      44.38390000      46.09770000
C       52.91720000      55.35970000      53.75830000
C       44.29890000      46.15880000      52.68590000
C       55.51520000      54.03490000      52.72570000
C       55.70080000      46.15900000      47.31320000
C       53.73660000      52.84230000      55.71180000
C       46.23470000      46.92570000      55.25730000
C       46.26360000      52.84400000      44.28890000
C       52.85120000      44.27520000      53.78350000
C       55.31380000      53.77880000      46.96640000
C       46.01560000      47.27850000      44.43770000
C       52.74000000      55.69220000      46.14400000
C       47.14840000      44.27630000      46.21520000
C       47.26040000      55.69150000      53.85740000
C       55.31790000      46.29080000      52.96090000
C       44.68650000      53.77850000      53.03450000
C       44.68180000      46.29190000      47.03820000
C       46.06590000      52.66900000      55.55800000
C       53.98420000      47.27690000      55.56160000
C       53.93430000      52.66990000      44.44260000
C       50.73200000      57.63310000      50.71880000
C       57.48270000      50.82750000      50.74770000
C       50.64070000      50.64980000      57.55470000
C       50.71760000      42.36690000      49.26740000
C       49.26860000      57.63330000      49.28300000
C       49.28180000      42.36680000      50.73080000
C       57.55460000      49.34900000      49.35920000
C       42.51730000      50.82830000      49.25250000
C       42.44530000      49.34950000      50.64060000
C       50.74760000      49.17300000      42.51720000
C       49.35930000      50.65170000      42.44540000
C       49.25230000      49.17130000      57.48260000
C       49.29930000      57.63970000      50.72990000
C       42.47120000      50.79210000      50.69070000
C       49.20830000      50.61350000      57.50170000
C       49.27070000      42.36040000      49.29810000
C       50.70130000      57.63980000      49.27190000
C       50.72870000      42.36020000      50.70010000
C       42.49840000      49.38610000      49.20820000
C       57.52880000      50.79170000      49.30950000
C       57.50160000      49.38530000      50.79170000
C       49.30940000      49.20900000      42.47110000
C       50.79180000      50.61520000      42.49850000
C       50.69050000      49.20720000      57.52870000
