240
Lattice="100.0 0.0 0.0 0.0 100.0 0.0 0.0 0.0 100.0" Properties=species:S:1:pos:R:3 name=C-53965-5632-1036 pressure=0.000476430377763143 spacegroup=Ci times_found=1 energy=-1762.41837268397 pbc="T T T"
C       56.18200000      47.09450000      48.19970000
C       47.08970000      48.19520000      56.17840000
C       48.19620000      56.17970000      47.09190000
C       43.82020000      52.90550000      48.19240000
C       56.17830000      52.90870000      51.80770000
C       43.81950000      47.09130000      51.80030000
C       52.90300000      51.80470000      56.18190000
C       47.09610000      51.80330000      43.81810000
C       52.91130000      48.19680000      43.82160000
C       51.80730000      43.82040000      47.09390000
C       48.19590000      43.81940000      52.90600000
C       51.80070000      56.18060000      52.90830000
C       56.17980000      47.09450000      51.80760000
C       47.09700000      48.19530000      43.81810000
C       48.19270000      56.17960000      52.90610000
C       43.81800000      52.90550000      51.80030000
C       56.18050000      52.90870000      48.19970000
C       43.82170000      47.09130000      48.19230000
C       52.91030000      51.80480000      43.82160000
C       47.08870000      51.80320000      56.17840000
C       52.90390000      48.19670000      56.18190000
C       51.80380000      43.82030000      52.90810000
C       48.19930000      43.81940000      47.09170000
C       51.80410000      56.18060000      47.09400000
C       55.37630000      55.01940000      51.34000000
C       55.01450000      51.33800000      55.38140000
C       51.33240000      55.37870000      55.01900000
C       44.62210000      44.98050000      51.33350000
C       55.38050000      44.98330000      48.66640000
C       44.62110000      55.01670000      48.66010000
C       44.97900000      48.66190000      55.37540000
C       55.02160000      48.66460000      44.62460000
C       44.98480000      51.33550000      44.61860000
C       48.66160000      44.62120000      55.01720000
C       51.34110000      44.62200000      44.98260000
C       48.66490000      55.37810000      44.98120000
C       55.37790000      55.01950000      48.66650000
C       55.02100000      51.33810000      44.62460000
C       51.33840000      55.37880000      44.98280000
C       44.62370000      44.98060000      48.66000000
C       55.37890000      44.98330000      51.33990000
C       44.61950000      55.01670000      51.33360000
C       44.98550000      48.66200000      44.61860000
C       55.01520000      48.66450000      55.38140000
C       44.97840000      51.33540000      55.37540000
C       48.66760000      44.62130000      44.98100000
C       51.33510000      44.62190000      55.01880000
C       48.65890000      55.37800000      55.01740000
C       52.77400000      44.60560000      54.88260000
C       44.60210000      54.87960000      52.77230000
C       54.88350000      52.77680000      44.60790000
C       47.22020000      55.39420000      54.87940000
C       52.77700000      55.39580000      45.12070000
C       47.22880000      44.60430000      45.11730000
C       55.39460000      45.12030000      52.77870000
C       44.60790000      45.11760000      47.22120000
C       55.39540000      54.88240000      47.22780000
C       45.12290000      47.22330000      44.60200000
C       54.87850000      47.22570000      55.39790000
C       45.11510000      52.77420000      55.39210000
C       52.77980000      44.60580000      45.12060000
C       44.60540000      54.87970000      47.22130000
C       54.87710000      52.77670000      55.39800000
C       47.22600000      55.39440000      45.11740000
C       52.77120000      55.39570000      54.88270000
C       47.22300000      44.60420000      54.87930000
C       55.39790000      45.12040000      47.22770000
C       44.60460000      45.11760000      52.77220000
C       55.39210000      54.88240000      52.77880000
C       45.11650000      47.22320000      55.39210000
C       54.88490000      47.22580000      44.60790000
C       45.12150000      52.77430000      44.60210000
C       49.27880000      49.27290000      43.20900000
C       49.27520000      43.20930000      49.27410000
C       43.21010000      49.27290000      49.26900000
C       50.72930000      50.72720000      43.20990000
C       49.27040000      50.72670000      56.79010000
C       50.72150000      49.27310000      56.79100000
C       50.72560000      56.79080000      49.27510000
C       49.27090000      56.79040000      50.72500000
C       50.72830000      43.20960000      50.72570000
C       56.79080000      50.72710000      49.27710000
C       43.20880000      50.72360000      50.72290000
C       56.79030000      49.27630000      50.73100000
C       49.27070000      49.27280000      56.79010000
C       49.27440000      43.20920000      50.72490000
C       43.20920000      49.27290000      50.72290000
C       50.72120000      50.72710000      56.79100000
C       49.27850000      50.72690000      43.20900000
C       50.72960000      49.27330000      43.20990000
C       50.72480000      56.79070000      50.72590000
C       49.27170000      56.79040000      49.27430000
C       50.72910000      43.20960000      49.27500000
C       56.78990000      50.72710000      50.73100000
C       43.20970000      50.72370000      49.26900000
C       56.79120000      49.27640000      49.27710000
C       50.70690000      44.12050000      53.83530000
C       44.11900000      53.83340000      50.70420000
C       53.83820000      50.70870000      44.12270000
C       49.28850000      55.87940000      53.83460000
C       50.70840000      55.87990000      46.16560000
C       49.29610000      44.12020000      46.16460000
C       55.88020000      46.16660000      50.71110000
C       44.12180000      46.16360000      49.28880000
C       55.87910000      53.83640000      49.29590000
C       46.16880000      49.29140000      44.11810000
C       53.83160000      49.29320000      55.88190000
C       46.16140000      50.70660000      55.87730000
C       50.71150000      44.12060000      46.16540000
C       44.11980000      53.83340000      49.28890000
C       53.83120000      50.70860000      55.88190000
C       49.29310000      55.87950000      46.16470000
C       50.70390000      55.87980000      53.83540000
C       49.29160000      44.12010000      53.83440000
C       55.88100000      46.16660000      49.29580000
C       44.12090000      46.16360000      50.70410000
C       55.87820000      53.83640000      50.71120000
C       46.16180000      49.29130000      55.87730000
C       53.83860000      49.29340000      44.12270000
C       46.16840000      50.70680000      44.11810000
C       54.23180000      44.28170000      47.12410000
C       44.27880000      47.12010000      54.22520000
C       47.12390000      54.22800000      44.27900000
C       45.77160000      55.71830000      47.11920000
C       54.22540000      55.72040000      52.88100000
C       45.77110000      44.27950000      52.87580000
C       55.71610000      52.87980000      54.23210000
C       44.28240000      52.87700000      45.76800000
C       55.72260000      47.12310000      45.77470000
C       52.88290000      45.77220000      44.28230000
C       47.11930000      45.77060000      55.71760000
C       52.87390000      54.22930000      55.72110000
C       54.22840000      44.28170000      52.88080000
C       44.28390000      47.12020000      45.76790000
C       47.11710000      54.22780000      55.71770000
C       45.76820000      55.71830000      52.87590000
C       54.22890000      55.72050000      47.12420000
C       45.77460000      44.27960000      47.11900000
C       55.72120000      52.87990000      45.77480000
C       44.27740000      52.87690000      54.22530000
C       55.71760000      47.12300000      54.23200000
C       52.87610000      45.77200000      55.72100000
C       47.12610000      45.77070000      44.27890000
C       52.88070000      54.22940000      44.28240000
C       49.28210000      46.94610000      56.26120000
C       46.94520000      56.26090000      49.28330000
C       56.26370000      49.28670000      46.95010000
C       50.71040000      53.05370000      56.26220000
C       49.28800000      53.05350000      43.73790000
C       50.71940000      46.94670000      43.73870000
C       53.05560000      43.73910000      49.28680000
C       46.94760000      43.73750000      50.71300000
C       53.05160000      56.26250000      50.71680000
C       43.74000000      50.71340000      46.94270000
C       56.25970000      50.71650000      53.05730000
C       43.73670000      49.28340000      53.04980000
C       49.28960000      46.94630000      43.73780000
C       46.94440000      56.26090000      50.71320000
C       56.26000000      49.28660000      53.05730000
C       50.71790000      53.05390000      43.73880000
C       49.28060000      53.05330000      56.26130000
C       50.71200000      46.94650000      56.26210000
C       53.05480000      43.73910000      50.71670000
C       46.94840000      43.73750000      49.28320000
C       53.05240000      56.26250000      49.28700000
C       43.73630000      50.71330000      53.04990000
C       56.26330000      50.71660000      46.95020000
C       43.74030000      49.28350000      46.94270000
C       48.15980000      43.52070000      51.50030000
C       43.52190000      51.49990000      48.15520000
C       51.50580000      48.15960000      43.52210000
C       51.83840000      56.47920000      51.50270000
C       48.15830000      56.47830000      48.49750000
C       51.84350000      43.52170000      48.49950000
C       56.48030000      48.50020000      48.16290000
C       43.52050000      48.49680000      51.83700000
C       56.47730000      51.50310000      51.84480000
C       48.50190000      51.84060000      43.52040000
C       51.49720000      51.84120000      56.47970000
C       48.49510000      48.15860000      56.47790000
C       48.16160000      43.52080000      48.49730000
C       43.51970000      51.49980000      51.83710000
C       51.49810000      48.15940000      56.47960000
C       51.84020000      56.47930000      48.49970000
C       48.15650000      56.47830000      51.50050000
C       51.84170000      43.52170000      51.50250000
C       56.47810000      48.50010000      51.84480000
C       43.52270000      48.49690000      48.15520000
C       56.47950000      51.50320000      48.16300000
C       48.49420000      51.84040000      56.47790000
C       51.50490000      51.84140000      43.52210000
C       48.50280000      48.15880000      43.52030000
C       44.12840000      53.59120000      53.04500000
C       53.59540000      53.04940000      44.13330000
C       53.04780000      44.13190000      53.59450000
C       55.86800000      46.40870000      53.05190000
C       44.13390000      46.40580000      46.94800000
C       55.86980000      53.59430000      46.95510000
C       46.41160000      46.95070000      44.12890000
C       53.59000000      46.95240000      55.87100000
C       46.40300000      53.04740000      55.86680000
C       46.94790000      55.86810000      53.59100000
C       53.04910000      55.86970000      46.40920000
C       46.95520000      44.13040000      46.40540000
C       44.13200000      53.59130000      46.94810000
C       53.58840000      53.04930000      55.87110000
C       53.05210000      44.13190000      46.40900000
C       55.87160000      46.40880000      46.95500000
C       44.13020000      46.40570000      53.04490000
C       55.86610000      53.59420000      53.05200000
C       46.40460000      46.95060000      55.86670000
C       53.59700000      46.95260000      44.13320000
C       46.41000000      53.04760000      44.12900000
C       46.95220000      55.86810000      46.40550000
C       53.04480000      55.86960000      53.59460000
C       46.95090000      44.13030000      53.59080000
C       51.43080000      54.19730000      44.14540000
C       54.19750000      44.14550000      51.43080000
C       44.14160000      51.42680000      54.19340000
C       48.57620000      45.80290000      44.14360000
C       51.42590000      45.80340000      55.85630000
C       48.56710000      54.19640000      55.85470000
C       45.80080000      55.85440000      51.42590000
C       54.19620000      55.85660000      48.57420000
C       45.80550000      44.14340000      48.56910000
C       55.85340000      48.57310000      54.20030000
C       44.14730000      48.57020000      45.79960000
C       55.85770000      51.42990000      45.80670000
C       51.42380000      54.19710000      55.85640000
C       54.19920000      44.14560000      48.57410000
C       44.14660000      51.42690000      45.79970000
C       48.56920000      45.80270000      55.85460000
C       51.43290000      45.80360000      44.14530000
C       48.57410000      54.19660000      44.14370000
C       45.80250000      55.85450000      48.56920000
C       54.19450000      55.85660000      51.43090000
C       45.80380000      44.14340000      51.42580000
C       55.85840000      48.57320000      45.80660000
C       44.14230000      48.57010000      54.19330000
C       55.85270000      51.42980000      54.20040000
