240
Lattice="100.0 0.0 0.0 0.0 100.0 0.0 0.0 0.0 100.0" Properties=species:S:1:pos:R:3 name=C-53965-5632-1379 pressure=-0.042580107961835 energy=-1729.5741063187 spacegroup=C1 times_found=1 pbc="T T T"
C       49.49590000      55.59980000      53.60740000
C       53.45880000      48.99770000      55.91480000
C       55.83490000      53.43130000      49.30580000
C       49.22820000      44.33820000      46.70430000
C       50.60320000      44.33930000      53.19380000
C       50.97750000      55.64420000      46.19770000
C       53.51120000      50.46410000      43.61910000
C       46.06460000      50.57190000      56.14830000
C       46.23310000      49.13710000      44.00840000
C       56.28290000      47.20730000      50.76050000
C       43.86280000      47.10880000      49.36420000
C       44.45750000      53.03840000      50.87940000
C       50.86600000      55.60360000      53.69470000
C       46.27420000      49.14950000      55.98690000
C       44.41930000      53.04760000      49.48650000
C       50.61420000      44.39110000      46.71460000
C       49.19970000      44.31040000      53.17940000
C       49.60750000      55.75190000      46.17500000
C       46.30490000      50.52620000      44.12870000
C       53.44690000      50.38760000      56.02520000
C       53.62940000      49.08000000      43.70800000
C       43.77420000      46.89530000      50.75540000
C       56.36940000      47.17390000      49.39190000
C       55.82670000      53.43430000      50.70510000
C       49.92120000      52.15740000      43.45570000
C       43.66870000      49.24530000      53.77290000
C       54.12590000      44.94400000      49.88590000
C       49.01960000      46.64010000      55.80030000
C       50.65790000      46.62680000      43.95820000
C       50.54660000      52.96580000      55.95350000
C       43.88180000      50.39470000      46.78220000
C       55.46840000      50.86750000      53.55530000
C       55.88780000      50.09760000      45.86940000
C       53.29020000      55.92560000      50.71630000
C       47.16740000      55.29820000      49.15340000
C       45.84750000      44.60110000      49.95860000
C       49.97550000      53.59700000      43.81040000
C       55.71570000      49.52060000      53.56020000
C       47.16730000      44.13600000      49.92900000
C       50.42510000      46.48310000      55.91010000
C       49.22840000      46.70080000      44.03320000
C       49.09740000      53.04820000      55.86350000
C       56.31630000      50.22560000      47.19780000
C       43.61680000      50.62810000      53.80630000
C       43.62080000      49.02970000      46.48740000
C       47.20680000      55.35130000      50.59430000
C       53.28600000      55.92530000      49.28970000
C       52.78020000      44.54810000      49.93320000
C       55.07840000      45.39630000      53.49060000
C       54.45040000      54.77040000      45.21150000
C       44.51680000      53.61490000      55.46430000
C       55.23200000      55.27940000      46.31480000
C       45.34610000      55.00690000      53.73360000
C       45.13020000      44.97540000      46.47940000
C       53.48650000      44.80300000      55.17370000
C       45.90690000      45.02950000      45.13800000
C       45.57410000      54.52440000      55.04760000
C       44.80960000      46.08350000      44.68580000
C       54.59570000      45.63490000      54.80920000
C       54.85840000      53.48710000      44.78850000
C       44.82690000      44.95370000      53.76330000
C       46.62110000      55.06710000      44.61040000
C       55.00100000      54.36000000      54.72530000
C       45.62700000      54.75070000      45.63270000
C       55.36280000      55.29850000      53.67290000
C       54.65120000      45.32750000      45.93390000
C       46.06830000      44.69180000      54.64130000
C       53.64160000      44.79810000      45.03190000
C       53.77740000      54.64290000      55.38800000
C       55.28060000      46.48120000      45.38240000
C       44.49400000      46.07490000      54.77900000
C       44.93710000      53.56230000      45.34340000
C       51.57080000      55.17530000      54.87750000
C       54.66570000      51.27030000      55.86090000
C       55.60640000      54.74360000      51.38470000
C       51.35570000      44.53050000      45.47490000
C       48.38590000      44.55370000      54.39380000
C       48.86710000      55.53320000      44.94090000
C       54.81230000      48.47000000      44.26450000
C       45.32700000      48.14950000      55.51330000
C       45.24840000      51.33030000      44.69290000
C       56.07610000      45.90530000      48.63290000
C       44.11010000      45.61880000      51.39230000
C       44.77030000      54.34120000      48.69320000
C       48.61980000      55.39770000      54.79650000
C       44.81580000      51.32100000      55.97960000
C       44.97740000      54.22680000      51.55790000
C       48.41350000      44.60430000      45.50530000
C       51.30290000      44.47280000      54.44970000
C       51.75450000      55.10200000      45.06430000
C       45.00160000      48.38690000      44.30520000
C       54.64770000      48.22780000      55.41130000
C       54.56700000      51.31070000      44.09460000
C       44.33970000      46.09050000      48.41610000
C       55.82710000      46.00540000      51.41640000
C       55.54660000      54.66250000      48.55380000
C       56.09710000      54.59580000      52.70020000
C       52.92100000      55.58960000      54.76090000
C       54.64640000      52.30480000      56.83730000
C       56.86650000      45.95290000      47.46440000
C       43.80490000      45.58690000      52.74900000
C       43.74910000      54.46020000      47.71890000
C       52.67590000      44.15910000      45.79700000
C       47.12180000      43.98500000      54.10050000
C       47.54320000      55.94230000      45.17800000
C       54.68190000      47.06990000      44.22670000
C       45.57990000      46.72070000      55.48120000
C       45.53210000      52.68020000      44.40080000
C       44.46930000      54.28570000      52.86570000
C       47.60020000      56.39190000      54.65800000
C       45.07000000      52.66890000      56.35900000
C       44.28210000      46.03770000      46.92100000
C       56.10090000      46.06010000      52.77550000
C       55.92520000      54.43320000      47.18970000
C       47.08250000      44.22970000      45.77990000
C       52.67930000      44.18300000      54.21200000
C       53.12950000      55.39810000      45.32290000
C       45.21650000      47.06420000      43.79240000
C       54.42310000      46.84990000      55.62080000
C       54.25710000      52.65290000      43.83000000
C       47.39720000      54.07180000      43.89680000
C       43.60300000      47.05880000      54.33650000
C       54.23490000      44.87710000      47.35310000
C       46.62990000      45.77930000      55.39000000
C       52.87740000      45.55980000      44.08210000
C       52.87660000      53.78480000      56.13970000
C       44.08620000      52.71670000      46.12860000
C       55.57890000      53.05770000      54.30380000
C       56.07500000      47.56850000      45.97020000
C       54.39050000      56.02770000      52.91750000
C       46.12290000      55.38130000      46.92520000
C       45.67930000      44.28830000      52.42740000
C       52.30240000      53.85770000      43.16000000
C       56.79650000      47.62730000      54.32330000
C       45.74330000      44.37760000      47.57520000
C       52.60670000      45.49220000      56.05180000
C       46.99310000      45.72710000      44.13170000
C       46.84470000      54.04430000      55.76640000
C       55.64420000      52.60680000      45.68090000
C       43.74390000      52.84190000      54.52050000
C       44.10190000      46.77920000      45.73240000
C       46.21840000      55.69180000      52.82480000
C       54.41210000      56.08860000      47.14300000
C       54.20820000      44.76160000      52.46540000
C       56.17100000      52.41300000      48.29410000
C       48.59570000      55.97340000      52.54370000
C       52.45830000      47.97110000      56.33070000
C       56.60220000      48.18270000      51.81940000
C       43.45230000      48.39570000      48.78200000
C       43.82920000      52.17750000      51.98760000
C       48.31140000      43.96620000      47.77770000
C       51.63600000      44.21080000      52.13650000
C       51.93260000      56.10310000      47.22450000
C       52.40750000      51.36660000      43.22100000
C       47.12170000      51.60870000      56.38610000
C       47.25260000      48.13000000      43.59640000
C       43.84290000      52.19510000      48.47970000
C       51.90690000      56.07600000      52.74330000
C       47.50460000      48.61770000      56.28520000
C       43.36610000      47.79200000      51.89280000
C       56.71710000      48.14140000      48.40960000
C       56.12080000      52.41580000      51.81240000
C       51.61260000      44.24740000      47.81180000
C       48.27630000      43.93800000      52.10140000
C       48.57160000      55.98230000      47.22840000
C       47.37820000      51.49190000      43.68420000
C       52.43450000      51.38850000      56.40580000
C       52.68140000      47.97300000      43.46850000
C       54.81750000      45.19870000      48.62480000
C       48.84140000      54.37190000      44.06680000
C       44.08910000      48.32920000      54.73280000
C       54.49810000      55.71690000      51.49790000
C       45.98970000      55.00940000      48.31200000
C       45.21200000      44.75820000      51.19710000
C       48.10380000      45.69970000      55.29550000
C       51.45030000      45.46740000      44.35180000
C       51.51910000      54.02690000      55.74900000
C       44.33370000      51.34470000      45.82410000
C       55.24910000      51.72860000      54.62260000
C       55.69070000      48.79820000      45.33940000
C       45.24420000      44.99870000      48.75450000
C       51.29500000      54.24600000      44.00060000
C       55.73410000      48.55860000      54.56400000
C       46.09240000      55.13750000      51.50850000
C       54.51800000      55.70960000      48.51920000
C       54.72020000      45.15080000      51.15890000
C       51.24980000      45.37860000      55.59270000
C       48.35310000      45.60460000      44.46510000
C       48.24750000      54.20820000      55.50710000
C       55.47120000      51.25920000      45.19830000
C       43.85340000      51.46270000      54.86870000
C       44.12480000      48.20790000      45.45390000
C       51.10370000      51.69080000      56.22800000
C       56.00890000      51.05840000      52.15760000
C       52.06180000      56.09600000      51.38450000
C       51.32440000      47.79950000      43.53310000
C       49.94380000      48.67250000      56.46820000
C       48.70350000      51.45660000      43.46300000
C       56.56750000      49.52310000      48.35590000
C       43.48770000      49.14890000      52.31510000
C       43.75660000      50.78670000      48.22740000
C       51.61790000      44.31590000      49.20640000
C       48.29370000      43.97160000      50.69980000
C       48.37580000      55.66890000      48.54180000
C       48.46010000      51.84420000      56.17580000
C       43.56540000      50.82970000      52.35670000
C       48.43380000      55.69170000      51.20880000
C       48.60650000      47.91960000      43.72090000
C       51.02950000      47.81710000      56.32520000
C       51.06230000      51.36350000      43.27940000
C       43.68030000      49.72260000      49.12580000
C       56.26170000      49.50110000      52.16810000
C       56.37600000      51.04010000      48.32030000
C       48.32120000      43.98010000      49.17930000
C       51.68050000      44.30200000      50.73630000
C       52.06770000      56.09890000      48.59760000
C       43.59790000      53.08930000      47.36840000
C       46.95310000      43.77560000      52.72610000
C       53.43890000      46.74720000      43.67530000
C       43.21400000      46.82810000      53.02160000
C       56.78820000      47.35120000      47.14800000
C       56.19840000      53.24500000      53.02750000
C       47.30660000      56.07540000      46.54770000
C       53.14090000      56.16900000      53.49790000
C       52.93250000      44.23970000      47.16930000
C       53.25960000      52.58160000      56.70950000
C       46.78480000      52.83080000      43.79170000
C       48.68970000      48.03200000      56.25420000
C       56.09490000      53.05380000      46.95310000
C       52.95190000      44.22180000      52.82120000
C       46.55790000      46.86920000      43.46160000
C       56.77960000      47.26200000      53.02980000
C       42.94590000      48.33090000      47.49460000
C       43.76000000      53.12750000      53.15440000
C       53.16800000      56.16320000      46.52170000
C       47.36880000      56.32450000      53.25740000
C       46.99490000      43.89520000      47.15380000
C       46.44800000      52.88300000      56.48120000
C       53.01390000      52.73350000      43.18110000
C       53.17140000      46.73880000      56.31590000
