240
Lattice="100.0 0.0 0.0 0.0 100.0 0.0 0.0 0.0 100.0" Properties=species:S:1:pos:R:3 name=C-53965-5632-741 pressure=0.0219178693751837 spacegroup=C1 times_found=1 energy=-1712.68378003474 pbc="T T T"
C       53.41460000      53.72020000      44.99200000
C       45.02430000      53.41750000      53.21390000
C       53.73370000      44.41770000      53.33130000
C       46.94940000      46.03290000      45.71630000
C       46.84050000      54.02290000      55.33670000
C       53.32150000      46.23930000      55.00030000
C       54.06620000      45.58830000      54.00760000
C       54.07630000      54.34030000      46.06350000
C       44.80180000      47.27860000      46.16810000
C       46.08340000      54.34520000      52.97740000
C       46.67590000      44.96850000      46.64860000
C       53.66530000      55.47250000      46.76040000
C       54.50760000      53.98280000      53.85700000
C       44.23920000      53.52220000      46.26030000
C       54.01930000      45.49170000      47.15490000
C       46.70350000      46.21960000      54.81020000
C       45.40010000      54.20500000      45.91730000
C       53.03000000      45.86520000      44.85020000
C       55.07550000      46.42620000      46.90170000
C       55.68010000      53.35660000      53.45760000
C       46.04660000      45.64650000      53.70960000
C       46.01600000      55.22640000      46.65110000
C       46.41170000      44.50320000      53.01090000
C       53.84860000      55.01480000      53.17790000
C       56.10670000      45.80200000      47.64500000
C       47.08390000      55.86280000      45.94750000
C       45.93330000      47.23530000      55.45900000
C       43.50100000      54.29070000      47.13750000
C       45.16280000      46.23850000      52.81430000
C       56.33600000      54.11740000      52.49210000
C       53.11700000      45.04290000      46.09490000
C       52.81140000      55.62900000      53.96780000
C       47.26310000      43.74060000      53.78700000
C       53.97800000      53.07250000      54.78030000
C       53.92670000      46.83510000      44.36840000
C       45.97220000      53.35470000      44.97250000
C       55.08200000      46.09330000      53.19790000
C       46.90030000      54.84010000      54.07210000
C       45.95400000      46.94760000      45.43460000
C       43.95000000      54.16860000      52.70960000
C       44.29290000      46.35580000      47.09670000
C       54.99700000      53.77020000      46.93310000
C       52.79870000      43.69960000      54.04670000
C       52.71830000      56.18620000      46.04940000
C       47.45550000      43.96790000      46.00700000
C       54.15530000      52.63490000      44.39580000
C       54.06520000      47.29910000      55.63230000
C       45.93500000      53.04260000      55.79210000
C       51.25650000      51.65980000      56.28700000
C       56.94020000      51.52350000      51.62370000
C       51.78480000      56.11880000      51.43260000
C       48.50750000      48.06300000      56.08420000
C       48.79890000      51.90690000      43.74500000
C       51.37200000      48.10660000      43.74900000
C       43.58720000      48.99120000      51.61920000
C       43.07430000      51.74610000      48.10060000
C       56.77600000      48.27730000      48.38240000
C       48.30760000      43.43620000      51.25950000
C       47.99500000      56.19420000      48.56940000
C       52.14010000      43.49610000      48.55830000
C       51.58730000      51.73410000      43.72660000
C       56.60210000      51.06280000      48.23850000
C       51.72880000      56.30740000      48.61580000
C       48.47100000      48.24560000      43.95120000
C       48.42640000      51.68810000      56.58990000
C       51.39420000      48.13650000      56.04030000
C       43.44190000      48.87410000      48.16420000
C       43.19070000      51.75860000      51.76130000
C       56.78460000      48.71980000      51.85580000
C       48.31440000      43.48880000      48.44970000
C       47.97430000      56.06570000      51.42890000
C       51.96500000      43.34470000      51.42010000
C       42.89150000      49.60420000      50.62890000
C       50.94150000      43.23730000      49.17980000
C       49.35730000      50.71380000      43.39500000
C       57.42940000      50.67640000      50.67840000
C       57.34620000      49.09190000      49.31440000
C       42.80670000      51.02260000      49.21350000
C       49.12430000      56.19000000      49.32010000
C       49.44670000      43.23180000      50.56560000
C       50.60720000      56.13240000      50.74730000
C       50.69340000      49.23310000      43.43870000
C       50.60160000      50.56330000      56.78170000
C       49.19880000      49.13140000      56.54500000
C       42.93870000      49.59670000      49.19340000
C       50.89470000      43.17560000      50.61240000
C       49.16030000      50.55920000      56.81250000
C       57.35680000      50.52050000      49.23770000
C       57.43240000      49.24620000      50.76420000
C       42.78370000      51.03740000      50.67680000
C       49.15100000      56.11940000      50.74990000
C       49.47790000      43.28410000      49.12890000
C       50.57950000      56.21780000      49.31190000
C       50.62600000      49.14300000      56.52190000
C       50.79010000      50.67790000      43.39860000
C       49.26910000      49.27200000      43.49160000
C       55.75840000      53.51660000      49.06570000
C       49.24820000      55.52330000      53.59140000
C       53.69160000      49.46680000      55.50730000
C       44.43730000      46.60980000      49.25970000
C       43.60100000      54.03620000      50.59290000
C       55.98370000      46.27620000      51.11110000
C       50.71500000      43.96610000      53.65190000
C       50.60710000      55.82460000      46.31220000
C       49.58320000      43.86860000      46.28190000
C       46.17130000      50.78340000      55.66710000
C       46.23830000      49.83730000      44.19700000
C       53.76650000      50.42120000      44.44580000
C       56.02870000      53.72080000      50.40300000
C       49.26420000      55.82650000      46.32320000
C       53.72370000      49.06050000      44.49390000
C       44.56480000      46.64020000      50.64140000
C       43.62120000      54.01770000      49.25180000
C       56.24320000      46.09370000      49.76600000
C       50.91570000      44.06570000      46.43170000
C       50.60960000      55.63980000      53.65390000
C       49.38190000      43.97430000      53.59400000
C       46.31240000      51.21050000      44.30150000
C       46.26490000      49.42600000      55.55400000
C       53.66950000      50.85840000      55.37340000
C       53.21990000      44.11270000      49.33800000
C       49.56210000      53.09190000      44.20410000
C       44.06800000      49.70930000      52.82910000
C       46.73060000      55.73070000      49.14440000
C       47.14120000      44.06910000      50.58310000
C       53.03670000      55.70930000      50.76820000
C       50.63440000      46.99220000      44.31290000
C       50.52530000      52.86480000      55.90230000
C       49.17860000      46.87090000      55.54710000
C       56.30810000      50.97500000      52.85270000
C       55.99270000      48.80540000      47.22190000
C       43.73270000      51.09850000      46.94070000
C       53.18660000      43.93880000      50.86030000
C       49.10960000      52.86490000      56.06060000
C       43.86540000      49.57920000      46.95950000
C       46.76800000      55.60230000      50.70210000
C       47.16890000      44.18410000      49.07070000
C       52.99510000      55.82730000      49.24070000
C       50.78740000      46.89090000      55.55760000
C       51.02050000      53.02430000      44.23710000
C       49.13300000      47.01220000      44.46710000
C       56.00580000      50.25450000      47.13250000
C       56.22440000      49.53910000      52.94860000
C       44.00630000      51.14430000      52.86100000
C       45.45670000      48.51060000      54.81370000
C       55.48670000      45.28020000      48.87910000
C       48.34220000      55.18150000      45.45590000
C       54.58970000      51.77130000      54.70030000
C       54.44530000      48.00800000      45.18540000
C       45.38530000      52.03790000      45.01200000
C       44.36470000      54.77800000      48.28690000
C       45.25930000      45.70710000      51.48730000
C       55.39530000      54.55860000      51.39760000
C       51.47820000      45.22600000      46.00810000
C       51.55400000      54.94490000      54.48340000
C       48.36580000      44.61560000      54.36660000
C       45.21200000      49.02730000      44.79480000
C       55.11730000      45.46600000      51.90740000
C       48.51990000      54.62950000      54.30500000
C       54.59730000      51.37040000      45.10930000
C       54.60620000      48.53530000      54.92830000
C       45.47210000      51.84760000      54.96690000
C       44.46520000      54.74450000      51.45180000
C       45.12020000      45.82580000      48.26280000
C       54.95770000      54.36000000      48.23620000
C       51.67330000      44.60870000      54.50040000
C       51.65390000      55.27610000      45.47520000
C       48.68440000      44.62760000      45.47290000
C       47.09390000      56.33520000      53.77020000
C       53.58240000      47.56160000      56.94350000
C       55.59230000      52.52870000      46.95610000
C       52.51050000      42.38310000      53.61710000
C       52.34940000      57.46180000      46.53860000
C       47.52690000      42.63190000      46.25920000
C       46.27530000      52.66030000      57.11230000
C       46.02770000      47.89490000      44.43960000
C       53.80080000      52.37870000      43.04760000
C       42.92250000      46.63600000      47.42380000
C       42.62680000      53.86170000      52.78290000
C       55.73030000      47.30640000      53.19140000
C       47.29460000      57.17560000      46.45850000
C       53.52580000      47.18060000      43.04710000
C       57.65370000      53.78370000      52.12740000
C       53.10870000      43.51180000      46.25060000
C       52.58300000      56.97130000      53.57180000
C       47.55690000      42.42560000      53.37240000
C       47.24160000      53.34040000      44.41680000
C       46.29690000      47.37880000      56.82620000
C       52.74310000      53.02290000      55.37720000
C       44.56190000      47.46680000      52.83800000
C       42.16290000      53.91550000      47.39110000
C       57.44350000      46.04060000      47.69330000
C       51.55450000      46.04530000      44.90210000
C       44.31980000      52.05440000      46.00260000
C       46.21490000      44.63210000      51.53540000
C       48.47650000      54.03040000      44.67230000
C       48.17290000      45.89610000      54.98410000
C       51.51380000      53.76920000      55.25910000
C       55.18120000      47.82440000      46.39200000
C       55.65700000      51.91060000      53.73500000
C       44.69130000      48.64150000      53.65000000
C       54.09800000      55.15520000      51.68090000
C       54.18750000      44.87130000      48.54930000
C       45.69730000      55.31680000      48.13680000
C       51.83740000      45.91560000      55.08160000
C       44.82380000      52.05470000      53.73060000
C       46.28080000      44.98640000      48.11390000
C       48.29680000      53.85490000      55.41980000
C       48.34680000      45.96100000      45.12340000
C       51.96660000      54.01610000      44.82610000
C       55.51200000      48.57080000      53.84330000
C       55.39030000      51.29090000      46.25570000
C       44.49300000      48.71930000      45.98370000
C       53.93470000      55.37000000      48.23520000
C       54.08350000      44.46420000      51.87560000
C       45.82200000      54.99840000      51.60510000
C       51.44350000      56.70930000      47.25160000
C       46.99670000      51.57960000      56.65440000
C       56.36830000      47.38990000      51.94850000
C       48.56730000      43.09620000      47.08210000
C       48.11880000      56.23420000      52.83660000
C       51.60720000      43.04230000      52.80700000
C       52.78720000      48.52840000      56.29910000
C       52.97310000      51.36410000      43.54420000
C       47.10020000      48.63890000      43.94780000
C       42.87380000      53.14880000      51.58810000
C       43.45360000      47.43680000      48.43680000
C       56.17450000      52.39700000      48.21480000
C       51.54790000      56.45090000      52.81240000
C       47.42730000      52.04210000      43.95580000
C       57.04870000      46.90170000      48.76680000
C       48.53890000      43.09210000      52.65860000
C       48.30480000      56.60190000      47.21390000
C       52.06520000      43.39560000      47.13480000
C       52.81020000      48.22830000      43.59040000
C       52.59010000      51.71500000      55.84880000
C       47.11710000      48.40700000      56.34840000
C       42.75000000      53.14310000      48.37330000
C       44.06460000      47.67700000      51.55500000
C       57.04880000      52.92650000      51.21330000
