240
Lattice="100.0 0.0 0.0 0.0 100.0 0.0 0.0 0.0 100.0" Properties=species:S:1:pos:R:3 name=C-53965-5632-255 pressure=-0.0173558887029655 spacegroup=C1 times_found=1 energy=-1720.31068377541 pbc="T T T"
C       53.19990000      43.81240000      48.42840000
C       43.90980000      48.67430000      53.20620000
C       48.47120000      53.02650000      43.91950000
C       46.96270000      56.01770000      48.58530000
C       53.27730000      56.17980000      51.47460000
C       46.70540000      44.07750000      51.25890000
C       56.10720000      51.55070000      53.47330000
C       43.75160000      51.32570000      46.68070000
C       55.89490000      48.73360000      47.05710000
C       51.26230000      46.63250000      43.85380000
C       48.99100000      46.82770000      55.89890000
C       51.64110000      53.33330000      56.22170000
C       53.10690000      43.96410000      51.18910000
C       43.83760000      48.48390000      46.84530000
C       48.81020000      53.41240000      56.09690000
C       46.76410000      56.04750000      51.50320000
C       53.40120000      56.29910000      48.73980000
C       46.71760000      43.80090000      48.33100000
C       56.05210000      51.55430000      47.02850000
C       43.89680000      51.44040000      53.20340000
C       56.07370000      48.75270000      53.42670000
C       51.59930000      46.91540000      56.18570000
C       48.47060000      46.54700000      43.61750000
C       51.29890000      53.00650000      44.13290000
C       55.25640000      54.92770000      47.67720000
C       54.63090000      47.71230000      55.19690000
C       47.73690000      55.25380000      54.70630000
C       45.17450000      44.88620000      46.65000000
C       54.41340000      45.64770000      52.53330000
C       44.85980000      54.71450000      52.49370000
C       45.64050000      52.62650000      54.63340000
C       54.93810000      53.22360000      45.42190000
C       45.43590000      47.29820000      45.33750000
C       52.40340000      44.89780000      54.90410000
C       47.31400000      44.57240000      44.80390000
C       52.53650000      54.54470000      45.69660000
C       55.02960000      54.78640000      52.77410000
C       54.32510000      47.48190000      45.56430000
C       46.77850000      54.63080000      44.99150000
C       44.95650000      45.42030000      52.42260000
C       54.74900000      45.05970000      46.77760000
C       45.43420000      54.41620000      47.39420000
C       45.08510000      52.36300000      44.75440000
C       54.89890000      52.64570000      55.42150000
C       45.77540000      47.55010000      54.51860000
C       52.28560000      44.78660000      45.28590000
C       47.92590000      44.99340000      54.53640000
C       52.27910000      54.42900000      54.14140000
C       55.74490000      55.80670000      50.94580000
C       55.80890000      50.81230000      55.91600000
C       50.96520000      55.70830000      55.57450000
C       44.30820000      44.56500000      50.49560000
C       55.57560000      44.77160000      49.24060000
C       44.57130000      55.53270000      49.17780000
C       44.70850000      49.34260000      55.49880000
C       55.25300000      49.39190000      44.70960000
C       44.22230000      50.46230000      44.31040000
C       49.99580000      44.52890000      55.44120000
C       50.62440000      44.19820000      44.17730000
C       49.21680000      55.46600000      44.71500000
C       55.79730000      55.84470000      49.54360000
C       55.23470000      50.79780000      44.59810000
C       50.62460000      55.36140000      44.71620000
C       44.28440000      44.59390000      49.07840000
C       55.42300000      44.75210000      50.64580000
C       44.42990000      55.59600000      50.58170000
C       44.30360000      49.06570000      44.45040000
C       55.79150000      49.40630000      55.88330000
C       44.68030000      50.74830000      55.50860000
C       49.23970000      44.11450000      43.94730000
C       51.23200000      44.07810000      55.01970000
C       49.56660000      55.84130000      55.68290000
C       49.24180000      45.41840000      43.25070000
C       45.51370000      43.76250000      49.09020000
C       43.49780000      49.12040000      45.66600000
C       50.60260000      54.17860000      43.88930000
C       49.53710000      54.57820000      56.48150000
C       50.99340000      46.01710000      57.04950000
C       54.54580000      56.64290000      49.48280000
C       45.69700000      56.35250000      50.67230000
C       54.31890000      43.82040000      50.55660000
C       56.11520000      50.84240000      45.81280000
C       43.72190000      50.75860000      54.39350000
C       56.50380000      49.41190000      54.59130000
C       49.92880000      45.74070000      56.22390000
C       45.54540000      43.79420000      50.51150000
C       43.73780000      49.33410000      54.39930000
C       50.95310000      54.51050000      56.43180000
C       49.18570000      54.23900000      43.85600000
C       50.65050000      45.46370000      43.40960000
C       54.49310000      56.59550000      50.90430000
C       45.79370000      56.32310000      49.25160000
C       54.42070000      43.80710000      49.15130000
C       56.51900000      50.82890000      54.61270000
C       43.43260000      50.53300000      45.56480000
C       56.10410000      49.42690000      45.87620000
C       48.96940000      44.13310000      54.50480000
C       44.54520000      54.31030000      48.51270000
C       54.12440000      48.59440000      44.69100000
C       51.47240000      55.56010000      54.25000000
C       48.59200000      55.79060000      45.94610000
C       51.14660000      44.02450000      45.48160000
C       55.83160000      46.02930000      48.63850000
C       44.10110000      45.66310000      51.29620000
C       55.89660000      54.60730000      51.66940000
C       45.39600000      51.19070000      44.06400000
C       54.64560000      51.53390000      56.21700000
C       45.93390000      48.66360000      55.39990000
C       48.44520000      43.80490000      45.05110000
C       44.14700000      54.44760000      51.28570000
C       54.55990000      48.75070000      56.08770000
C       51.41160000      55.41860000      45.84860000
C       48.79480000      56.10090000      54.53050000
C       51.45100000      43.53440000      53.67980000
C       55.34720000      45.87520000      51.45630000
C       43.98340000      45.83910000      48.45830000
C       55.97610000      54.63940000      48.83880000
C       45.86820000      51.48110000      55.45430000
C       53.98650000      51.40020000      44.28970000
C       45.53620000      48.42360000      44.45860000
C       51.88400000      49.41660000      56.28960000
C       49.28990000      56.31100000      51.75760000
C       56.18280000      51.90370000      49.46670000
C       48.54900000      50.88780000      56.02390000
C       51.45170000      50.57890000      43.90600000
C       48.16420000      49.05440000      43.81640000
C       50.59260000      43.57900000      51.21260000
C       49.41280000      43.66480000      49.01600000
C       50.90430000      56.18780000      48.47090000
C       43.68570000      48.39380000      49.26380000
C       56.03030000      48.55970000      50.98960000
C       43.79440000      51.73770000      50.71000000
C       51.46240000      49.06280000      43.94520000
C       49.37980000      56.20350000      48.49810000
C       56.15790000      51.89050000      50.99570000
C       48.14270000      50.58900000      43.79510000
C       51.87610000      50.92110000      56.33420000
C       48.57650000      49.34840000      55.98540000
C       50.57860000      43.65370000      48.21090000
C       49.42340000      43.68770000      50.47550000
C       50.81960000      56.22640000      51.68620000
C       43.72020000      48.37410000      50.78210000
C       56.10370000      48.57500000      49.47810000
C       43.83750000      51.68910000      49.17210000
C       53.78810000      52.71250000      44.74520000
C       52.66290000      44.31260000      53.58290000
C       44.22240000      53.86820000      53.27690000
C       46.28090000      46.26230000      45.09790000
C       53.76340000      46.66810000      54.82100000
C       46.51110000      53.67340000      54.65670000
C       46.64800000      54.90320000      53.87340000
C       53.59050000      54.79120000      46.53380000
C       46.27280000      44.91770000      45.74650000
C       54.50620000      46.50810000      53.58980000
C       44.47700000      46.02510000      47.15570000
C       54.91140000      54.10240000      46.53620000
C       54.06000000      53.73140000      55.19390000
C       53.52100000      45.09310000      46.01280000
C       45.21600000      53.54180000      46.37200000
C       46.71190000      46.56560000      54.42870000
C       53.47320000      46.43270000      45.36490000
C       45.89810000      53.52250000      45.05250000
C       47.27780000      55.33490000      46.13140000
C       53.17670000      54.18190000      53.12410000
C       46.87150000      45.31320000      53.64340000
C       55.37670000      46.22140000      47.32410000
C       44.34810000      46.25230000      53.24790000
C       54.57620000      53.77870000      53.70650000
C       50.82380000      56.20500000      53.16880000
C       56.22040000      53.38220000      50.96370000
C       53.37440000      50.87660000      56.52340000
C       49.22460000      43.48790000      53.28880000
C       50.29470000      43.63600000      46.71410000
C       49.41690000      56.14570000      47.02370000
C       43.67140000      46.88030000      50.70570000
C       56.09330000      47.10810000      49.50020000
C       43.95930000      53.17530000      49.17090000
C       47.09410000      49.36970000      55.85540000
C       52.95870000      49.13340000      44.07730000
C       46.65530000      50.51850000      43.77300000
C       50.84170000      56.04950000      46.99050000
C       56.27090000      53.38840000      49.52700000
C       52.91820000      50.55430000      43.95600000
C       49.01210000      43.43530000      46.31090000
C       50.44680000      43.43720000      52.67740000
C       49.41660000      56.40800000      53.24270000
C       43.63410000      46.92510000      49.27810000
C       55.92840000      47.05940000      50.91800000
C       43.82720000      53.22260000      50.61080000
C       46.67370000      49.08520000      43.89410000
C       53.36080000      49.45470000      56.47790000
C       47.06290000      50.81590000      55.88900000
C       48.14630000      56.20360000      50.89840000
C       56.13680000      50.97100000      48.36940000
C       51.00100000      48.29310000      56.14160000
C       51.84300000      43.69110000      50.47410000
C       47.93000000      43.70210000      49.05060000
C       52.01720000      56.28360000      49.34190000
C       43.72100000      49.25090000      48.13400000
C       56.10350000      49.45060000      52.08650000
C       43.78580000      50.83790000      51.85030000
C       49.43950000      52.02110000      56.13650000
C       50.57910000      51.69610000      43.91920000
C       49.07510000      47.93600000      43.73700000
C       48.23360000      56.18050000      49.35650000
C       56.14340000      50.95680000      52.09660000
C       50.57420000      47.96210000      43.82120000
C       51.85120000      43.69170000      48.99120000
C       47.92880000      43.79790000      50.51780000
C       51.94720000      56.25870000      50.80930000
C       43.77380000      49.29670000      51.87020000
C       56.08540000      49.45620000      48.36590000
C       43.75110000      50.76150000      48.07560000
C       49.06760000      51.69070000      43.84070000
C       50.94910000      52.00640000      56.26400000
C       49.50180000      48.24210000      56.04800000
C       52.55350000      53.39180000      44.79450000
C       53.38830000      44.63390000      52.46560000
C       44.51690000      52.64950000      53.70490000
C       47.36220000      45.92520000      44.23730000
C       52.59640000      46.19650000      55.37610000
C       47.70770000      53.97120000      55.42830000
C       46.16040000      55.32440000      52.63880000
C       53.95900000      55.60330000      47.65030000
C       46.26440000      44.22520000      47.08050000
C       55.35790000      47.65580000      53.92630000
C       44.52310000      47.24990000      46.47660000
C       55.64010000      52.75670000      46.47690000
C       52.67810000      53.74760000      55.33430000
C       53.74890000      44.29290000      47.24680000
C       44.42190000      52.40410000      46.05800000
C       47.91680000      46.28650000      55.20290000
C       52.32020000      46.09540000      44.61110000
C       47.25930000      53.57040000      44.31130000
C       46.58300000      55.32020000      47.35150000
C       53.70140000      55.30380000      52.44520000
C       46.27600000      44.84820000      52.46960000
C       55.26480000      47.46590000      46.67540000
C       44.59700000      47.48410000      53.66040000
C       55.39080000      52.60540000      54.04920000
