240
Lattice="100.0 0.0 0.0 0.0 100.0 0.0 0.0 0.0 100.0" Properties=species:S:1:pos:R:3 name=C-53965-5632-845 pressure=2.25613814267817 energy=-1771.37625207444 spacegroup=Td times_found=1 pbc="T T T"
C       49.35830000      54.21800000      43.86420000
C       43.86470000      49.35850000      54.21870000
C       54.21900000      43.86480000      49.35910000
C       50.64040000      54.21820000      56.13580000
C       49.36080000      45.78180000      56.13590000
C       50.64060000      45.78200000      43.86410000
C       56.13560000      49.36050000      45.78130000
C       43.86370000      50.63950000      45.78250000
C       56.13610000      50.64140000      54.21750000
C       45.78290000      43.86350000      50.64080000
C       54.21720000      56.13650000      50.64010000
C       45.78090000      56.13520000      49.35990000
C       43.86340000      54.21710000      49.36010000
C       54.21760000      49.36020000      43.86380000
C       49.36090000      43.86400000      54.21810000
C       56.13520000      54.21910000      50.63990000
C       56.13650000      45.78290000      49.35890000
C       43.86490000      45.78090000      50.64100000
C       45.78260000      49.35880000      56.13620000
C       45.78120000      50.63980000      43.86460000
C       54.21860000      50.64110000      56.13550000
C       50.64110000      43.86430000      45.78180000
C       50.63990000      56.13590000      54.21810000
C       49.35820000      56.13580000      45.78200000
C       53.93770000      52.92060000      45.04960000
C       45.04960000      53.93780000      52.92050000
C       52.92110000      45.05040000      53.93840000
C       46.06130000      52.91930000      54.95040000
C       53.93960000      47.08060000      54.94970000
C       46.06140000      47.07940000      45.05030000
C       54.94920000      53.93950000      47.07960000
C       45.05030000      46.06060000      47.08050000
C       54.95090000      46.06210000      52.91950000
C       47.08050000      45.04950000      46.06160000
C       52.91880000      54.95050000      46.06110000
C       47.07960000      54.94960000      53.93900000
C       45.04980000      52.91920000      53.93910000
C       52.91890000      53.93920000      45.04970000
C       53.93970000      45.05060000      52.91960000
C       54.94920000      52.92080000      46.06090000
C       54.95090000      47.08080000      53.93820000
C       45.05010000      47.07930000      46.06180000
C       47.07980000      53.93820000      54.95030000
C       47.08020000      46.06090000      45.05020000
C       52.92110000      46.06180000      54.94980000
C       46.06190000      45.04930000      47.08040000
C       46.06080000      54.94940000      52.92040000
C       53.93760000      54.95070000      47.07970000
C       56.99460000      51.76110000      50.75940000
C       50.75910000      56.99490000      51.75990000
C       51.76050000      50.76030000      56.99460000
C       43.00490000      51.75890000      49.24060000
C       56.99500000      48.24120000      49.23930000
C       43.00560000      48.23890000      50.76070000
C       49.23870000      56.99470000      48.24010000
C       50.76100000      43.00540000      48.23990000
C       49.24130000      43.00510000      51.76000000
C       48.23930000      50.75980000      43.00540000
C       51.75940000      49.24030000      43.00510000
C       48.24080000      49.23970000      56.99490000
C       50.76040000      51.76000000      56.99470000
C       51.75890000      56.99510000      50.75990000
C       56.99480000      50.76110000      51.75930000
C       49.23910000      51.75990000      43.00530000
C       49.24090000      48.23990000      56.99480000
C       50.75970000      48.24020000      43.00510000
C       48.23880000      56.99450000      49.24020000
C       48.24120000      43.00490000      50.76010000
C       51.76100000      43.00550000      49.23980000
C       43.00490000      50.75890000      48.24070000
C       43.00550000      49.23890000      51.76060000
C       56.99470000      49.24110000      48.23940000
C       49.36190000      51.68150000      57.03640000
C       57.03660000      49.36270000      51.68100000
C       51.68050000      57.03660000      49.36140000
C       50.63750000      51.68180000      42.96360000
C       49.36120000      48.31820000      42.96370000
C       50.63940000      48.31840000      57.03630000
C       42.96360000      49.36040000      48.31890000
C       57.03610000      50.63960000      48.31770000
C       42.96370000      50.63730000      51.68230000
C       48.31720000      57.03610000      50.63860000
C       51.68290000      42.96390000      50.63830000
C       48.31940000      42.96340000      49.36170000
C       57.03600000      51.68280000      49.36090000
C       51.68240000      49.36180000      57.03620000
C       49.36060000      57.03620000      51.68180000
C       42.96340000      51.68060000      50.63910000
C       42.96390000      48.31720000      49.36220000
C       57.03670000      48.31940000      50.63780000
C       48.31780000      49.36130000      42.96380000
C       48.31890000      50.63810000      57.03650000
C       51.68090000      50.63880000      42.96350000
C       50.63720000      57.03650000      48.31830000
C       50.63970000      42.96370000      51.68160000
C       49.36250000      42.96360000      48.31830000
C       44.39170000      45.36010000      49.38130000
C       49.38130000      44.39090000      45.36100000
C       45.36060000      49.38010000      44.39140000
C       55.60980000      45.36190000      50.61860000
C       44.39030000      54.63810000      50.61970000
C       55.60820000      54.63990000      49.38040000
C       50.62050000      44.39110000      54.63890000
C       49.38040000      55.60890000      54.63910000
C       50.61780000      55.60910000      45.36100000
C       54.63960000      49.38160000      55.60860000
C       45.36140000      50.61840000      55.60940000
C       54.63840000      50.61990000      44.39060000
C       49.38110000      45.36090000      44.39100000
C       45.36180000      44.39030000      49.38130000
C       44.39070000      49.38000000      45.36150000
C       50.62040000      45.36110000      55.60890000
C       50.61790000      54.63910000      44.39100000
C       49.38060000      54.63890000      55.60910000
C       54.63990000      44.39170000      50.61870000
C       54.63800000      55.60970000      49.38050000
C       45.36020000      55.60830000      50.61960000
C       55.60950000      49.38170000      54.63850000
C       55.60850000      50.62010000      45.36050000
C       44.39130000      50.61820000      54.63950000
C       53.08040000      48.81340000      43.36970000
C       43.36940000      53.07970000      48.81350000
C       48.81420000      43.36980000      53.08080000
C       46.92000000      48.81240000      56.63020000
C       53.08120000      51.18760000      56.62970000
C       46.91840000      51.18670000      43.37030000
C       56.62960000      53.08180000      51.18650000
C       43.37060000      46.91820000      51.18770000
C       56.63030000      46.92030000      48.81230000
C       51.18790000      43.37020000      46.91910000
C       48.81150000      56.62980000      46.91940000
C       51.18630000      56.63010000      53.08070000
C       43.37050000      48.81180000      53.08140000
C       48.81180000      53.08060000      43.37020000
C       53.08170000      43.37050000      48.81260000
C       56.62990000      48.81400000      46.91860000
C       56.63010000      51.18820000      53.08020000
C       43.36960000      51.18610000      46.91980000
C       51.18720000      53.08090000      56.62990000
C       51.18700000      46.91950000      43.36990000
C       48.81400000      46.91900000      56.63010000
C       46.92040000      43.36950000      51.18740000
C       46.91810000      56.62950000      48.81320000
C       53.07980000      56.63040000      51.18690000
C       55.80040000      51.75570000      46.19500000
C       46.19470000      55.80040000      51.75520000
C       51.75590000      46.19570000      55.80090000
C       44.19900000      51.75380000      53.80510000
C       55.80170000      48.24610000      53.80400000
C       44.19890000      48.24430000      46.19600000
C       53.80340000      55.80170000      48.24490000
C       46.19630000      44.19840000      48.24550000
C       53.80560000      44.19960000      51.75440000
C       48.24530000      46.19520000      44.19910000
C       51.75370000      53.80480000      44.19880000
C       48.24510000      53.80420000      55.80120000
C       46.19570000      51.75420000      55.80140000
C       51.75350000      55.80130000      46.19540000
C       55.80180000      46.19640000      51.75420000
C       53.80370000      51.75540000      44.19860000
C       53.80530000      48.24580000      55.80070000
C       46.19520000      48.24460000      44.19930000
C       48.24460000      55.80070000      53.80470000
C       48.24580000      44.19870000      46.19560000
C       51.75610000      44.19920000      53.80430000
C       44.19940000      46.19460000      48.24570000
C       44.19850000      53.80360000      51.75530000
C       55.80030000      53.80550000      48.24470000
C       46.83890000      45.84430000      55.15010000
C       55.15000000      46.83870000      45.84430000
C       45.84370000      55.14920000      46.83820000
C       53.16240000      45.84530000      44.84980000
C       46.83670000      54.15470000      44.85040000
C       53.16200000      54.15570000      55.14960000
C       44.85100000      46.83700000      54.15560000
C       55.14980000      53.16300000      54.15470000
C       44.84920000      53.16140000      45.84530000
C       54.15470000      55.15050000      53.16180000
C       45.84590000      44.84940000      53.16250000
C       54.15570000      44.85080000      46.83740000
C       55.15030000      45.84570000      46.83730000
C       45.84580000      46.83710000      55.15020000
C       46.83660000      55.14940000      45.84510000
C       44.85110000      45.84400000      53.16260000
C       44.84920000      54.15440000      46.83830000
C       55.14950000      54.15600000      53.16170000
C       54.15520000      46.83850000      44.84970000
C       54.15520000      53.16280000      55.14950000
C       45.84380000      53.16160000      44.85050000
C       53.16180000      55.15040000      54.15490000
C       53.16260000      44.85060000      45.84450000
C       46.83900000      44.84960000      54.15540000
C       52.65130000      56.59010000      48.34760000
C       48.34800000      52.65220000      56.58990000
C       56.59020000      48.34890000      52.65190000
C       47.34660000      56.58930000      51.65250000
C       52.65370000      43.41070000      51.65190000
C       47.34840000      43.40990000      48.34800000
C       51.65120000      52.65280000      43.41010000
C       48.34760000      47.34730000      43.41040000
C       51.65320000      47.34780000      56.58950000
C       43.41030000      48.34680000      47.34810000
C       56.58920000      51.65330000      47.34690000
C       43.41030000      51.65110000      52.65310000
C       48.34700000      56.58940000      52.65270000
C       56.58910000      52.65350000      48.34720000
C       52.65330000      48.34820000      56.58950000
C       51.65090000      56.59000000      47.34740000
C       51.65350000      43.41050000      52.65230000
C       48.34860000      43.41000000      47.34760000
C       43.41000000      52.65140000      51.65280000
C       43.41060000      47.34650000      48.34840000
C       56.59030000      47.34860000      51.65160000
C       47.34720000      48.34740000      43.41050000
C       47.34790000      51.65170000      56.59000000
C       52.65160000      51.65260000      43.41010000
C       55.96970000      51.98670000      53.98200000
C       53.98180000      55.97030000      51.98550000
C       51.98570000      53.98290000      55.96950000
C       44.02970000      51.98490000      46.01800000
C       55.96960000      48.01520000      46.01690000
C       44.03100000      48.01320000      53.98310000
C       46.01630000      55.96900000      48.01460000
C       53.98330000      44.03100000      48.01380000
C       46.01860000      44.02970000      51.98610000
C       48.01300000      53.98230000      44.03050000
C       51.98590000      46.01780000      44.03010000
C       48.01540000      46.01710000      55.96980000
C       53.98280000      51.98640000      55.96930000
C       51.98520000      55.97000000      53.98240000
C       55.96920000      53.98350000      51.98530000
C       46.01660000      51.98520000      44.03070000
C       46.01830000      48.01350000      55.97000000
C       53.98230000      48.01490000      44.03000000
C       48.01290000      55.96940000      46.01760000
C       48.01550000      44.03000000      53.98270000
C       51.98640000      44.03070000      46.01720000
C       44.02950000      53.98160000      48.01480000
C       44.03120000      46.01650000      51.98630000
C       55.97010000      46.01840000      48.01360000
