240
Lattice="100.0 0.0 0.0 0.0 100.0 0.0 0.0 0.0 100.0" Properties=species:S:1:pos:R:3 name=C-71174-8496-939 pressure=0.0174891563329552 spacegroup=C1 times_found=1 energy=-1788.74992598219 pbc="T T T"
C       54.24700000      49.05880000      55.22190000
C       55.38360000      54.53050000      49.44120000
C       49.46250000      55.14160000      54.40330000
C       45.84890000      50.95050000      55.13590000
C       45.34380000      49.22830000      44.33640000
C       54.23700000      50.88150000      44.98120000
C       44.87670000      45.50180000      49.26320000
C       44.65010000      54.55690000      50.51790000
C       55.30290000      45.62500000      50.44060000
C       50.59800000      44.87830000      54.39720000
C       50.53040000      55.00650000      45.82770000
C       49.05200000      44.71490000      45.71950000
C       54.33430000      49.45020000      44.93830000
C       55.22440000      54.38430000      50.82610000
C       49.11990000      55.02580000      45.81070000
C       45.34320000      50.62240000      44.32840000
C       45.69030000      49.56520000      55.27530000
C       54.40270000      50.44260000      55.38060000
C       44.98690000      45.65570000      50.67650000
C       44.66260000      54.55130000      49.09610000
C       55.20410000      45.77000000      49.05120000
C       50.44700000      44.65720000      45.59570000
C       50.89730000      55.08830000      54.34270000
C       49.16670000      44.89000000      54.32730000
C       55.61200000      51.65090000      53.30390000
C       53.21370000      55.76510000      51.72710000
C       51.98300000      53.10140000      55.80160000
C       44.56510000      48.37210000      53.14620000
C       44.24780000      51.65360000      46.56630000
C       55.88110000      48.55550000      46.77880000
C       46.86840000      44.11820000      51.70910000
C       46.66310000      55.98120000      48.35770000
C       53.12930000      44.41370000      48.09000000
C       48.07650000      46.88730000      55.74980000
C       48.05000000      53.08220000      44.30670000
C       51.53890000      46.80840000      44.42780000
C       55.71370000      52.00640000      46.91540000
C       53.22640000      55.67600000      48.30110000
C       51.52200000      53.09590000      44.35510000
C       44.28270000      48.24400000      46.60690000
C       44.54570000      51.92160000      53.04450000
C       55.58100000      48.10830000      53.13080000
C       46.71700000      43.91190000      48.43210000
C       46.79420000      55.78260000      51.65830000
C       53.18970000      44.42820000      51.56410000
C       48.04310000      46.74830000      44.32170000
C       48.56250000      53.27400000      55.91930000
C       51.50040000      46.73810000      55.91930000
C       45.89830000      46.02120000      52.82800000
C       52.58910000      45.39020000      45.87040000
C       45.74860000      52.68560000      45.16900000
C       54.23160000      53.95790000      52.93860000
C       54.39020000      46.39510000      46.92740000
C       45.73600000      53.54340000      46.25730000
C       46.88460000      54.39510000      46.25550000
C       46.97610000      45.53860000      53.69690000
C       53.09900000      54.42130000      53.75590000
C       53.46730000      46.46120000      45.84410000
C       54.37690000      52.70900000      55.06650000
C       45.71620000      47.29910000      54.94590000
C       45.76490000      46.34520000      46.31240000
C       53.55470000      45.84010000      53.48850000
C       46.45620000      53.10600000      54.37010000
C       55.00400000      54.43380000      47.18910000
C       54.61180000      45.88050000      52.59610000
C       45.43190000      54.21300000      52.61630000
C       46.50170000      54.23480000      53.49620000
C       46.88530000      45.45820000      46.29120000
C       52.74070000      54.16900000      46.11720000
C       53.62880000      46.92710000      54.40570000
C       53.59740000      53.07170000      45.64540000
C       45.75680000      47.17760000      45.20490000
C       47.46640000      49.45830000      57.04450000
C       56.96090000      47.59710000      49.17300000
C       49.22680000      56.85750000      47.55150000
C       52.57740000      50.53550000      57.10240000
C       52.42190000      49.21900000      43.35540000
C       47.33470000      50.64280000      42.81650000
C       43.24630000      52.51500000      49.04980000
C       43.45120000      47.55880000      50.62290000
C       56.87550000      52.53050000      50.89530000
C       50.63750000      42.97280000      47.45250000
C       50.71830000      56.86480000      52.55290000
C       49.39970000      43.09480000      52.56960000
C       47.33660000      49.18540000      42.82560000
C       56.96340000      47.50250000      50.61120000
C       49.27970000      56.78280000      52.52870000
C       52.43490000      50.65180000      43.23480000
C       52.46690000      49.10750000      57.03790000
C       47.57980000      50.88700000      56.99230000
C       43.19410000      52.56060000      50.50490000
C       43.40990000      47.48800000      49.16900000
C       57.00970000      52.64290000      49.45650000
C       50.82730000      43.28100000      52.50000000
C       50.66680000      56.78030000      47.57420000
C       49.19730000      42.92120000      47.51260000
C       54.59750000      48.06800000      54.20900000
C       54.52420000      55.05240000      48.36840000
C       48.85760000      54.39960000      55.30290000
C       45.51070000      51.95510000      54.13530000
C       44.92280000      48.31300000      45.34060000
C       54.62570000      51.96600000      45.91040000
C       45.56760000      44.49870000      48.74070000
C       45.57890000      55.05250000      51.48450000
C       54.40130000      45.12680000      51.42100000
C       51.19950000      45.61870000      55.29860000
C       51.50000000      54.11170000      45.33340000
C       48.03350000      45.68620000      45.33730000
C       55.26000000      48.85750000      45.65750000
C       54.25350000      54.81000000      51.74730000
C       48.06450000      54.12100000      45.34720000
C       44.91380000      51.55400000      45.31500000
C       45.16040000      48.48480000      54.43590000
C       54.95740000      51.52850000      54.56540000
C       45.87900000      45.14550000      51.63710000
C       45.46210000      55.46880000      48.57440000
C       54.20100000      45.41300000      48.05860000
C       51.41340000      45.58580000      45.11200000
C       51.97060000      54.13940000      54.74210000
C       48.09480000      45.83820000      54.69960000
C       56.70590000      49.48970000      47.55020000
C       47.45040000      56.80170000      49.29140000
C       49.08500000      47.52270000      56.70020000
C       43.43280000      50.70970000      47.30630000
C       43.73380000      49.34560000      52.39980000
C       56.46730000      50.68060000      52.57600000
C       52.51580000      43.50670000      49.12710000
C       52.53550000      56.61650000      50.76290000
C       47.55270000      43.17540000      50.81950000
C       50.96070000      52.46750000      56.73290000
C       50.60800000      47.47140000      43.54920000
C       49.08580000      52.41720000      43.42500000
C       56.47830000      49.16390000      52.52360000
C       47.48590000      56.70730000      50.77770000
C       49.09230000      47.41790000      43.46070000
C       43.69000000      50.85970000      52.38590000
C       43.45900000      49.19430000      47.33030000
C       56.64420000      50.98290000      47.57330000
C       52.51940000      43.54980000      50.64090000
C       52.51790000      56.56900000      49.25960000
C       47.51830000      43.07850000      49.33990000
C       50.58890000      52.41390000      43.47310000
C       50.57350000      47.48760000      56.76820000
C       49.47270000      52.51100000      56.77600000
C       43.95470000      53.49520000      51.14760000
C       51.39650000      44.29740000      53.30460000
C       53.25910000      51.36000000      44.09480000
C       56.11690000      46.58830000      51.16240000
C       56.22100000      53.56260000      48.81860000
C       44.30230000      46.60940000      48.50270000
C       48.66950000      55.77790000      53.32810000
C       48.49660000      43.86620000      46.74650000
C       51.24230000      55.78010000      46.81110000
C       46.40450000      48.56390000      43.61060000
C       46.85190000      51.53010000      55.99290000
C       53.21970000      48.47380000      56.04990000
C       44.15210000      53.38020000      48.38100000
C       51.17790000      43.84920000      46.55800000
C       53.47440000      51.11020000      56.24960000
C       56.01900000      46.81920000      48.49450000
C       55.91040000      53.31610000      51.49060000
C       44.35770000      46.75620000      51.28470000
C       48.54090000      55.90620000      46.78770000
C       48.67650000      43.95840000      53.39050000
C       51.40130000      55.98830000      53.38870000
C       46.59050000      48.88950000      56.16610000
C       46.40580000      51.27600000      43.59790000
C       53.24860000      48.64160000      44.34830000
C       47.24080000      55.49200000      47.12370000
C       46.78780000      47.52260000      55.77130000
C       55.49510000      47.25510000      47.27050000
C       52.45520000      44.40270000      46.83530000
C       52.65960000      55.55980000      53.01230000
C       47.41040000      44.36370000      52.99630000
C       53.27860000      52.47720000      55.85420000
C       52.87110000      47.37070000      44.81540000
C       46.74760000      52.51360000      44.21000000
C       44.64960000      52.97320000      47.12880000
C       44.89720000      47.07530000      52.56420000
C       55.29700000      52.95680000      52.72330000
C       47.38380000      55.32840000      52.95190000
C       46.74430000      47.33110000      44.23240000
C       55.58870000      46.85580000      52.45110000
C       52.64860000      44.79820000      52.90580000
C       52.54470000      55.26000000      47.08370000
C       47.24040000      44.34830000      47.15340000
C       52.83810000      52.60000000      44.52970000
C       52.78680000      47.25190000      55.52050000
C       47.28570000      52.76360000      55.49000000
C       44.49730000      53.19720000      52.42630000
C       44.71560000      46.94860000      47.20120000
C       55.80090000      53.33470000      47.46460000
C       42.84010000      51.42170000      51.31310000
C       51.52540000      42.75860000      51.36040000
C       51.30590000      51.37160000      42.70260000
C       57.34270000      48.60860000      51.46210000
C       57.46170000      51.53800000      48.67350000
C       42.80820000      48.57480000      48.46900000
C       48.58770000      57.38680000      51.43250000
C       48.58680000      42.37380000      48.68230000
C       51.43260000      57.32860000      48.65390000
C       48.54020000      48.44530000      42.56970000
C       48.74980000      51.50940000      57.53110000
C       51.28250000      48.48230000      57.54430000
C       42.73860000      51.35000000      48.40850000
C       51.48150000      42.62210000      48.57900000
C       51.50100000      51.37060000      57.56660000
C       57.46350000      48.78750000      48.56620000
C       57.30300000      51.35320000      51.57460000
C       42.95240000      48.68360000      51.34570000
C       48.54690000      57.47310000      48.65130000
C       48.67450000      42.49410000      51.47950000
C       51.46160000      57.38260000      51.42850000
C       48.52980000      48.61780000      57.52790000
C       48.53160000      51.37790000      42.53770000
C       51.30950000      48.50820000      42.79900000
C       50.89500000      41.67290000      50.76680000
C       50.69830000      50.64490000      41.69500000
C       41.85880000      50.70210000      50.64890000
C       49.30550000      58.39560000      50.77350000
C       49.41340000      41.48070000      49.36990000
C       50.76740000      58.36310000      49.31970000
C       49.30150000      49.16090000      41.65340000
C       49.33530000      50.75220000      58.54110000
C       50.67650000      49.23030000      58.54910000
C       58.34820000      49.32900000      50.82820000
C       58.40560000      50.81590000      49.40650000
C       41.83990000      49.24480000      49.21140000
C       50.87340000      41.62890000      49.33730000
C       50.75970000      50.69900000      58.54090000
C       41.79800000      50.67010000      49.18240000
C       49.30700000      58.41720000      49.33650000
C       49.43770000      41.54460000      50.79960000
C       50.76710000      58.37160000      50.75310000
C       49.25260000      49.28370000      58.52020000
C       49.28210000      50.63890000      41.62330000
C       50.71910000      49.17910000      41.73350000
C       58.43070000      49.39860000      49.36040000
C       58.34440000      50.74770000      50.87870000
C       41.89530000      49.28020000      50.67320000
