240
Lattice="100.0 0.0 0.0 0.0 100.0 0.0 0.0 0.0 100.0" Properties=species:S:1:pos:R:3 name=C-71174-8496-779 pressure=31.2554965370914 spacegroup=C1 times_found=1 energy=-1764.89032310457 pbc="T T T"
C       47.08020000      50.78560000      56.33700000
C       56.16050000      47.21790000      50.56610000
C       50.82070000      56.17590000      47.19670000
C       52.84480000      49.45990000      56.52700000
C       53.02890000      50.54130000      43.36600000
C       47.20800000      49.42160000      43.46120000
C       43.16610000      52.94280000      50.66370000
C       43.78840000      47.21410000      49.36530000
C       56.45020000      52.95810000      49.18500000
C       49.06390000      43.44180000      47.18480000
C       49.19130000      56.15170000      53.03760000
C       50.92120000      43.47850000      52.80560000
C       47.24690000      50.85630000      43.49460000
C       56.24600000      47.15310000      49.12390000
C       50.64180000      56.18190000      53.04740000
C       52.95390000      49.10860000      43.50030000
C       52.83140000      50.89350000      56.52260000
C       47.16310000      49.34380000      56.22050000
C       43.21080000      52.94220000      49.23690000
C       43.69600000      47.18390000      50.81030000
C       56.54620000      52.99040000      50.62180000
C       49.48670000      43.41840000      52.85260000
C       49.37980000      56.07670000      47.21800000
C       50.49810000      43.37070000      47.13310000
C       48.13610000      55.48640000      53.79300000
C       53.52540000      48.49700000      55.72990000
C       55.69160000      53.70920000      48.20880000
C       51.98780000      44.29730000      53.42880000
C       51.96580000      55.54230000      46.49380000
C       48.00380000      44.25760000      46.55090000
C       46.36370000      51.90200000      55.66860000
C       46.51590000      48.46220000      44.25030000
C       53.75120000      51.55190000      44.08710000
C       44.54660000      46.48060000      48.38760000
C       43.93980000      53.64780000      51.64240000
C       55.42690000      46.48840000      51.56150000
C       48.38850000      55.37550000      46.44720000
C       53.67510000      48.13730000      44.29620000
C       55.83290000      53.69780000      51.65250000
C       51.46660000      44.14170000      46.43250000
C       51.68480000      55.53390000      53.82010000
C       48.52720000      44.21760000      53.52880000
C       46.59110000      51.93780000      44.26820000
C       46.45860000      48.34710000      55.45840000
C       53.50220000      51.98050000      55.77580000
C       44.40530000      46.51710000      51.92870000
C       44.03760000      53.63930000      48.29100000
C       55.56880000      46.44500000      48.00900000
C       44.67990000      50.94000000      45.42240000
C       45.46440000      44.51700000      51.04020000
C       50.45630000      45.33760000      44.65770000
C       55.86440000      49.29500000      45.04740000
C       55.34870000      50.97690000      54.52670000
C       44.37250000      49.52990000      54.69150000
C       54.76760000      55.69900000      50.86600000
C       54.52080000      44.46590000      48.93110000
C       45.19630000      55.52620000      49.26160000
C       49.65230000      54.64820000      44.39620000
C       49.54360000      45.43880000      55.28570000
C       50.61340000      54.90740000      56.05760000
C       44.42080000      50.96690000      54.56070000
C       45.28850000      44.41020000      49.61260000
C       50.99150000      45.47850000      55.32510000
C       55.28980000      49.52600000      54.52980000
C       55.74950000      50.74250000      45.12560000
C       44.73520000      49.49060000      45.41790000
C       54.86150000      55.84220000      49.42060000
C       54.69260000      44.39260000      50.36200000
C       45.15130000      55.53180000      50.72470000
C       49.17230000      54.88750000      56.04480000
C       49.00840000      45.41270000      44.64010000
C       51.08690000      54.49500000      44.49270000
C       45.18330000      48.39790000      54.89510000
C       54.58570000      45.40230000      47.85870000
C       48.48790000      54.84980000      45.16240000
C       54.48440000      52.09840000      54.71310000
C       54.96290000      48.20580000      44.87820000
C       45.56690000      52.05260000      45.29690000
C       45.03750000      54.60550000      48.24630000
C       45.40630000      45.48370000      52.08700000
C       54.90230000      54.71420000      51.81450000
C       51.53590000      45.13020000      45.47580000
C       51.67930000      55.03520000      55.13510000
C       48.47330000      45.23230000      54.45640000
C       45.56720000      48.41670000      45.24280000
C       54.88980000      45.20180000      51.49990000
C       48.11720000      55.00310000      55.11200000
C       54.77060000      51.69920000      45.01710000
C       54.46190000      48.45030000      54.72410000
C       45.33180000      52.05610000      54.66600000
C       44.93500000      54.61840000      51.73540000
C       45.09450000      45.20080000      48.46350000
C       55.07640000      54.97850000      48.30820000
C       52.08820000      45.36000000      54.41620000
C       52.15640000      54.58380000      45.43210000
C       47.91340000      45.31080000      45.55370000
C       52.89020000      43.17600000      51.53810000
C       51.97330000      52.64980000      43.20030000
C       43.08600000      51.84220000      52.73280000
C       47.19040000      56.17650000      51.82000000
C       47.09190000      43.17090000      48.45790000
C       52.79870000      56.66470000      48.39400000
C       48.19900000      47.27950000      43.33330000
C       48.17230000      52.81900000      56.88900000
C       51.82380000      47.33590000      56.63720000
C       56.18990000      48.37600000      52.61370000
C       56.45190000      51.79200000      47.16390000
C       43.77520000      48.34300000      47.29970000
C       52.65250000      43.17170000      48.09510000
C       51.65620000      52.88360000      56.96070000
C       43.26740000      51.81170000      47.18930000
C       47.30430000      56.14170000      48.29910000
C       47.33060000      43.22400000      51.89260000
C       52.68860000      56.30400000      51.89670000
C       48.35740000      47.31450000      56.22020000
C       48.51160000      52.82540000      43.18060000
C       51.68720000      47.14850000      43.63610000
C       56.72350000      48.29070000      47.10680000
C       56.65340000      51.85700000      52.68700000
C       43.24470000      48.38380000      52.81470000
C       52.90460000      55.38150000      53.02750000
C       52.79450000      53.17410000      56.11800000
C       55.78920000      52.95550000      52.84280000
C       47.27730000      44.19200000      52.90900000
C       47.12560000      55.23910000      47.16120000
C       52.71730000      44.11030000      47.05000000
C       47.23960000      47.13690000      55.28180000
C       47.35430000      53.11300000      43.99520000
C       52.83620000      46.96730000      44.55550000
C       44.09150000      47.25860000      53.10670000
C       44.15080000      52.90810000      47.09780000
C       55.90010000      47.15230000      46.81260000
C       53.13780000      55.88480000      47.23750000
C       53.04180000      52.75900000      44.11200000
C       55.50820000      52.92360000      46.98670000
C       46.82380000      44.01350000      47.31730000
C       46.93920000      55.29510000      52.96560000
C       53.16480000      44.03370000      52.66590000
C       47.14410000      47.21350000      44.25720000
C       47.03940000      53.10260000      56.04600000
C       52.88060000      47.25600000      55.71700000
C       44.71920000      47.22390000      47.15630000
C       43.98240000      52.92800000      52.84360000
C       55.26210000      47.24870000      52.78630000
C       51.69250000      51.49400000      57.22780000
C       57.12060000      51.84940000      51.32690000
C       51.32980000      56.73690000      51.89440000
C       48.29030000      48.62830000      56.79220000
C       48.41330000      51.44790000      42.82160000
C       51.76610000      48.44360000      43.01590000
C       42.95000000      48.29950000      51.42060000
C       42.69890000      51.79170000      48.51340000
C       56.96280000      48.26770000      48.49820000
C       48.69190000      42.74060000      51.82500000
C       48.64000000      56.62140000      48.33440000
C       51.28680000      42.70650000      48.17360000
C       51.92650000      51.27870000      42.75050000
C       56.96480000      51.79730000      48.49650000
C       51.40500000      56.87370000      48.35150000
C       48.26150000      48.62770000      42.83160000
C       48.17220000      51.41720000      57.09570000
C       51.77410000      48.68080000      57.14620000
C       43.20470000      48.31180000      48.61650000
C       42.60140000      51.79970000      51.37090000
C       56.73400000      48.34250000      51.28740000
C       48.45870000      42.77170000      48.34280000
C       48.52760000      56.65630000      51.85920000
C       51.52140000      42.78680000      51.65830000
C       53.31330000      53.60450000      45.21050000
C       45.10130000      53.19070000      53.67050000
C       54.29220000      44.76100000      52.68970000
C       46.84040000      46.38630000      45.36320000
C       46.93520000      54.30510000      55.44560000
C       53.16860000      46.42970000      54.60500000
C       54.35210000      47.20480000      53.91540000
C       54.57940000      52.92010000      45.86350000
C       45.65270000      47.17000000      46.04550000
C       45.77610000      54.41850000      52.96330000
C       45.70040000      44.74650000      47.28310000
C       54.35070000      55.31100000      47.15530000
C       52.86400000      54.35640000      55.48230000
C       45.30730000      53.17010000      46.31960000
C       53.56140000      45.20160000      46.74790000
C       47.21780000      46.01740000      54.35710000
C       47.30240000      54.26150000      44.68740000
C       52.81490000      45.89020000      45.53700000
C       55.28570000      47.06020000      45.61970000
C       54.70330000      53.23370000      53.70720000
C       44.76480000      47.21090000      54.27000000
C       45.95000000      54.38770000      47.07390000
C       46.45050000      45.30560000      53.18040000
C       54.05500000      54.49420000      53.03290000
C       50.86020000      46.38830000      56.45430000
C       56.64660000      50.78620000      46.24640000
C       46.32860000      56.35420000      50.76500000
C       49.16280000      53.78550000      56.99250000
C       49.14580000      46.31140000      43.50310000
C       51.02980000      53.62690000      43.32460000
C       43.67490000      49.36680000      46.37960000
C       43.25880000      50.88400000      53.68540000
C       56.30880000      49.40590000      53.52360000
C       53.77200000      43.26920000      50.46610000
C       53.70120000      56.70970000      49.44160000
C       46.20770000      43.28440000      49.52720000
C       50.60260000      46.29850000      43.60020000
C       56.45390000      50.85650000      53.58960000
C       46.37440000      56.34810000      49.29080000
C       49.57580000      53.71600000      43.28150000
C       49.40590000      46.42240000      56.32470000
C       50.63290000      53.81410000      57.01460000
C       43.27810000      49.42840000      53.73540000
C       43.52690000      50.81580000      46.30050000
C       56.77000000      49.31700000      46.17880000
C       53.66030000      43.29190000      49.01090000
C       53.61190000      56.55250000      50.90600000
C       46.31960000      43.33530000      50.98050000
C       57.53810000      49.29530000      49.20870000
C       49.22780000      57.31430000      49.37340000
C       49.23350000      49.26160000      57.57940000
C       42.18060000      50.71250000      49.20080000
C       42.30810000      49.25980000      50.66880000
C       57.63000000      50.77910000      50.63690000
C       50.67010000      42.09870000      49.23800000
C       50.65380000      57.36630000      50.86490000
C       49.30550000      42.11050000      50.77210000
C       50.66290000      50.74680000      57.78560000
C       50.80160000      49.15090000      42.30740000
C       49.39370000      50.67960000      42.20790000
C       57.49170000      49.31190000      50.65400000
C       49.20610000      57.29910000      50.84560000
C       49.33610000      49.22860000      42.23310000
C       42.10800000      50.71760000      50.66260000
C       42.40890000      49.26150000      49.22640000
C       57.59850000      50.76410000      49.18010000
C       50.75610000      42.13080000      50.70540000
C       50.67080000      57.40710000      49.38950000
C       49.21990000      42.12400000      49.30400000
C       50.86160000      50.60260000      42.20910000
C       50.69820000      49.29440000      57.73500000
C       49.19540000      50.70310000      57.68240000
