240
Lattice="100.0 0.0 0.0 0.0 100.0 0.0 0.0 0.0 100.0" Properties=species:S:1:pos:R:3 name=C-71174-8496-551 pressure=115.586657139052 spacegroup=C1 times_found=1 energy=-1752.24639598676 pbc="T T T"
C       45.66720000      54.14450000      52.74000000
C       52.63200000      44.77020000      54.16850000
C       54.27540000      52.87940000      45.73290000
C       45.52550000      45.64990000      47.19980000
C       54.65540000      46.42760000      52.94750000
C       54.76580000      53.62470000      47.03620000
C       52.85960000      55.37540000      45.73290000
C       46.91580000      54.76060000      53.54620000
C       46.82560000      45.13360000      46.40350000
C       54.17010000      47.19790000      54.24670000
C       45.64760000      47.28880000      44.79550000
C       45.71240000      52.76970000      55.24990000
C       54.67170000      53.56910000      52.93410000
C       46.88360000      45.06380000      53.68360000
C       45.80520000      52.98770000      45.55960000
C       54.64930000      46.46190000      47.06850000
C       45.59630000      45.61270000      52.90310000
C       45.29300000      53.73560000      46.88850000
C       47.25390000      55.46300000      45.61630000
C       52.61140000      55.21360000      54.12430000
C       52.59800000      44.82960000      45.84210000
C       45.71080000      47.13540000      55.33740000
C       54.16320000      47.24820000      45.78310000
C       54.17110000      52.79710000      54.23320000
C       50.75620000      51.64700000      43.50850000
C       43.41800000      50.62710000      51.58260000
C       51.44980000      42.93540000      50.72490000
C       50.69670000      48.48960000      56.59220000
C       49.22820000      48.62250000      43.43410000
C       49.25530000      51.52990000      56.75750000
C       43.23560000      49.11470000      48.56600000
C       57.47470000      49.25780000      51.55260000
C       57.50040000      50.73430000      48.46980000
C       51.53020000      57.06880000      49.20360000
C       48.40820000      57.29550000      50.51520000
C       48.35240000      42.47380000      49.28270000
C       49.31010000      51.68050000      43.43980000
C       57.47780000      50.72450000      51.55170000
C       48.36220000      42.45610000      50.73680000
C       49.25920000      48.44340000      56.77760000
C       50.66900000      48.63320000      43.56690000
C       50.69420000      51.49910000      56.58020000
C       57.48340000      49.26720000      48.47150000
C       43.44540000      49.17340000      51.58820000
C       43.12010000      50.56030000      48.55240000
C       48.43320000      57.28780000      49.06410000
C       51.49370000      57.04140000      50.65650000
C       51.44150000      42.94840000      49.26800000
C       56.19320000      51.76110000      46.62360000
C       46.61070000      55.97040000      51.53620000
C       51.78130000      46.60190000      55.37890000
C       56.12470000      48.25670000      53.38010000
C       44.29650000      48.02970000      46.55730000
C       44.46010000      51.81890000      53.50060000
C       46.44760000      43.72290000      48.28780000
C       53.15870000      44.39400000      51.87800000
C       53.27790000      55.64980000      48.07570000
C       51.93140000      53.60120000      44.51670000
C       48.02080000      53.37010000      55.57910000
C       47.98160000      46.71210000      44.50930000
C       44.08310000      51.69160000      46.58660000
C       53.18710000      55.59750000      51.84140000
C       48.02930000      46.56470000      55.64300000
C       44.47010000      48.02960000      53.55620000
C       56.13580000      48.27980000      46.63730000
C       56.12700000      51.73040000      53.37510000
C       53.14610000      44.41960000      48.12130000
C       46.47620000      43.68900000      51.78090000
C       46.63080000      55.90860000      47.90330000
C       48.16270000      53.66950000      44.39870000
C       51.76790000      53.38490000      55.34810000
C       51.74850000      46.69870000      44.69720000
C       43.70840000      54.08580000      50.63840000
C       50.51810000      43.26780000      54.23080000
C       54.17810000      50.77370000      43.74470000
C       43.58850000      45.71540000      49.35570000
C       56.34290000      45.89490000      50.71150000
C       56.42040000      54.11600000      49.30340000
C       50.79990000      56.99890000      45.64610000
C       49.04780000      56.64670000      54.03900000
C       49.03820000      43.36610000      45.85250000
C       54.14070000      49.28170000      56.27530000
C       45.75920000      49.50150000      43.38770000
C       45.73940000      50.69710000      56.85020000
C       56.39650000      54.10600000      50.72320000
C       49.08980000      43.27260000      54.17850000
C       45.81880000      50.93600000      43.50600000
C       56.34110000      45.90140000      49.29190000
C       43.61240000      45.72020000      50.79260000
C       43.59860000      54.06590000      49.21690000
C       49.35820000      57.02730000      45.60010000
C       50.47500000      56.69110000      54.13350000
C       50.46550000      43.35600000      45.78350000
C       45.74100000      49.25630000      56.87020000
C       54.13960000      49.33720000      43.76270000
C       54.13940000      50.72070000      56.27100000
C       51.23690000      43.24960000      46.94710000
C       46.97490000      51.64920000      43.75690000
C       43.87290000      46.85190000      51.53460000
C       51.25430000      56.76880000      52.97460000
C       48.61880000      57.01670000      46.77300000
C       48.44580000      43.10250000      52.99250000
C       46.93520000      48.54940000      56.78670000
C       52.98410000      48.64010000      44.03350000
C       52.99390000      51.44370000      56.02500000
C       43.53180000      52.86820000      48.58110000
C       56.68810000      52.96220000      51.41260000
C       56.66220000      47.03890000      48.60420000
C       48.40760000      43.17160000      47.04190000
C       53.05810000      51.53810000      43.98350000
C       56.66160000      47.02730000      51.40860000
C       48.44050000      56.75220000      52.82210000
C       51.47100000      56.93360000      46.86520000
C       51.27260000      43.19280000      53.05410000
C       52.99670000      48.55450000      56.03480000
C       46.92600000      48.76040000      43.46900000
C       46.93040000      51.40650000      56.75300000
C       56.73060000      52.98070000      48.60540000
C       43.86430000      52.95570000      51.43230000
C       43.80170000      46.84540000      48.60470000
C       55.18910000      48.24610000      54.42530000
C       54.32630000      54.63490000      48.05250000
C       47.88590000      54.48750000      54.64370000
C       55.26660000      51.79520000      45.56970000
C       44.85770000      51.77080000      54.87060000
C       44.76240000      48.24190000      45.21480000
C       54.21530000      45.40970000      51.92680000
C       45.38910000      44.64580000      48.27870000
C       45.60660000      55.01750000      51.56720000
C       47.83550000      45.52020000      45.35390000
C       51.62150000      45.26930000      54.93840000
C       51.88060000      54.98260000      44.86100000
C       44.85710000      48.12340000      54.92640000
C       45.58270000      54.86820000      47.85780000
C       51.59870000      54.71140000      54.88800000
C       44.86600000      51.85980000      45.44080000
C       55.18770000      51.74730000      54.41690000
C       55.19600000      48.28330000      45.59660000
C       45.43010000      44.62460000      51.81840000
C       54.20750000      45.43280000      48.07910000
C       54.25230000      54.59320000      51.90870000
C       51.57740000      45.35800000      45.10520000
C       47.88820000      45.41390000      54.74340000
C       48.24930000      55.04090000      44.78060000
C       55.01360000      45.35210000      49.25040000
C       49.34060000      55.94720000      44.63730000
C       44.73150000      49.21800000      55.83090000
C       55.07620000      54.67260000      50.74750000
C       44.71270000      54.93620000      48.99320000
C       44.48630000      44.60840000      50.81330000
C       48.97390000      44.50310000      54.91020000
C       50.39890000      44.56580000      44.99920000
C       50.42000000      55.50930000      54.96490000
C       44.76830000      50.90110000      44.46200000
C       55.23300000      50.75260000      55.37280000
C       55.24710000      49.27940000      44.64280000
C       44.46460000      44.60580000      49.30490000
C       50.82680000      55.92110000      44.67860000
C       55.23420000      49.24560000      55.37680000
C       44.75950000      55.02840000      50.48760000
C       55.10240000      54.68470000      49.24680000
C       55.01610000      45.34450000      50.75100000
C       50.45500000      44.45990000      55.04340000
C       48.91780000      44.61260000      45.14980000
C       48.94690000      55.42950000      54.79860000
C       55.28630000      50.78720000      44.62680000
C       44.73110000      50.70510000      55.80960000
C       44.70140000      49.40330000      44.35880000
C       50.68550000      47.16370000      56.01480000
C       56.99860000      50.73490000      47.09690000
C       47.07380000      56.69980000      50.46500000
C       50.78860000      53.02520000      43.96490000
C       49.21100000      52.86070000      56.12190000
C       49.17630000      47.26190000      44.00450000
C       56.95930000      49.26440000      52.92030000
C       43.65020000      49.09470000      47.17330000
C       43.93100000      50.65750000      52.93790000
C       46.95410000      42.92230000      49.29930000
C       52.68660000      43.73670000      50.73100000
C       52.77580000      56.28230000      49.22000000
C       49.22230000      47.10290000      56.16030000
C       43.51290000      50.55460000      47.13900000
C       52.74050000      56.25940000      50.68710000
C       49.31200000      53.05670000      43.90840000
C       50.67500000      52.81820000      55.98630000
C       50.64410000      47.29320000      44.11130000
C       43.94580000      49.17270000      52.95030000
C       56.97880000      49.27930000      47.09960000
C       56.96010000      50.71990000      52.91880000
C       52.67980000      43.74820000      49.26260000
C       46.96360000      42.90480000      50.74740000
C       47.10360000      56.63560000      49.01460000
C       57.34350000      51.84970000      49.28350000
C       49.17460000      57.25230000      51.67480000
C       51.82840000      49.26620000      56.50360000
C       57.30610000      48.14540000      50.73760000
C       43.38510000      48.00820000      49.35580000
C       43.36690000      51.75110000      50.79430000
C       49.15320000      42.64520000      48.16740000
C       50.64250000      42.75050000      51.84600000
C       50.76860000      57.29350000      48.05880000
C       51.86380000      50.84190000      43.57390000
C       48.15840000      50.72360000      57.01030000
C       48.14330000      49.45990000      43.26790000
C       43.19350000      51.69930000      49.33880000
C       50.64360000      57.18750000      51.74670000
C       48.15970000      49.24580000      57.02440000
C       43.45230000      48.03260000      50.82020000
C       57.30770000      48.15180000      49.28220000
C       57.32610000      51.84210000      50.73970000
C       50.61940000      42.78770000      48.15350000
C       49.17720000      42.60230000      51.84580000
C       49.29150000      57.37180000      47.98770000
C       48.16280000      50.93160000      43.35450000
C       51.82880000      50.72840000      56.49880000
C       51.82150000      49.37980000      43.60460000
C       47.31910000      55.90110000      52.72850000
C       53.00870000      47.35740000      55.17560000
C       55.96190000      52.88160000      47.42840000
C       47.22660000      43.94540000      47.14880000
C       52.44610000      44.02470000      53.04680000
C       52.62460000      56.06330000      46.88400000
C       53.11530000      52.76900000      44.79220000
C       46.87820000      52.59710000      55.93150000
C       46.84540000      47.50890000      44.18820000
C       55.87440000      47.14230000      52.57190000
C       44.58560000      46.81660000      47.34900000
C       44.70330000      52.99960000      52.65180000
C       52.43970000      55.95150000      52.99530000
C       46.88480000      47.33660000      55.99640000
C       44.23400000      52.84920000      47.35830000
C       52.41940000      44.06930000      46.95460000
C       47.26930000      43.88520000      52.91390000
C       47.41790000      56.19750000      46.74790000
C       46.95120000      52.86640000      44.60870000
C       53.00380000      52.63650000      55.15780000
C       52.99080000      47.43390000      44.88040000
C       44.69120000      46.80450000      52.76120000
C       55.87540000      47.16490000      47.44280000
C       55.88840000      52.84750000      52.56740000
