240
Lattice="100.0 0.0 0.0 0.0 100.0 0.0 0.0 0.0 100.0" Properties=species:S:1:pos:R:3 name=C-71174-8496-705 pressure=-0.0504107698933912 energy=-1793.58484900011 spacegroup=C1 times_found=1 pbc="T T T"
C       51.34490000      53.65370000      44.39170000
C       44.45490000      51.36130000      53.72290000
C       53.61960000      44.65670000      51.49190000
C       51.30560000      46.26220000      55.53000000
C       48.73690000      46.19550000      44.49700000
C       48.76280000      53.75750000      55.50340000
C       44.44710000      48.62290000      46.27740000
C       55.59990000      48.56660000      53.66440000
C       55.35780000      51.60100000      46.28190000
C       53.69750000      55.54530000      48.67010000
C       46.30770000      55.35910000      51.58500000
C       46.25810000      44.60760000      48.42860000
C       48.62290000      53.59120000      44.42860000
C       55.58550000      51.33460000      53.73900000
C       46.16770000      44.52550000      51.29330000
C       48.53740000      46.35020000      55.57940000
C       51.59790000      46.25600000      44.61250000
C       51.61880000      53.70910000      55.38140000
C       55.49680000      48.74320000      46.24330000
C       44.58660000      48.53560000      53.68290000
C       44.61410000      51.45030000      46.31900000
C       46.25660000      55.41390000      48.72180000
C       53.71960000      55.63480000      51.43610000
C       53.67030000      44.48090000      48.67500000
C       53.61560000      45.14770000      45.43470000
C       45.41710000      53.45390000      45.18080000
C       44.64490000      44.77140000      53.10150000
C       53.63510000      54.86520000      54.63470000
C       46.47010000      54.50310000      45.18660000
C       46.37020000      45.45810000      54.83740000
C       45.34190000      46.52690000      54.83580000
C       55.34080000      46.90250000      44.75630000
C       55.35930000      53.10320000      55.29290000
C       44.75040000      55.20750000      46.90250000
C       54.67500000      54.87530000      53.57690000
C       54.63610000      45.18380000      46.51000000
C       46.91440000      44.69800000      44.68860000
C       54.55870000      53.61240000      45.14130000
C       54.79820000      45.38550000      53.49510000
C       46.93720000      55.26160000      55.33430000
C       53.47420000      54.63080000      45.14810000
C       53.06440000      44.70350000      55.24300000
C       54.83060000      46.41230000      54.56490000
C       45.17770000      46.44880000      45.35270000
C       45.20220000      53.52570000      54.65400000
C       55.20870000      55.33750000      46.87390000
C       45.18160000      54.58960000      53.61800000
C       45.15280000      45.38840000      46.39080000
C       47.04950000      55.19720000      46.25750000
C       46.16200000      47.31310000      55.70440000
C       55.30990000      46.27790000      47.06160000
C       46.92890000      44.74200000      53.76890000
C       52.83100000      44.27190000      46.24700000
C       52.84970000      55.76540000      53.84600000
C       46.22510000      52.65890000      44.31290000
C       54.03330000      52.73700000      55.56080000
C       54.01760000      47.23850000      44.43880000
C       55.37350000      53.80790000      53.00090000
C       44.44370000      53.89060000      47.27050000
C       44.38410000      46.09780000      52.73420000
C       52.88800000      55.30470000      46.22520000
C       53.78140000      46.98550000      55.29700000
C       44.26540000      46.20420000      47.15670000
C       52.67550000      44.46020000      53.91970000
C       47.25600000      44.40750000      46.01760000
C       47.27870000      55.56650000      54.00800000
C       53.77700000      52.81960000      44.24710000
C       46.28980000      52.96140000      55.32920000
C       46.26810000      47.00260000      44.67620000
C       44.29140000      53.78160000      52.84830000
C       55.52160000      54.02120000      47.24680000
C       55.67730000      46.18960000      52.70350000
C       44.29540000      47.24430000      46.14670000
C       46.20540000      44.66700000      46.97160000
C       47.29830000      46.02040000      44.43430000
C       44.31450000      52.73970000      53.85670000
C       55.27680000      53.05420000      46.20800000
C       55.71530000      47.18760000      53.75310000
C       46.23860000      55.30830000      53.04270000
C       53.87540000      55.57120000      47.24340000
C       53.70640000      44.71040000      52.94090000
C       47.32500000      53.93660000      55.57720000
C       52.71490000      53.81090000      44.26020000
C       52.72970000      46.03060000      55.54820000
C       55.57060000      47.30240000      46.07860000
C       53.82360000      44.31240000      47.30180000
C       53.05350000      46.19560000      44.69330000
C       55.62620000      52.75970000      53.96010000
C       44.69490000      52.90290000      46.24330000
C       44.64150000      47.08300000      53.76210000
C       53.86230000      55.77190000      52.81160000
C       46.07540000      55.45940000      47.28500000
C       45.96570000      44.48370000      52.73060000
C       53.07210000      53.78260000      55.32240000
C       47.25000000      53.68960000      44.31290000
C       47.16060000      46.26320000      55.71440000
C       48.41010000      43.44350000      51.42790000
C       51.54530000      48.47600000      43.31640000
C       43.31280000      51.47010000      48.55680000
C       48.50820000      56.47620000      48.58760000
C       51.45240000      56.76930000      51.46800000
C       51.43620000      43.30540000      48.61850000
C       51.58590000      51.42970000      56.57710000
C       48.55140000      51.31600000      43.26290000
C       48.55570000      48.62480000      56.69760000
C       43.29310000      48.52860000      51.44090000
C       56.58110000      48.65590000      48.47940000
C       56.66120000      51.49910000      51.46630000
C       51.33390000      43.43360000      51.51520000
C       48.62760000      48.41460000      43.37860000
C       56.57450000      51.57980000      48.55330000
C       51.39970000      56.58000000      48.53750000
C       48.53550000      56.63420000      51.51280000
C       48.50250000      43.35420000      48.51600000
C       48.66110000      51.52150000      56.59290000
C       51.46660000      51.39870000      43.19540000
C       51.49050000      48.51870000      56.63710000
C       56.70080000      48.56590000      51.37710000
C       43.25740000      48.57830000      48.50140000
C       43.26700000      51.42000000      51.49670000
C       49.07460000      43.99840000      52.62460000
C       52.69130000      49.27040000      43.79410000
C       43.82800000      52.61030000      49.33340000
C       49.21210000      55.92170000      47.39710000
C       50.76540000      56.25270000      52.65700000
C       50.74640000      43.79670000      47.41510000
C       52.72850000      50.63560000      56.07330000
C       47.41100000      50.57100000      43.83790000
C       47.40660000      49.38150000      56.15200000
C       43.79840000      47.38230000      50.66660000
C       56.05390000      47.45050000      49.17270000
C       56.08560000      52.69290000      50.82250000
C       50.55230000      43.96800000      52.65040000
C       47.43010000      49.11310000      43.91620000
C       56.07710000      52.72580000      49.34580000
C       50.70260000      55.96450000      47.37900000
C       49.31800000      56.18450000      52.67930000
C       49.29550000      43.82900000      47.36730000
C       47.44570000      50.83850000      56.07300000
C       52.64890000      50.71870000      43.73390000
C       52.68650000      49.15970000      56.06290000
C       56.13730000      47.42070000      50.62910000
C       43.76880000      47.39890000      49.21550000
C       43.79270000      52.59390000      50.78480000
C       47.30560000      43.93070000      49.15390000
C       49.41440000      47.27800000      43.90590000
C       43.81290000      49.32460000      47.34990000
C       47.36410000      56.02570000      50.86400000
C       52.58900000      56.14550000      49.30420000
C       52.54350000      43.95650000      50.82660000
C       49.44420000      52.65980000      56.06580000
C       50.70970000      52.54600000      43.73340000
C       50.69500000      47.37820000      56.15060000
C       43.81350000      50.66810000      52.64870000
C       56.02530000      50.91130000      47.35570000
C       56.20790000      49.26220000      52.57600000
C       52.57990000      43.86740000      49.37070000
C       50.89120000      47.29890000      43.91190000
C       56.05550000      49.43330000      47.33660000
C       52.61420000      56.23440000      50.75270000
C       47.35420000      55.98990000      49.38450000
C       47.26550000      43.93730000      50.63100000
C       50.92210000      52.63330000      56.03670000
C       49.27920000      52.50570000      43.76250000
C       49.24460000      47.42810000      56.18960000
C       56.18290000      50.71250000      52.61780000
C       43.88000000      50.78130000      47.37180000
C       43.86460000      49.21170000      52.62700000
C       42.37470000      50.70550000      50.72470000
C       50.61510000      42.50260000      50.79010000
C       50.73100000      50.59830000      42.33570000
C       42.37000000      49.30230000      49.27020000
C       57.56650000      49.34860000      50.63590000
C       57.50020000      50.81890000      49.23570000
C       50.64570000      57.50150000      49.23960000
C       49.22270000      57.52640000      50.70660000
C       49.20440000      42.46520000      49.31250000
C       50.79140000      49.30690000      57.53630000
C       49.32390000      49.13100000      42.42810000
C       49.38170000      50.78780000      57.51630000
C       57.54900000      50.79190000      50.67370000
C       49.17260000      42.51620000      50.75050000
C       49.29350000      50.56710000      42.36660000
C       57.51130000      49.37600000      49.20350000
C       42.37450000      49.27280000      50.71690000
C       42.38420000      50.73520000      49.27780000
C       49.21410000      57.44360000      49.26520000
C       50.66030000      57.58920000      50.68090000
C       50.64750000      42.44430000      49.35790000
C       49.34860000      49.35510000      57.56190000
C       50.76620000      49.15640000      42.39830000
C       50.82400000      50.74510000      57.49890000
C       44.46210000      53.70180000      48.70010000
C       48.38130000      44.67240000      53.69160000
C       53.79550000      48.66410000      44.43670000
C       44.41290000      46.28230000      51.30390000
C       55.35520000      46.37220000      48.51020000
C       55.41520000      53.74570000      51.54470000
C       48.51010000      55.24870000      46.33410000
C       51.47240000      55.63370000      53.73620000
C       51.45160000      44.39590000      46.32820000
C       53.82780000      51.30190000      55.49400000
C       46.33440000      51.27760000      44.45910000
C       46.30810000      48.68960000      55.54700000
C       55.48010000      53.81840000      48.68240000
C       51.23730000      44.53670000      53.74250000
C       46.35290000      48.45410000      44.61540000
C       55.51690000      46.33590000      51.32830000
C       44.38400000      46.30830000      48.53500000
C       44.41610000      53.67680000      51.46990000
C       51.42430000      55.31130000      46.31390000
C       48.70250000      55.55640000      53.78910000
C       48.68120000      44.43220000      46.24410000
C       46.36640000      51.51040000      55.38400000
C       53.70740000      51.43800000      44.36710000
C       53.73070000      48.44120000      55.37310000
C       45.23190000      45.33770000      50.57300000
C       50.84100000      45.27990000      45.37360000
C       45.39700000      50.66070000      45.35930000
C       45.29440000      54.62850000      49.43680000
C       54.64240000      54.72800000      50.80680000
C       54.58300000      45.40310000      49.29450000
C       50.86220000      54.70790000      54.65180000
C       49.26840000      54.51230000      45.34440000
C       49.14320000      45.41180000      54.67700000
C       45.38070000      49.31570000      54.64290000
C       54.69870000      49.42970000      45.26980000
C       54.76220000      50.59170000      54.67050000
C       54.59500000      45.42250000      50.70880000
C       49.43570000      45.24950000      45.31660000
C       54.63450000      50.83530000      45.28580000
C       54.66090000      54.74970000      49.40160000
C       45.32010000      54.60020000      50.84240000
C       45.27120000      45.37140000      49.16710000
C       49.45750000      54.72430000      54.70250000
C       50.68290000      54.54200000      45.33140000
C       50.54710000      45.34970000      54.70040000
C       54.71720000      49.18710000      54.61460000
C       45.37440000      49.24340000      45.37140000
C       45.37730000      50.73220000      54.62840000
