240
Lattice="100.0 0.0 0.0 0.0 100.0 0.0 0.0 0.0 100.0" Properties=species:S:1:pos:R:3 name=C-71174-8496-935 pressure=0.0201479004877708 spacegroup=C1 times_found=1 energy=-1741.67665300641 pbc="T T T"
C       52.41730000      46.91020000      53.50380000
C       45.32330000      54.92710000      53.88930000
C       54.39630000      53.30420000      44.92000000
C       47.70600000      47.13640000      46.63770000
C       46.64520000      55.04900000      54.40410000
C       53.82240000      54.59460000      45.08440000
C       53.90280000      55.31820000      46.29460000
C       53.05830000      46.43730000      52.39000000
C       47.05560000      46.64430000      47.73680000
C       44.55750000      53.75470000      54.04360000
C       46.56540000      47.74480000      47.08160000
C       53.54870000      47.53220000      53.04850000
C       52.27050000      52.41590000      53.62140000
C       47.23150000      46.57200000      52.30970000
C       53.69600000      47.65960000      47.33010000
C       47.38770000      53.11160000      46.28010000
C       47.88280000      47.01430000      53.43310000
C       52.50900000      47.14070000      46.87310000
C       53.15310000      46.54900000      47.92460000
C       52.77270000      52.80620000      52.40130000
C       46.74290000      53.59060000      47.38710000
C       46.81630000      47.71560000      52.93710000
C       46.31100000      52.44090000      46.78710000
C       53.39190000      51.81110000      53.10620000
C       44.04100000      53.61450000      48.07390000
C       53.69760000      48.52080000      44.62130000
C       48.33940000      44.24830000      53.58700000
C       55.50810000      53.21630000      51.67570000
C       55.90230000      46.20540000      48.39750000
C       44.45990000      46.55930000      51.71490000
C       46.61700000      48.31820000      55.68460000
C       46.19540000      51.73020000      44.09380000
C       53.75160000      51.48970000      55.86860000
C       51.78580000      44.40010000      46.52530000
C       51.40390000      55.13210000      53.48450000
C       47.95880000      55.82390000      46.12430000
C       44.32730000      46.46480000      48.31440000
C       53.53790000      52.44100000      44.10370000
C       47.50130000      55.79970000      53.48020000
C       55.80890000      46.23740000      51.80800000
C       55.76720000      53.26940000      48.19860000
C       44.00870000      53.82580000      51.62590000
C       46.63290000      51.80310000      55.89830000
C       46.45760000      48.32430000      44.32320000
C       53.68480000      48.09590000      55.80580000
C       51.49790000      55.79450000      46.12230000
C       51.75040000      44.17580000      53.60480000
C       48.36230000      44.39430000      46.47780000
C       48.41990000      49.39480000      43.11790000
C       49.32440000      43.09810000      48.43390000
C       43.13770000      48.48620000      49.28570000
C       51.72050000      49.09220000      57.06980000
C       51.22820000      50.85420000      43.10340000
C       48.60350000      50.63890000      57.04320000
C       50.75040000      42.98690000      51.59860000
C       50.44030000      56.60470000      48.24570000
C       49.03790000      56.64000000      51.10740000
C       57.08500000      48.20520000      50.84050000
C       56.99140000      51.33520000      49.33830000
C       43.16140000      51.66560000      50.67830000
C       48.24390000      50.80740000      42.93760000
C       49.00680000      56.84610000      48.16020000
C       43.04040000      51.59710000      49.21540000
C       51.75130000      50.53440000      57.11460000
C       51.77700000      49.72070000      43.52340000
C       48.56080000      49.18620000      57.02800000
C       50.18980000      56.18060000      51.56110000
C       50.77020000      43.08050000      48.44250000
C       49.30470000      43.01530000      51.59100000
C       56.96550000      51.35950000      50.78950000
C       57.13380000      48.19370000      49.39820000
C       43.24310000      48.55520000      50.72220000
C       51.46240000      46.86270000      56.32560000
C       46.70300000      56.34740000      51.04350000
C       56.41750000      51.12880000      47.08630000
C       48.77180000      47.21790000      43.90740000
C       48.83260000      52.87170000      56.40550000
C       51.07400000      53.16570000      43.50540000
C       52.68660000      55.73730000      48.40430000
C       53.02700000      43.62230000      51.42020000
C       47.07070000      43.79960000      48.64140000
C       43.99540000      51.63210000      52.96380000
C       43.73430000      48.61700000      46.99650000
C       56.37960000      48.41840000      53.09000000
C       51.63300000      52.80440000      56.49360000
C       47.06230000      43.76280000      51.38480000
C       56.57650000      48.33190000      47.11220000
C       48.33150000      53.10090000      43.50330000
C       48.72020000      46.93740000      56.29270000
C       51.47200000      47.34210000      44.06050000
C       53.04610000      43.67700000      48.67630000
C       52.50820000      55.50710000      51.16460000
C       46.67840000      56.34130000      48.31550000
C       44.08140000      48.83440000      52.91080000
C       43.59340000      51.35610000      46.90020000
C       56.30180000      51.16350000      53.04740000
C       43.38230000      53.01800000      49.14510000
C       53.19150000      49.77340000      44.08700000
C       49.30690000      43.44300000      52.99820000
C       56.35750000      52.69020000      50.71960000
C       56.67260000      46.79210000      49.39550000
C       43.65130000      47.14270000      50.75130000
C       47.20090000      49.27150000      56.49690000
C       46.84750000      50.72920000      43.37450000
C       53.15610000      50.51480000      56.66080000
C       50.78530000      43.59550000      47.06330000
C       50.15450000      55.67950000      53.00220000
C       49.01130000      56.49520000      46.74640000
C       43.57680000      47.08140000      49.30940000
C       53.91020000      51.02710000      44.32730000
C       48.92180000      55.52540000      53.78480000
C       56.62690000      46.80750000      50.83890000
C       56.37970000      52.65750000      49.27740000
C       43.45530000      53.08020000      50.59490000
C       47.25250000      50.71630000      56.49940000
C       47.00000000      49.29800000      43.50670000
C       53.12160000      49.07170000      56.62100000
C       50.44930000      56.34790000      46.81670000
C       50.75300000      43.41470000      53.00490000
C       49.34100000      43.59580000      47.05270000
C       49.59310000      53.94130000      55.83260000
C       53.82320000      55.07390000      49.09500000
C       55.74180000      49.09370000      54.25100000
C       50.39770000      54.29710000      44.13250000
C       50.76390000      45.73240000      55.65660000
C       49.43190000      46.05710000      44.54550000
C       45.53750000      55.72880000      50.42080000
C       45.91220000      44.44190000      49.32190000
C       54.21020000      44.24030000      50.76470000
C       44.35470000      49.28180000      45.82070000
C       44.68030000      50.93800000      54.09780000
C       55.92180000      50.37700000      45.97270000
C       49.37180000      45.76460000      55.64850000
C       54.23330000      44.24160000      49.37200000
C       55.73680000      50.48740000      54.24500000
C       50.81190000      46.11160000      44.61050000
C       50.96220000      53.90960000      55.83600000
C       48.99850000      54.25640000      44.15650000
C       45.92600000      44.44930000      50.71320000
C       45.55250000      55.66830000      49.02380000
C       53.70130000      54.93550000      50.49150000
C       44.25580000      50.66860000      45.75090000
C       44.75460000      49.52470000      54.02600000
C       55.96660000      49.00590000      45.97990000
C       54.77080000      51.37530000      54.86280000
C       51.69170000      54.41020000      54.70760000
C       54.42260000      54.15440000      51.48860000
C       45.11730000      51.62060000      45.05840000
C       45.59210000      48.52370000      54.69480000
C       54.88090000      48.25800000      45.41420000
C       48.03440000      54.87990000      45.03910000
C       48.45230000      45.18610000      54.68050000
C       51.72310000      45.43840000      45.51050000
C       44.93120000      54.75070000      48.09210000
C       45.35130000      45.42530000      51.62920000
C       54.89220000      45.18250000      48.48250000
C       54.78050000      48.18170000      54.86500000
C       51.67280000      45.11040000      54.70500000
C       54.84030000      45.16720000      51.69710000
C       45.33870000      48.38220000      45.23840000
C       45.36420000      51.79420000      55.12190000
C       55.04990000      51.17870000      45.20800000
C       48.48000000      45.36380000      45.41580000
C       48.78200000      54.69100000      54.96090000
C       51.41830000      55.10730000      44.83770000
C       45.28700000      45.38490000      48.40830000
C       44.73850000      55.08440000      51.48820000
C       54.92650000      54.49460000      48.25420000
C       50.84020000      47.99290000      56.91660000
C       47.90330000      56.69710000      50.38060000
C       56.96270000      50.48780000      48.22890000
C       49.40720000      48.40110000      43.40250000
C       49.46870000      51.73150000      56.96080000
C       50.45250000      51.96010000      43.09050000
C       51.47530000      56.19520000      49.11910000
C       51.88540000      43.09680000      50.75810000
C       48.19340000      43.21110000      49.28000000
C       43.46930000      50.90580000      51.81800000
C       43.19320000      49.28510000      48.12460000
C       56.94460000      49.06440000      51.95760000
C       50.93050000      51.68620000      57.01560000
C       48.18520000      43.18080000      50.73660000
C       57.05240000      49.02660000      48.25430000
C       49.01050000      51.97670000      43.00600000
C       49.38230000      48.03870000      56.89680000
C       50.87830000      48.49250000      43.54610000
C       51.89410000      43.13580000      49.30060000
C       51.38240000      56.05150000      50.58490000
C       47.85450000      56.78650000      48.95130000
C       43.47890000      49.45730000      51.80650000
C       43.14360000      50.73240000      48.09700000
C       56.89300000      50.52450000      51.92970000
C       55.63660000      52.41560000      52.87010000
C       52.89560000      52.64850000      55.86170000
C       52.46120000      55.09190000      52.52090000
C       44.03160000      52.70650000      46.94310000
C       44.51980000      47.48000000      52.82490000
C       55.94790000      47.06160000      47.23760000
C       47.00580000      52.94180000      44.01620000
C       47.43310000      47.12190000      55.71220000
C       52.78200000      47.42020000      44.58600000
C       46.78360000      55.85040000      46.98290000
C       47.19700000      44.28980000      52.70130000
C       52.93230000      44.29240000      47.39330000
C       55.82360000      47.11130000      52.96080000
C       52.77970000      46.96580000      55.79330000
C       52.90660000      44.15230000      52.73610000
C       44.29750000      47.31830000      47.14440000
C       44.07760000      53.07770000      52.88290000
C       55.90000000      52.47100000      47.00260000
C       47.41660000      47.25120000      44.36030000
C       47.47250000      52.97810000      55.94650000
C       52.45040000      53.27250000      43.74820000
C       47.19980000      44.35810000      47.33920000
C       46.63450000      56.15390000      52.42360000
C       52.69850000      55.72080000      46.94650000
C       54.60850000      52.29040000      53.80300000
C       52.69070000      53.40930000      54.69080000
C       53.46090000      54.09730000      52.51700000
C       45.08790000      52.66510000      46.00780000
C       45.59210000      47.50430000      53.71760000
C       54.82330000      47.25230000      46.40950000
C       47.04410000      53.86920000      45.06650000
C       47.50960000      46.23230000      54.62800000
C       52.72100000      46.42490000      45.60340000
C       45.90230000      54.75740000      47.06350000
C       46.35850000      45.41820000      52.61580000
C       53.87170000      45.32020000      47.51840000
C       54.73720000      47.20060000      53.85250000
C       52.68800000      46.09060000      54.69540000
C       53.82760000      45.21530000      52.67820000
C       45.38830000      47.40940000      46.25940000
C       44.85220000      53.03550000      55.15400000
C       55.21640000      52.51520000      45.72180000
C       47.46090000      46.33360000      45.42690000
C       47.43620000      54.23480000      55.21150000
C       52.62170000      54.54410000      44.40230000
C       46.29150000      45.42840000      47.41990000
C       45.34780000      55.55410000      52.65920000
C       55.00320000      55.06340000      47.04100000
