240
Lattice="100.0 0.0 0.0 0.0 100.0 0.0 0.0 0.0 100.0" Properties=species:S:1:pos:R:3 name=C-71174-8496-361 pressure=-1.78680780093531 spacegroup=C1 times_found=1 energy=-1797.66266918689 pbc="T T T"
C       57.56270000      48.73310000      48.44480000
C       48.60940000      57.30560000      48.64790000
C       48.45800000      48.57990000      57.57540000
C       42.56570000      51.18700000      48.59130000
C       42.71230000      48.62520000      51.61770000
C       57.22040000      51.46180000      51.38470000
C       51.40590000      42.72280000      48.47270000
C       51.38830000      57.32020000      51.52440000
C       48.57510000      42.59970000      51.34960000
C       51.35320000      51.36930000      57.70590000
C       51.46730000      48.52680000      42.55810000
C       48.77270000      51.40600000      42.88270000
C       57.23420000      48.71320000      51.34250000
C       48.55150000      57.15490000      51.41310000
C       48.68860000      48.56550000      42.61880000
C       42.64470000      51.39210000      51.49220000
C       42.61270000      48.42940000      48.74160000
C       57.47350000      51.50630000      48.49400000
C       51.41350000      42.87690000      51.23350000
C       51.51640000      57.53570000      48.75860000
C       48.51040000      42.57570000      48.57040000
C       51.53280000      51.42140000      42.71240000
C       51.22690000      48.54020000      57.46200000
C       48.55900000      51.45480000      57.81050000
C       43.41220000      48.98620000      47.63800000
C       47.41350000      43.25620000      49.23780000
C       49.32630000      47.43110000      43.22480000
C       56.81500000      50.86210000      47.37120000
C       56.30800000      49.32550000      52.33140000
C       43.48740000      50.86440000      52.57450000
C       52.60160000      56.84750000      49.40480000
C       52.43240000      43.64750000      50.52340000
C       47.51960000      56.40100000      50.69780000
C       50.98430000      52.47280000      43.57800000
C       50.51080000      47.54110000      56.70100000
C       49.23270000      52.50600000      57.11680000
C       43.49530000      49.35010000      52.61680000
C       47.43780000      43.21660000      50.72750000
C       49.02490000      47.53920000      56.69850000
C       56.30850000      50.83150000      52.36990000
C       56.90030000      49.37460000      47.34330000
C       43.33930000      50.47470000      47.59340000
C       52.54320000      56.70530000      50.88360000
C       52.46420000      43.58320000      49.01520000
C       47.55220000      56.43500000      49.18860000
C       50.69830000      52.46990000      57.07580000
C       50.81630000      47.42390000      43.24560000
C       49.47600000      52.43600000      43.64380000
C       54.38390000      51.83430000      54.07350000
C       54.48390000      55.06610000      51.58040000
C       50.69550000      54.25950000      55.54520000
C       45.05270000      48.60470000      54.53480000
C       44.82090000      51.06140000      45.71900000
C       55.55230000      48.66790000      45.35170000
C       45.42130000      44.49630000      51.45500000
C       45.85590000      54.53830000      48.11020000
C       54.22700000      45.41930000      47.91810000
C       48.03940000      45.87200000      54.69760000
C       48.68030000      54.32920000      45.19700000
C       51.53750000      45.48010000      44.85850000
C       55.16670000      51.57720000      45.44870000
C       54.61690000      55.54170000      48.69720000
C       52.06630000      54.23130000      45.42210000
C       45.38560000      47.99570000      45.92690000
C       45.36940000      51.97220000      54.30710000
C       54.36080000      48.31570000      53.95440000
C       45.44920000      44.86330000      48.53860000
C       45.57800000      54.87000000      51.46370000
C       54.29800000      45.24370000      51.29800000
C       48.62050000      45.40010000      44.50800000
C       49.24070000      54.27110000      55.55940000
C       51.11630000      45.70860000      55.18100000
C       52.03240000      53.14260000      44.44110000
C       44.38560000      51.91280000      53.20270000
C       53.09050000      44.53880000      51.43870000
C       48.40820000      46.62320000      44.04460000
C       48.47320000      53.26500000      56.13340000
C       51.40650000      46.84160000      55.78570000
C       55.38390000      48.30340000      52.92390000
C       55.91260000      51.75400000      46.65560000
C       44.35220000      47.97490000      46.98260000
C       46.79640000      55.55800000      51.62000000
C       46.66660000      44.13590000      48.34950000
C       53.41960000      56.05820000      48.46670000
C       51.44290000      53.21060000      56.07240000
C       44.18480000      51.39070000      46.82430000
C       53.13100000      44.44540000      47.96360000
C       48.02420000      46.91740000      55.74180000
C       48.54930000      53.10530000      44.51600000
C       51.71830000      46.68910000      44.11770000
C       56.08400000      48.44240000      46.54330000
C       55.40920000      51.85500000      53.03080000
C       44.34240000      48.43110000      53.33160000
C       46.93840000      55.52910000      48.14980000
C       46.64220000      44.02760000      51.66170000
C       53.25960000      55.78210000      51.75220000
C       50.65590000      58.32450000      50.88480000
C       50.68350000      50.61960000      58.67520000
C       58.26480000      50.81180000      50.75670000
C       49.33690000      41.65630000      50.66890000
C       49.22920000      58.29450000      49.40680000
C       50.77160000      41.74410000      49.21930000
C       49.20140000      49.18950000      58.58610000
C       49.35760000      50.78510000      41.78490000
C       50.78250000      49.31830000      41.62580000
C       41.67940000      49.21850000      50.90400000
C       41.60120000      50.56750000      49.38220000
C       58.44710000      49.41780000      49.27970000
C       50.69080000      58.41900000      49.45620000
C       50.78570000      50.78170000      41.73660000
C       58.41060000      50.84140000      49.29390000
C       49.30840000      41.63460000      49.23690000
C       49.20200000      58.23160000      50.83370000
C       50.79110000      41.77960000      50.64750000
C       49.35020000      49.33140000      41.66430000
C       49.24180000      50.64840000      58.72550000
C       50.63650000      49.16840000      58.55130000
C       41.64260000      49.14750000      49.43610000
C       41.66790000      50.63960000      50.85030000
C       58.28420000      49.39170000      50.74090000
C       50.58050000      43.07840000      47.34430000
C       47.66720000      50.68480000      43.44500000
C       43.18290000      47.42950000      50.99890000
C       49.45880000      56.94040000      47.53400000
C       49.27070000      43.25940000      52.41620000
C       50.68760000      56.66900000      52.58190000
C       52.62660000      49.15360000      43.09130000
C       52.37220000      50.69000000      56.95930000
C       47.35230000      49.42290000      57.16740000
C       56.89580000      52.62320000      50.59670000
C       56.98800000      47.59000000      49.07340000
C       43.06030000      52.38250000      49.19450000
C       50.70160000      43.42210000      52.35360000
C       47.42230000      50.86270000      57.19430000
C       43.04760000      47.32700000      49.55450000
C       49.23590000      56.61070000      52.54350000
C       49.12590000      43.12010000      47.41070000
C       50.89950000      56.98960000      47.59370000
C       52.32420000      49.26800000      56.86830000
C       52.67440000      50.60900000      43.05600000
C       47.62800000      49.25170000      43.29650000
C       56.90170000      52.63290000      49.14020000
C       56.89770000      47.57710000      50.51250000
C       43.03480000      52.48900000      50.63300000
C       46.61590000      53.46920000      45.91400000
C       45.73830000      46.49950000      53.73840000
C       52.68910000      45.31610000      45.67200000
C       53.60050000      46.35970000      45.61500000
C       53.51100000      53.02510000      54.38730000
C       45.79330000      47.42350000      54.76990000
C       54.60520000      54.18690000      52.69190000
C       54.48640000      46.33690000      46.74280000
C       45.67870000      53.54800000      46.98320000
C       47.49950000      54.53530000      45.94380000
C       46.85570000      45.61430000      53.77160000
C       53.52990000      54.19540000      53.55720000
C       46.32820000      53.12210000      54.51280000
C       45.26600000      45.68700000      47.39710000
C       53.40230000      46.00920000      53.32720000
C       53.44910000      47.13620000      54.19750000
C       54.33280000      52.71790000      45.30170000
C       46.30660000      46.81060000      45.64870000
C       54.37720000      53.61530000      46.35680000
C       54.46740000      46.03980000      52.45060000
C       45.34150000      54.13460000      52.65260000
C       46.37900000      54.19130000      53.56500000
C       46.31700000      45.65580000      46.49180000
C       53.23700000      54.48730000      46.34490000
C       44.01990000      53.14630000      48.52440000
C       48.53890000      44.15410000      53.20150000
C       53.47500000      48.47400000      44.00970000
C       56.05630000      46.81180000      48.37110000
C       56.10330000      53.52020000      51.24120000
C       44.12300000      46.59090000      51.64560000
C       51.41500000      55.75080000      53.42120000
C       51.21170000      43.85780000      46.41800000
C       48.91740000      56.06510000      46.63940000
C       46.84760000      51.27460000      44.43540000
C       46.48890000      48.87160000      56.26850000
C       53.04080000      51.36830000      55.92600000
C       43.87490000      53.40090000      51.19430000
C       48.44030000      44.04940000      46.57890000
C       53.01970000      48.69530000      55.80890000
C       56.01330000      46.69770000      51.05240000
C       55.98220000      53.48290000      48.46770000
C       43.81220000      46.40450000      48.89410000
C       51.60170000      56.05080000      46.82300000
C       51.28590000      44.42250000      53.16340000
C       48.52680000      55.69650000      53.39480000
C       46.73110000      51.56270000      56.18360000
C       46.86760000      48.51360000      44.20650000
C       53.59940000      51.24620000      43.83270000
C       47.19460000      44.54740000      47.02170000
C       47.18960000      47.19290000      44.57020000
C       44.32620000      46.69770000      47.59790000
C       52.87650000      55.59580000      47.20480000
C       52.53070000      44.93180000      52.76160000
C       47.27780000      55.21260000      52.97120000
C       53.30770000      52.52640000      44.37960000
C       52.63370000      47.43830000      55.32370000
C       47.18320000      52.80370000      55.66190000
C       55.49330000      53.07020000      47.21200000
C       55.43300000      47.02120000      52.30210000
C       44.37700000      53.15120000      52.50130000
C       47.22110000      44.53250000      52.88500000
C       46.76520000      47.57880000      55.74500000
C       44.67330000      47.05950000      52.84960000
C       52.69180000      55.30710000      53.02560000
C       52.50080000      44.39250000      46.69560000
C       47.63110000      55.52540000      46.90570000
C       52.67130000      52.67850000      55.52120000
C       53.04990000      47.22580000      44.51090000
C       47.21800000      52.55120000      44.89730000
C       55.51800000      53.16070000      52.48520000
C       55.60700000      47.18780000      47.09420000
C       44.56440000      52.69620000      47.31280000
C       55.22940000      45.71090000      50.33190000
C       51.04480000      55.19630000      45.80560000
C       45.71390000      50.99170000      55.32760000
C       44.70270000      54.35370000      50.47420000
C       44.54180000      45.36500000      49.52170000
C       55.43320000      54.62770000      49.19910000
C       49.14410000      44.58040000      45.40720000
C       49.24590000      55.24310000      54.49630000
C       50.50650000      44.97480000      54.27460000
C       53.94990000      49.34710000      54.91360000
C       54.65700000      50.60980000      44.52800000
C       45.86310000      49.04990000      45.04210000
C       55.19290000      45.80510000      48.93520000
C       50.68500000      55.24160000      54.49040000
C       45.76140000      50.47180000      45.01260000
C       44.83090000      54.19500000      49.08730000
C       44.60000000      45.39880000      50.94250000
C       55.42650000      54.59970000      50.62230000
C       49.08370000      44.98120000      54.21080000
C       49.64930000      55.25110000      45.68400000
C       50.56730000      44.56360000      45.37370000
C       54.64190000      49.18610000      44.54120000
C       53.95120000      50.76230000      54.96840000
C       45.55400000      49.59810000      55.42740000
