240
Lattice="100.0 0.0 0.0 0.0 100.0 0.0 0.0 0.0 100.0" Properties=species:S:1:pos:R:3 name=C-71174-8496-753 pressure=-45.3767914460126 spacegroup=C1 times_found=1 energy=-1694.70475259848 pbc="T T T"
C       46.17210000      54.37760000      53.67760000
C       53.81160000      46.41980000      54.85980000
C       54.07560000      53.33260000      46.50780000
C       53.83000000      45.46550000      53.92670000
C       52.65400000      54.96550000      45.65130000
C       47.57360000      45.52460000      45.79750000
C       46.19620000      53.51760000      54.69750000
C       46.59360000      46.54370000      45.69060000
C       53.29450000      53.67190000      45.43090000
C       45.51350000      46.52840000      46.47980000
C       45.10160000      54.26660000      52.75970000
C       54.92010000      45.50220000      53.01160000
C       46.22870000      54.37350000      46.27720000
C       54.31030000      47.12870000      44.90840000
C       54.57680000      53.57000000      53.48910000
C       53.31430000      45.54820000      46.35670000
C       52.74320000      54.72650000      54.36840000
C       46.34620000      45.56120000      53.73280000
C       46.21890000      53.44110000      45.21900000
C       46.31440000      46.48250000      54.69910000
C       53.64390000      53.63540000      54.44190000
C       45.28150000      45.61400000      52.80570000
C       45.11450000      54.36660000      47.15120000
C       54.40910000      46.46630000      46.19400000
C       55.86450000      48.98180000      51.91030000
C       51.74200000      55.68390000      49.27610000
C       49.24800000      51.87960000      55.96660000
C       43.99320000      50.70610000      51.88360000
C       43.91770000      49.23110000      48.30240000
C       55.62890000      50.44850000      48.17540000
C       48.30160000      44.19730000      49.34540000
C       48.01330000      55.52560000      50.75760000
C       51.99940000      44.15340000      51.09040000
C       50.82050000      48.17240000      56.05170000
C       50.78090000      51.85160000      43.73520000
C       49.23230000      48.57550000      44.32390000
C       55.83680000      49.04830000      48.29150000
C       51.76860000      55.66330000      50.83170000
C       49.39370000      52.03920000      43.88800000
C       43.32000000      50.53950000      48.36560000
C       44.04190000      49.11710000      51.93270000
C       55.77530000      50.54140000      51.86960000
C       48.27440000      44.36280000      50.89740000
C       48.01270000      55.51580000      49.22290000
C       52.06260000      43.94120000      49.58480000
C       50.42810000      48.52370000      43.53950000
C       50.79820000      51.83520000      55.81570000
C       49.24220000      48.19910000      56.02640000
C       50.93700000      44.03400000      48.57950000
C       48.34800000      50.96150000      44.03920000
C       44.02620000      48.18410000      50.75520000
C       49.17040000      55.57880000      48.27270000
C       49.41470000      44.40260000      51.93590000
C       50.56490000      55.71600000      51.75780000
C       51.62800000      49.31050000      43.70660000
C       51.78300000      50.69030000      55.74570000
C       48.24940000      49.32390000      55.87610000
C       55.61680000      51.50190000      50.69650000
C       55.71110000      48.04010000      49.37130000
C       43.68140000      51.64940000      49.25400000
C       50.81510000      44.33740000      52.00910000
C       48.23890000      50.74160000      55.87660000
C       44.15230000      48.22860000      49.33890000
C       49.16160000      55.54800000      51.75070000
C       49.52390000      44.15940000      48.47690000
C       50.54620000      55.84830000      48.36370000
C       51.81080000      49.29120000      55.85540000
C       51.72120000      50.71000000      43.94670000
C       48.24630000      49.60490000      44.36630000
C       55.50490000      51.46670000      49.27530000
C       55.86510000      48.03100000      50.77290000
C       43.85410000      51.64280000      50.70560000
C       55.06520000      48.27090000      44.47140000
C       45.45720000      54.92110000      48.52810000
C       48.78470000      45.67200000      55.55940000
C       45.25730000      52.37130000      45.21000000
C       44.69740000      48.61340000      54.41050000
C       55.37980000      51.13580000      54.38130000
C       54.50550000      44.37860000      49.14840000
C       54.24410000      55.06210000      51.33160000
C       45.60630000      44.95750000      51.51370000
C       51.49060000      54.49660000      55.11180000
C       52.23160000      45.43010000      45.43620000
C       49.10330000      54.70790000      44.38550000
C       55.37400000      48.57540000      54.42840000
C       45.40000000      54.91400000      51.42050000
C       48.90900000      45.85140000      45.12140000
C       44.66380000      51.27770000      54.36660000
C       44.52760000      49.41600000      45.78990000
C       55.31160000      50.76390000      45.52610000
C       54.64550000      44.76290000      51.75200000
C       54.13780000      55.03230000      48.66510000
C       45.88710000      44.77260000      48.81430000
C       51.62940000      55.59900000      44.86990000
C       51.26510000      45.62960000      55.64850000
C       48.88630000      54.33730000      55.46720000
C       49.34510000      44.83970000      54.51710000
C       54.09100000      49.25510000      44.06780000
C       44.55080000      54.02230000      49.28020000
C       50.56590000      55.36030000      54.28390000
C       51.13420000      44.77530000      46.10090000
C       49.29720000      55.41560000      45.65900000
C       45.89460000      51.18490000      44.68620000
C       45.73910000      49.28520000      55.20700000
C       54.34270000      50.62950000      55.22690000
C       55.30300000      45.52880000      49.40980000
C       54.99030000      53.99880000      50.65510000
C       44.74610000      45.77280000      50.60950000
C       49.78620000      44.98210000      46.03490000
C       54.34150000      49.23600000      55.26210000
C       44.49860000      54.05560000      50.61410000
C       50.57350000      55.99640000      45.80450000
C       50.73600000      44.80960000      54.57410000
C       49.21300000      55.16920000      54.33500000
C       45.72660000      50.68340000      55.18370000
C       45.75200000      49.81810000      45.06710000
C       54.16340000      50.55140000      44.62120000
C       55.49180000      45.56230000      50.77940000
C       54.87490000      53.94920000      49.25720000
C       44.98540000      45.81900000      49.25310000
C       42.82200000      49.18870000      52.94990000
C       53.02550000      42.68010000      49.90570000
C       50.16520000      54.23240000      42.27510000
C       57.12690000      50.55530000      52.77870000
C       56.92580000      48.45730000      46.09100000
C       42.47020000      50.81570000      47.18190000
C       46.97860000      56.75220000      49.28780000
C       47.28750000      43.08770000      50.96960000
C       52.78480000      56.90960000      50.75760000
C       50.40620000      47.27690000      42.77270000
C       50.98380000      52.85780000      57.08130000
C       49.28290000      47.29160000      57.37290000
C       42.12440000      49.74230000      46.31860000
C       52.98240000      42.83850000      51.30620000
C       49.58940000      52.91070000      57.23890000
C       57.44120000      49.79830000      46.13100000
C       57.18450000      49.14760000      52.81980000
C       42.78660000      50.59940000      52.93620000
C       46.97650000      56.75140000      50.70050000
C       47.30110000      42.98770000      49.56260000
C       52.75710000      56.93090000      49.35280000
C       50.69410000      47.28380000      57.39930000
C       51.46950000      54.14150000      42.85530000
C       49.08830000      46.67650000      42.72070000
C       49.28130000      45.83910000      56.89970000
C       56.32400000      48.69950000      44.78060000
C       45.58460000      56.28050000      49.25290000
C       51.06430000      54.27360000      56.54450000
C       50.91950000      46.12480000      43.49450000
C       49.85200000      55.21420000      43.26470000
C       43.14330000      51.43790000      46.04250000
C       43.36980000      49.22360000      54.33770000
C       56.68630000      50.57650000      54.22330000
C       54.44190000      43.15830000      49.92850000
C       54.17420000      56.37030000      50.68910000
C       45.86600000      43.56470000      50.98570000
C       49.52610000      45.70400000      43.72010000
C       56.70350000      49.17630000      54.25610000
C       45.57380000      56.27380000      50.71670000
C       51.26590000      55.41330000      43.56800000
C       50.68190000      45.82340000      56.94580000
C       49.64030000      54.30300000      56.70410000
C       43.35030000      50.62670000      54.31640000
C       43.26050000      50.09790000      45.50460000
C       56.53820000      50.11610000      45.09100000
C       54.41820000      43.31910000      51.35830000
C       54.14020000      56.35880000      49.29190000
C       45.92090000      43.50060000      49.55700000
C       52.86300000      52.58460000      54.99950000
C       55.06470000      52.66720000      52.64070000
C       52.48580000      55.32490000      53.12000000
C       47.15880000      47.35710000      55.24420000
C       47.34230000      52.98520000      44.48980000
C       53.06850000      47.22080000      44.18210000
C       44.56930000      46.81620000      52.62000000
C       44.25600000      53.26200000      47.20660000
C       55.26200000      46.97910000      47.26600000
C       47.45500000      45.08070000      52.96990000
C       47.32900000      54.79010000      47.08810000
C       52.88610000      44.81810000      47.48760000
C       52.81840000      52.73070000      44.45110000
C       54.74650000      52.46840000      47.26980000
C       52.39910000      55.39130000      46.98660000
C       47.28660000      47.69290000      45.17340000
C       47.09710000      52.67910000      55.22970000
C       52.93600000      47.30120000      55.35230000
C       44.88040000      47.35440000      47.30870000
C       44.45440000      53.02300000      52.59050000
C       55.54940000      46.72070000      52.72790000
C       47.74080000      44.86240000      47.03900000
C       47.25720000      54.84150000      52.86850000
C       52.74540000      44.94440000      53.15400000
C       53.08880000      51.29700000      55.40440000
C       55.36870000      52.80210000      51.27560000
C       51.14790000      55.74740000      53.07580000
C       46.96700000      48.70510000      55.57560000
C       47.14280000      51.62870000      44.23000000
C       52.86780000      48.59180000      43.79400000
C       44.18660000      46.87170000      51.26570000
C       44.00640000      52.91740000      48.59440000
C       55.39000000      46.74500000      48.68970000
C       48.74000000      44.68370000      53.23000000
C       48.61430000      55.27810000      46.91280000
C       51.59690000      44.31660000      47.34500000
C       52.98350000      51.30430000      44.40890000
C       55.08190000      52.69430000      48.65460000
C       51.16070000      56.03610000      47.07750000
C       46.96170000      49.05440000      44.88690000
C       46.93860000      51.31370000      55.54510000
C       53.11160000      48.66380000      55.62790000
C       44.64200000      47.04840000      48.67050000
C       44.00870000      52.93130000      51.26250000
C       55.91020000      46.73910000      51.36660000
C       49.08260000      44.48460000      47.15020000
C       48.54470000      55.26320000      53.07450000
C       51.42330000      44.61430000      53.34460000
C       53.20570000      44.62180000      48.78240000
C       48.66050000      53.33690000      44.21510000
C       44.80540000      48.14250000      53.06430000
C       46.97730000      54.75040000      48.44450000
C       47.15640000      45.09980000      51.60160000
C       52.88570000      54.96950000      51.80530000
C       52.08260000      46.20120000      44.27960000
C       51.50800000      52.94260000      55.04940000
C       48.51130000      47.04880000      55.30430000
C       55.07370000      51.32320000      52.99020000
C       56.02350000      48.17940000      47.12000000
C       44.12830000      52.40370000      46.07270000
C       53.10910000      44.87270000      51.80640000
C       48.44940000      53.01550000      55.31590000
C       44.44570000      48.69270000      47.04270000
C       46.92790000      54.77760000      51.51500000
C       47.20100000      44.90760000      48.33600000
C       52.78260000      54.95110000      48.25280000
C       51.58070000      46.99640000      55.39310000
C       51.70170000      52.98990000      43.61730000
C       48.62930000      47.41630000      44.98950000
C       55.24660000      51.15650000      46.91190000
C       55.23930000      48.05450000      53.11140000
C       44.75920000      51.71520000      53.01560000
