240
Lattice="100.0 0.0 0.0 0.0 100.0 0.0 0.0 0.0 100.0" Properties=species:S:1:pos:R:3 name=C-71174-8496-771 pressure=14.8672467122828 spacegroup=C1 times_found=1 energy=-1702.16382942952 pbc="T T T"
C       54.53860000      50.65810000      44.62330000
C       44.73430000      54.49190000      50.77640000
C       50.71940000      44.69250000      54.47440000
C       45.54890000      50.62360000      55.24860000
C       54.45560000      49.31340000      55.30720000
C       45.50240000      49.35450000      44.66080000
C       55.27110000      54.40780000      49.25940000
C       44.67460000      45.55510000      49.27870000
C       55.31870000      45.52730000      50.74080000
C       49.35620000      44.79580000      45.58150000
C       50.67350000      55.23190000      45.50520000
C       49.28400000      55.43860000      54.53120000
C       54.58100000      49.24900000      44.54620000
C       44.56900000      45.48890000      50.68520000
C       50.69150000      55.34490000      54.48500000
C       45.54060000      49.21740000      55.26520000
C       54.43190000      50.71750000      55.29080000
C       45.45880000      50.76270000      44.56590000
C       55.31700000      45.52880000      49.33830000
C       44.75700000      54.49380000      49.37010000
C       55.26560000      54.42450000      50.66420000
C       49.26430000      55.26990000      45.50550000
C       50.76470000      44.75760000      45.56390000
C       49.31690000      44.69970000      54.45850000
C       52.60780000      44.45350000      50.74510000
C       50.73470000      52.61430000      44.33350000
C       44.38360000      50.73130000      52.60950000
C       47.35300000      44.43770000      49.31130000
C       52.60960000      55.51910000      49.22960000
C       47.38480000      55.67190000      50.69490000
C       49.22050000      52.69570000      55.63440000
C       50.73290000      47.40370000      55.54850000
C       49.30220000      47.39520000      44.37730000
C       55.62410000      50.65420000      47.32210000
C       44.42100000      49.39070000      47.34420000
C       55.56440000      49.27310000      52.62160000
C       52.59900000      55.52350000      50.66910000
C       50.73150000      47.36310000      44.33250000
C       44.33830000      49.30350000      52.61980000
C       47.40220000      55.63360000      49.26580000
C       52.60460000      44.46710000      49.30940000
C       47.30550000      44.38010000      50.75240000
C       49.29740000      47.40480000      55.53080000
C       50.66350000      52.66000000      55.59310000
C       49.30500000      52.64690000      44.30160000
C       55.66920000      49.21360000      47.29450000
C       44.37250000      50.83310000      47.30190000
C       55.54940000      50.70940000      52.60980000
C       53.10260000      52.66460000      55.08160000
C       55.07910000      53.13660000      52.64450000
C       52.63450000      55.08030000      53.10980000
C       47.00540000      52.39600000      44.87240000
C       53.03670000      47.61690000      44.88170000
C       46.85670000      47.25860000      55.09640000
C       44.84510000      53.25360000      47.32480000
C       55.19390000      46.80180000      47.33720000
C       44.88180000      47.00490000      52.34790000
C       47.29140000      55.14570000      46.82740000
C       52.74840000      44.89280000      46.86630000
C       47.32900000      44.83600000      53.16780000
C       53.16390000      47.33400000      55.12130000
C       55.11960000      46.84240000      52.69280000
C       52.68070000      44.88890000      53.17290000
C       46.87400000      47.40230000      44.89930000
C       53.16630000      52.61190000      44.85020000
C       46.80040000      52.66260000      55.15910000
C       44.93260000      46.94710000      47.34790000
C       55.10660000      53.08750000      47.30120000
C       44.87770000      53.16600000      52.73290000
C       47.36340000      44.96690000      46.87350000
C       52.66890000      55.05550000      46.79220000
C       47.64590000      55.11730000      52.99320000
C       54.75320000      48.21800000      53.22310000
C       53.19060000      54.68290000      48.17480000
C       48.11790000      53.33170000      54.86720000
C       45.27340000      48.32230000      46.78850000
C       54.78090000      51.71050000      46.74120000
C       45.25410000      51.74200000      53.18900000
C       46.81390000      54.83390000      51.85280000
C       53.21340000      45.26080000      51.80040000
C       46.80170000      45.30160000      48.25310000
C       51.79570000      53.16530000      45.18930000
C       48.24440000      46.85520000      45.24710000
C       51.79020000      46.79770000      54.74630000
C       54.71670000      51.76440000      53.18890000
C       53.20800000      45.29850000      48.28830000
C       48.27900000      46.80940000      54.68920000
C       45.14100000      51.93280000      46.66640000
C       54.90570000      48.10950000      46.66230000
C       45.17150000      48.14310000      53.18360000
C       46.66380000      45.13570000      51.85690000
C       53.17100000      54.70080000      51.73790000
C       46.82150000      54.77230000      48.24980000
C       51.88620000      46.80340000      45.17780000
C       48.15450000      53.21520000      45.15140000
C       51.72550000      53.22130000      54.74430000
C       50.75500000      50.72670000      42.66860000
C       42.73940000      50.81800000      50.71140000
C       50.73380000      42.81950000      50.72920000
C       49.25430000      50.73410000      57.19730000
C       50.71250000      49.27240000      57.18620000
C       49.27320000      49.26190000      42.68530000
C       57.21140000      50.70060000      49.25640000
C       42.77230000      49.37270000      49.22350000
C       57.19900000      49.26440000      50.74030000
C       49.26450000      42.82070000      49.27640000
C       50.78010000      57.21210000      49.20150000
C       49.30370000      57.28810000      50.63730000
C       50.71720000      49.24510000      42.66340000
C       42.72370000      49.37350000      50.69910000
C       50.77670000      57.22050000      50.64840000
C       49.26560000      49.25960000      57.18430000
C       50.70000000      50.74560000      57.20130000
C       49.31060000      50.74310000      42.65860000
C       57.22110000      49.25540000      49.26600000
C       42.77310000      50.81680000      49.23190000
C       57.18770000      50.71090000      50.73090000
C       49.30310000      57.27090000      49.19130000
C       50.73980000      42.82640000      49.28250000
C       49.26110000      42.80800000      50.72170000
C       51.75880000      43.50040000      48.61290000
C       48.65550000      51.73040000      43.38360000
C       43.42240000      48.68560000      51.68550000
C       48.24380000      43.46400000      51.41350000
C       51.74330000      56.49220000      51.34400000
C       48.27240000      56.58270000      48.54680000
C       51.36080000      51.76380000      56.51390000
C       48.59810000      48.23860000      56.50610000
C       51.37560000      48.26720000      43.39770000
C       56.57240000      48.55640000      48.24730000
C       43.45360000      51.50360000      48.22910000
C       56.49410000      51.38980000      51.73170000
C       51.76510000      56.48480000      48.53640000
C       48.60520000      48.28170000      43.43070000
C       43.42910000      51.45530000      51.74840000
C       48.31400000      56.58620000      51.32030000
C       51.74220000      43.49760000      51.41750000
C       48.25280000      43.51950000      48.61460000
C       51.40240000      48.27150000      56.50360000
C       48.55850000      51.74910000      56.53940000
C       51.42790000      51.71660000      43.39650000
C       56.53160000      51.35590000      48.22930000
C       43.49310000      48.69680000      48.23460000
C       56.51780000      48.58990000      51.75390000
C       45.65410000      46.05020000      48.39470000
C       48.40530000      45.72060000      46.00930000
C       45.99920000      48.45970000      45.62790000
C       54.37580000      45.98710000      51.65530000
C       45.63790000      54.11460000      51.77600000
C       54.34140000      53.94270000      48.33250000
C       51.64250000      45.63310000      54.02340000
C       48.24330000      54.52550000      54.16370000
C       51.62930000      54.31050000      45.93140000
C       54.01850000      48.37290000      54.37710000
C       46.01170000      51.55750000      54.31870000
C       54.05200000      51.56540000      45.58330000
C       45.68250000      54.03000000      48.43230000
C       48.24770000      54.38160000      45.87950000
C       45.83930000      51.80240000      45.47300000
C       54.33060000      53.97290000      51.59340000
C       45.47290000      45.84120000      51.73830000
C       54.36280000      46.02920000      48.44750000
C       51.58440000      54.37000000      54.00080000
C       48.43840000      45.66050000      53.95010000
C       51.79130000      45.64440000      45.91730000
C       53.97100000      51.62410000      54.34010000
C       45.90220000      48.21800000      54.35350000
C       54.20640000      48.22040000      45.46690000
C       54.13290000      53.90420000      54.96400000
C       54.96180000      54.15680000      53.88270000
C       53.87590000      54.98330000      54.13090000
C       44.90060000      55.19690000      45.27400000
C       55.14610000      44.82080000      45.33290000
C       46.11280000      45.95570000      55.14750000
C       44.88180000      54.38010000      46.36160000
C       55.16010000      45.65700000      46.40460000
C       45.31620000      44.86610000      55.13590000
C       45.99660000      55.18890000      46.06690000
C       54.04790000      44.83870000      46.11820000
C       46.39360000      44.85590000      54.30840000
C       54.17890000      46.08760000      55.01780000
C       55.00740000      45.82440000      53.93790000
C       53.92170000      45.00050000      54.19640000
C       45.85810000      46.16140000      45.02430000
C       54.18960000      53.85530000      44.96800000
C       45.66870000      53.61930000      55.13780000
C       45.03700000      45.91630000      46.11580000
C       55.00470000      54.11270000      46.06050000
C       44.84580000      53.91690000      54.03310000
C       46.11610000      45.08620000      45.85830000
C       53.92610000      54.93860000      45.79200000
C       44.85390000      54.70920000      55.12810000
C       51.80730000      43.67390000      52.80580000
C       52.80750000      51.76210000      43.63300000
C       43.64930000      52.83510000      51.83500000
C       48.22970000      43.75630000      47.23600000
C       51.80760000      56.27490000      47.15240000
C       48.37890000      56.29450000      52.68420000
C       47.17480000      51.75890000      56.35280000
C       52.78960000      48.21530000      56.32770000
C       47.22740000      48.23890000      43.67140000
C       56.30880000      52.73470000      48.18640000
C       43.71560000      47.31320000      48.18530000
C       56.33560000      47.20290000      51.82060000
C       51.79830000      56.29980000      52.73290000
C       52.73850000      48.33130000      43.69170000
C       43.70800000      47.32170000      51.61190000
C       48.20200000      56.35980000      47.16780000
C       51.84030000      43.68080000      47.22510000
C       48.22270000      43.63380000      52.79650000
C       47.20960000      48.14860000      56.32430000
C       52.74110000      51.80000000      56.29400000
C       47.29480000      51.66870000      43.68840000
C       56.39570000      47.17370000      48.23360000
C       43.64190000      52.88750000      48.21920000
C       56.29600000      52.77310000      51.77530000
C       50.74280000      43.46200000      53.67680000
C       53.71030000      50.73450000      43.41270000
C       43.49390000      53.71080000      50.76620000
C       49.30980000      43.56870000      46.37610000
C       50.72540000      56.46440000      46.29360000
C       49.34800000      56.58960000      53.64370000
C       46.33150000      50.65830000      56.49330000
C       53.64530000      49.29720000      56.52920000
C       46.32210000      49.26290000      43.44530000
C       56.50110000      53.61190000      49.25200000
C       43.47250000      46.39490000      49.19210000
C       56.55060000      46.32250000      50.76360000
C       50.78270000      56.54630000      53.64260000
C       53.70150000      49.29790000      43.38940000
C       43.41850000      46.37560000      50.62710000
C       49.28460000      56.49920000      46.30330000
C       50.75040000      43.53350000      46.37070000
C       49.30090000      43.45910000      53.66130000
C       46.33900000      49.21840000      56.49600000
C       53.61970000      50.74060000      56.51060000
C       46.32980000      50.69920000      43.40370000
C       56.56090000      46.32000000      49.32160000
C       43.50410000      53.72560000      49.32590000
C       56.49770000      53.63070000      50.69540000
