240
Lattice="100.0 0.0 0.0 0.0 100.0 0.0 0.0 0.0 100.0" Properties=species:S:1:pos:R:3 name=C-71174-8496-702 pressure=-0.00521901234579741 energy=-1791.6556987219 spacegroup=Cs times_found=1 pbc="T T T"
C       50.90200000      52.62560000      43.99820000
C       43.80700000      50.72340000      52.63470000
C       52.70070000      43.94380000      50.61690000
C       49.12330000      52.60800000      56.10030000
C       50.77830000      47.42150000      56.19800000
C       49.17870000      47.41510000      43.91920000
C       56.22660000      50.64530000      47.32930000
C       43.83400000      49.28840000      47.38180000
C       56.11070000      49.19110000      52.57280000
C       47.36600000      43.91720000      49.40640000
C       52.61920000      56.14710000      49.37040000
C       47.29470000      56.14050000      50.63030000
C       50.64180000      47.36110000      43.90600000
C       43.76870000      49.27200000      52.63950000
C       52.57970000      56.07000000      50.82720000
C       49.32790000      47.37750000      56.17280000
C       50.58870000      52.64020000      56.09610000
C       49.42370000      52.66870000      43.96900000
C       56.28720000      49.19690000      47.31930000
C       43.78570000      50.73880000      47.37770000
C       56.13140000      50.65070000      52.56520000
C       47.33480000      56.11500000      49.16610000
C       52.65380000      43.94930000      49.13920000
C       47.41160000      43.97000000      50.87150000
C       49.25020000      57.57590000      49.29120000
C       49.25130000      49.29040000      57.57590000
C       57.67250000      49.25710000      49.25590000
C       50.66550000      57.54750000      50.77160000
C       49.33980000      42.53770000      50.77520000
C       50.73500000      42.51810000      49.28950000
C       50.73410000      49.29030000      42.51790000
C       49.33870000      50.77590000      42.53790000
C       50.66650000      50.77100000      57.54750000
C       42.36030000      49.28490000      50.71810000
C       57.59620000      50.68640000      50.68540000
C       42.36010000      50.71710000      49.28600000
C       49.29530000      42.51390000      49.33830000
C       49.22270000      50.72680000      57.55010000
C       57.62890000      50.69950000      49.24840000
C       50.78010000      42.54200000      50.72840000
C       49.22180000      57.54990000      50.72760000
C       50.69440000      57.58230000      49.33870000
C       50.77900000      50.72920000      42.54200000
C       49.29430000      49.33890000      42.51400000
C       50.69550000      49.33810000      57.58210000
C       42.36200000      50.72560000      50.72670000
C       57.62910000      49.24940000      50.69840000
C       42.37270000      49.27660000      49.27760000
C       46.33480000      44.63800000      51.56520000
C       51.28860000      46.24150000      44.48020000
C       44.42030000      51.43110000      46.29840000
C       53.72030000      44.59440000      48.41460000
C       46.28050000      55.42250000      48.45910000
C       53.63890000      55.35010000      51.50070000
C       48.70870000      46.26570000      55.55550000
C       51.24480000      53.73740000      55.49610000
C       48.75130000      53.77340000      44.53290000
C       55.50240000      51.34410000      53.64090000
C       44.39420000      48.58210000      53.72650000
C       55.65050000      48.51430000      46.23660000
C       46.20350000      55.53910000      51.29990000
C       51.60780000      53.69050000      44.66530000
C       44.51810000      48.64100000      46.30290000
C       53.70740000      55.52770000      48.67700000
C       46.26620000      44.49890000      48.72980000
C       53.81110000      44.51230000      51.27700000
C       48.43610000      53.68590000      55.44470000
C       51.47510000      46.34270000      55.57960000
C       48.48710000      46.33590000      44.57420000
C       55.40400000      48.51890000      53.64050000
C       44.47690000      51.37490000      53.71990000
C       55.59210000      51.28540000      46.24220000
C       47.07920000      44.55950000      46.26040000
C       46.14720000      47.32760000      44.39070000
C       44.57280000      46.21220000      47.21970000
C       53.06210000      44.72950000      53.75670000
C       47.02590000      55.46470000      53.76710000
C       52.85120000      55.70440000      46.25230000
C       53.85370000      47.30010000      55.68640000
C       46.09080000      52.70150000      55.63650000
C       54.01700000      52.71450000      44.46540000
C       55.61140000      46.06920000      52.71420000
C       44.52680000      53.80500000      52.79870000
C       55.35670000      53.73400000      47.06440000
C       47.28310000      55.59090000      46.04350000
C       46.26800000      53.01670000      44.69900000
C       44.27710000      53.83710000      47.20280000
C       52.67750000      55.53450000      53.92900000
C       47.31730000      44.45430000      53.97630000
C       52.71330000      44.40670000      46.00990000
C       53.71130000      52.95270000      55.27640000
C       46.23200000      47.00350000      55.35150000
C       53.77280000      46.95930000      44.64020000
C       55.64160000      53.74950000      52.72300000
C       44.29330000      46.17920000      52.80910000
C       55.76510000      46.11100000      47.13430000
C       47.02610000      53.76620000      55.46540000
C       55.35760000      47.06480000      53.73300000
C       53.85260000      55.68720000      47.30010000
C       53.06080000      53.75760000      44.72950000
C       47.07900000      46.26050000      44.55950000
C       52.85250000      46.25220000      55.70370000
C       44.57270000      47.21940000      46.21270000
C       55.61050000      52.71530000      46.06870000
C       44.52700000      52.79760000      53.80600000
C       46.09040000      55.63570000      52.70260000
C       54.01820000      44.46560000      52.71340000
C       46.14760000      44.39040000      47.32760000
C       47.28440000      46.04260000      55.59090000
C       55.64170000      52.72340000      53.74890000
C       53.77310000      44.64100000      46.95820000
C       52.71310000      46.01080000      44.40590000
C       47.31600000      53.97640000      44.45510000
C       52.67770000      53.92880000      55.53450000
C       44.29240000      52.80870000      46.18020000
C       55.76490000      47.13540000      46.10990000
C       44.27800000      47.20170000      53.83760000
C       46.26920000      44.69820000      53.01670000
C       53.71100000      55.27670000      52.95270000
C       46.23080000      55.35120000      47.00450000
C       47.29540000      50.62940000      56.14100000
C       56.22710000      47.33010000      50.64420000
C       50.77710000      56.19840000      47.42200000
C       52.69980000      50.61790000      43.94350000
C       47.36520000      49.40660000      43.91750000
C       52.62010000      49.37020000      56.14660000
C       43.83430000      47.38100000      49.28900000
C       56.11030000      52.57370000      49.19060000
C       43.80680000      52.63380000      50.72450000
C       49.12280000      56.10000000      52.60870000
C       50.90320000      43.99810000      52.62500000
C       49.17920000      43.91930000      47.41460000
C       47.33570000      49.16520000      56.11530000
C       56.13110000      52.56590000      50.65010000
C       50.64230000      43.90630000      47.36040000
C       52.65310000      49.14020000      43.94890000
C       47.41070000      50.87170000      43.97040000
C       52.58040000      50.82700000      56.06970000
C       43.76820000      52.63870000      49.27310000
C       56.28750000      47.32020000      49.19580000
C       43.78610000      47.37680000      50.73940000
C       49.42490000      43.96870000      52.66820000
C       50.58820000      56.09590000      52.64070000
C       49.32670000      56.17290000      47.37820000
C       54.84690000      45.32270000      46.37200000
C       46.94390000      55.30260000      44.71420000
C       45.17160000      46.42800000      54.64150000
C       45.18860000      45.38250000      53.58840000
C       54.77690000      54.56400000      53.51380000
C       45.17040000      54.64120000      46.42910000
C       53.05020000      55.25030000      55.25040000
C       46.94530000      44.71330000      55.30250000
C       53.05790000      44.67710000      44.67620000
C       54.84670000      46.37310000      45.32170000
C       45.18750000      53.58810000      45.38350000
C       54.77700000      53.51400000      54.56360000
C       54.66310000      54.81360000      46.51160000
C       46.21580000      45.37690000      45.37700000
C       45.15170000      53.40530000      54.89670000
C       45.15150000      54.89580000      53.40640000
C       55.34200000      44.74490000      53.08420000
C       45.20550000      45.12310000      46.61890000
C       53.63260000      45.44450000      54.82080000
C       46.16420000      54.64640000      54.64740000
C       53.63130000      54.82170000      45.44450000
C       55.34090000      53.08550000      44.74440000
C       45.20530000      46.61870000      45.12350000
C       54.66420000      46.51180000      54.81270000
C       51.24450000      55.49590000      53.73780000
C       53.63940000      51.50070000      55.34970000
C       55.50210000      53.64160000      51.34370000
C       48.70740000      55.55570000      46.26640000
C       51.28880000      44.48080000      46.24080000
C       48.75250000      44.53240000      53.77310000
C       46.33380000      51.56520000      44.63860000
C       53.71980000      48.41560000      44.59370000
C       46.28140000      48.45810000      55.42290000
C       44.39350000      53.72590000      48.58320000
C       55.65080000      46.23750000      48.51310000
C       44.42100000      46.29750000      51.43150000
C       51.60900000      44.66520000      53.68980000
C       53.70830000      48.67700000      55.52710000
C       55.59280000      46.24280000      51.28430000
C       48.48740000      44.57440000      46.33560000
C       51.47380000      55.58010000      46.34300000
C       48.43590000      55.44410000      53.68660000
C       46.26560000      48.72980000      44.49930000
C       53.81010000      51.27800000      44.51190000
C       46.20410000      51.29880000      55.53970000
C       44.51840000      46.30220000      48.64140000
C       55.40330000      53.64140000      48.51850000
C       44.47660000      53.71900000      51.37600000
C       54.73000000      45.33350000      49.14870000
C       49.45400000      54.72060000      45.34830000
C       45.28930000      49.21210000      54.66100000
C       45.33430000      45.37870000      50.80660000
C       54.61040000      54.57800000      50.71800000
C       45.28860000      54.66040000      49.21320000
C       50.52650000      54.67670000      54.67710000
C       49.45530000      45.34780000      54.72020000
C       50.57050000      45.31490000      45.31440000
C       54.72940000      49.14980000      45.33280000
C       45.33360000      50.80640000      45.37940000
C       54.61090000      50.71820000      54.57740000
C       54.61730000      54.60570000      49.30140000
C       49.17640000      45.37710000      45.37680000
C       45.27290000      50.62460000      54.68230000
C       45.27230000      54.68160000      50.62570000
C       54.76240000      45.30690000      50.55490000
C       45.32460000      45.35210000      49.39560000
C       50.85860000      45.40630000      54.68240000
C       49.12910000      54.63610000      54.63660000
C       50.85740000      54.68290000      45.40660000
C       54.76170000      50.55600000      45.30630000
C       45.32400000      49.39540000      45.35270000
C       54.61800000      49.30160000      54.60500000
C       56.70810000      51.41000000      48.49460000
C       48.44690000      56.64260000      51.41660000
C       51.47590000      48.61370000      56.70360000
C       43.28110000      51.45820000      51.45920000
C       56.70850000      48.49540000      51.40900000
C       43.30230000      48.55070000      48.55140000
C       51.47480000      56.70390000      48.61410000
C       48.51380000      43.40090000      48.62460000
C       51.55500000      43.45360000      51.41570000
C       48.51310000      48.62500000      43.40100000
C       51.55400000      51.41650000      43.45350000
C       48.44770000      51.41570000      56.64300000
C       56.82210000      48.48580000      48.48480000
C       48.63180000      43.44920000      51.53320000
C       51.37820000      51.50740000      56.61690000
C       43.24540000      48.53980000      51.46960000
C       56.66410000      51.40260000      51.40190000
C       43.24500000      51.46880000      48.54090000
C       51.43850000      43.40770000      48.50010000
C       48.53710000      56.67610000      48.51510000
C       51.37750000      56.61690000      51.50780000
C       48.63070000      51.53370000      43.44950000
C       51.43780000      48.50090000      43.40740000
C       48.53820000      48.51430000      56.67610000
