240
Lattice="100.0 0.0 0.0 0.0 100.0 0.0 0.0 0.0 100.0" Properties=species:S:1:pos:R:3 name=C-71174-8496-413 pressure=0.0150332739553823 spacegroup=Td times_found=1 energy=-1771.26593235863 pbc="T T T"
C       51.20550000      55.85760000      46.22570000
C       55.85780000      46.22610000      51.20580000
C       46.22600000      51.20580000      55.85770000
C       51.20600000      44.14250000      53.77430000
C       48.79410000      55.85780000      53.77390000
C       48.79440000      44.14210000      46.22610000
C       55.85760000      53.77430000      48.79400000
C       44.14240000      46.22570000      48.79450000
C       44.14220000      53.77390000      51.20570000
C       46.22580000      48.79400000      44.14240000
C       53.77400000      51.20570000      44.14220000
C       53.77420000      48.79460000      55.85770000
C       51.20600000      46.22610000      55.85780000
C       55.85760000      51.20580000      46.22580000
C       46.22570000      55.85760000      51.20560000
C       51.20550000      53.77400000      44.14220000
C       48.79420000      53.77420000      55.85760000
C       48.79430000      46.22570000      44.14240000
C       55.85780000      48.79460000      53.77400000
C       44.14230000      48.79390000      46.22600000
C       44.14230000      51.20570000      53.77420000
C       46.22610000      44.14210000      48.79450000
C       53.77430000      44.14250000      51.20590000
C       53.77390000      55.85780000      48.79400000
C       52.59450000      43.42090000      51.54970000
C       43.42080000      51.54940000      52.59430000
C       51.54940000      52.59410000      43.42070000
C       52.59400000      56.57930000      48.45020000
C       47.40590000      43.42070000      48.45070000
C       47.40550000      56.57920000      51.54940000
C       43.42080000      48.45020000      47.40590000
C       56.57910000      51.54970000      47.40560000
C       56.57930000      48.45070000      52.59420000
C       51.54970000      47.40600000      56.57930000
C       48.45050000      52.59440000      56.57920000
C       48.45040000      47.40550000      43.42090000
C       52.59410000      51.54940000      43.42070000
C       43.42070000      52.59410000      51.54960000
C       51.54980000      43.42090000      52.59440000
C       52.59440000      48.45070000      56.57920000
C       47.40570000      48.45020000      43.42090000
C       47.40580000      51.54970000      56.57920000
C       43.42080000      47.40550000      48.45060000
C       56.57930000      47.40600000      51.54950000
C       56.57910000      52.59440000      48.45030000
C       51.54930000      56.57920000      47.40550000
C       48.45030000      56.57920000      52.59410000
C       48.45060000      43.42070000      47.40600000
C       51.47780000      47.51370000      43.64090000
C       47.51400000      43.64080000      51.47810000
C       43.64070000      51.47760000      47.51390000
C       51.47790000      52.48640000      56.35910000
C       48.52230000      47.51400000      56.35930000
C       48.52200000      52.48590000      43.64080000
C       47.51360000      56.35910000      48.52200000
C       52.48640000      43.64080000      48.52230000
C       52.48600000      56.35930000      51.47760000
C       43.64090000      48.52200000      52.48630000
C       56.35920000      51.47810000      52.48600000
C       56.35920000      48.52230000      47.51380000
C       51.47800000      43.64080000      47.51400000
C       47.51370000      51.47760000      43.64080000
C       43.64090000      47.51370000      51.47800000
C       51.47770000      56.35930000      52.48600000
C       48.52190000      56.35910000      47.51360000
C       48.52240000      43.64080000      52.48640000
C       47.51400000      48.52230000      56.35930000
C       52.48610000      48.52200000      43.64080000
C       52.48620000      51.47810000      56.35910000
C       43.64070000      52.48590000      48.52220000
C       56.35910000      52.48640000      51.47770000
C       56.35920000      47.51400000      48.52210000
C       55.31520000      48.74280000      46.63390000
C       48.74290000      46.63410000      55.31530000
C       46.63380000      55.31510000      48.74260000
C       55.31520000      51.25750000      53.36590000
C       44.68490000      48.74270000      53.36610000
C       44.68470000      51.25700000      46.63400000
C       48.74250000      53.36580000      44.68470000
C       51.25730000      46.63390000      44.68490000
C       51.25720000      53.36620000      55.31510000
C       46.63420000      44.68470000      51.25750000
C       53.36590000      55.31540000      51.25700000
C       53.36620000      44.68490000      48.74280000
C       55.31530000      46.63410000      48.74280000
C       48.74250000      55.31510000      46.63380000
C       46.63410000      48.74280000      55.31530000
C       55.31510000      53.36620000      51.25710000
C       44.68470000      53.36580000      48.74270000
C       44.68490000      46.63390000      51.25750000
C       48.74300000      44.68490000      53.36620000
C       51.25740000      44.68470000      46.63410000
C       51.25710000      55.31540000      53.36580000
C       46.63390000      51.25700000      44.68480000
C       53.36610000      51.25750000      55.31510000
C       53.36600000      48.74270000      44.68480000
C       55.73400000      46.30350000      54.67230000
C       46.30310000      54.67240000      55.73370000
C       54.67210000      55.73380000      46.30290000
C       55.73360000      53.69690000      45.32750000
C       44.26630000      46.30280000      45.32790000
C       44.26620000      53.69680000      54.67230000
C       46.30320000      45.32740000      44.26640000
C       53.69660000      54.67230000      44.26600000
C       53.69710000      45.32800000      55.73390000
C       54.67260000      44.26650000      53.69690000
C       45.32750000      55.73370000      53.69670000
C       45.32780000      44.26600000      46.30340000
C       55.73360000      54.67240000      46.30290000
C       46.30300000      55.73380000      54.67220000
C       54.67250000      46.30350000      55.73380000
C       55.73400000      45.32800000      53.69690000
C       44.26630000      45.32740000      46.30340000
C       44.26610000      54.67230000      53.69680000
C       46.30330000      44.26600000      45.32790000
C       53.69710000      44.26650000      54.67240000
C       53.69660000      55.73370000      45.32740000
C       54.67210000      53.69680000      44.26600000
C       45.32760000      53.69690000      55.73370000
C       45.32770000      46.30280000      44.26640000
C       54.66850000      52.24520000      44.33430000
C       52.24550000      44.33470000      54.66880000
C       44.33430000      54.66860000      52.24510000
C       54.66880000      47.75510000      55.66560000
C       45.33130000      52.24520000      55.66560000
C       45.33130000      47.75450000      44.33460000
C       52.24490000      55.66550000      45.33110000
C       47.75490000      44.33420000      45.33150000
C       47.75470000      55.66560000      54.66850000
C       44.33460000      45.33110000      47.75500000
C       55.66540000      54.66880000      47.75460000
C       55.66570000      45.33160000      52.24520000
C       54.66890000      44.33470000      52.24530000
C       52.24500000      54.66860000      44.33430000
C       44.33440000      52.24520000      54.66870000
C       54.66850000      55.66560000      47.75460000
C       45.33120000      55.66550000      52.24510000
C       45.33150000      44.33420000      47.75510000
C       52.24540000      45.33160000      55.66570000
C       47.75490000      45.33110000      44.33460000
C       47.75470000      54.66880000      55.66550000
C       44.33440000      47.75450000      45.33150000
C       55.66570000      47.75510000      54.66870000
C       55.66540000      52.24520000      45.33120000
C       55.12630000      54.11500000      50.03770000
C       54.11490000      50.03820000      55.12640000
C       50.03780000      55.12660000      54.11470000
C       55.12660000      45.88530000      49.96210000
C       44.87340000      54.11470000      49.96210000
C       44.87370000      45.88500000      50.03810000
C       54.11470000      49.96210000      44.87350000
C       45.88510000      50.03760000      44.87360000
C       45.88530000      49.96210000      55.12650000
C       50.03800000      44.87340000      45.88530000
C       49.96190000      55.12630000      45.88500000
C       49.96230000      44.87370000      54.11500000
C       55.12650000      50.03820000      54.11470000
C       54.11470000      55.12660000      50.03770000
C       50.03790000      54.11500000      55.12630000
C       55.12640000      49.96210000      45.88510000
C       44.87360000      49.96210000      54.11490000
C       44.87350000      50.03760000      45.88530000
C       54.11500000      44.87370000      49.96220000
C       45.88530000      44.87340000      50.03810000
C       45.88500000      55.12630000      49.96200000
C       50.03800000      45.88500000      44.87370000
C       49.96230000      45.88530000      55.12660000
C       49.96190000      54.11470000      44.87340000
C       50.66830000      57.31670000      48.29560000
C       57.31670000      48.29610000      50.66850000
C       48.29600000      50.66870000      57.31670000
C       50.66880000      42.68340000      51.70440000
C       49.33120000      57.31670000      51.70390000
C       49.33160000      42.68320000      48.29610000
C       57.31660000      51.70440000      49.33130000
C       42.68340000      48.29560000      49.33160000
C       42.68330000      51.70390000      50.66860000
C       48.29580000      49.33120000      42.68340000
C       51.70400000      50.66840000      42.68330000
C       51.70430000      49.33170000      57.31670000
C       50.66870000      48.29610000      57.31670000
C       57.31660000      50.66870000      48.29570000
C       48.29560000      57.31660000      50.66840000
C       50.66840000      51.70390000      42.68330000
C       49.33150000      51.70440000      57.31660000
C       49.33140000      48.29560000      42.68340000
C       57.31670000      49.33170000      51.70400000
C       42.68330000      49.33110000      48.29600000
C       42.68330000      50.66840000      51.70420000
C       48.29610000      42.68320000      49.33170000
C       51.70440000      42.68340000      50.66880000
C       51.70390000      57.31670000      49.33120000
C       42.66260000      50.69690000      48.25470000
C       50.69710000      48.25440000      42.66270000
C       48.25480000      42.66270000      50.69740000
C       42.66270000      49.30270000      51.74560000
C       57.33730000      50.69750000      51.74530000
C       57.33730000      49.30300000      48.25450000
C       50.69720000      51.74570000      57.33720000
C       49.30300000      48.25480000      57.33740000
C       49.30270000      51.74520000      42.66260000
C       48.25430000      57.33720000      49.30260000
C       51.74570000      42.66270000      49.30300000
C       51.74520000      57.33740000      50.69690000
C       42.66280000      48.25430000      50.69730000
C       50.69740000      42.66270000      48.25480000
C       48.25440000      50.69690000      42.66270000
C       42.66260000      51.74520000      49.30290000
C       57.33730000      51.74570000      50.69700000
C       57.33740000      48.25480000      49.30280000
C       50.69700000      57.33740000      51.74520000
C       49.30260000      57.33720000      48.25430000
C       49.30310000      42.66270000      51.74570000
C       48.25470000      49.30300000      57.33740000
C       51.74530000      49.30270000      42.66270000
C       51.74550000      50.69740000      57.33730000
C       52.34890000      45.63480000      46.62960000
C       45.63490000      46.62940000      52.34900000
C       46.62940000      52.34850000      45.63480000
C       52.34870000      54.36540000      53.37030000
C       47.65140000      45.63480000      53.37070000
C       47.65100000      54.36500000      46.62940000
C       45.63460000      53.37030000      47.65120000
C       54.36530000      46.62960000      47.65120000
C       54.36510000      53.37070000      52.34860000
C       46.62970000      47.65120000      54.36530000
C       53.37050000      52.34900000      54.36510000
C       53.37050000      47.65120000      45.63480000
C       52.34880000      46.62950000      45.63490000
C       45.63470000      52.34850000      46.62950000
C       46.62970000      45.63480000      52.34900000
C       52.34870000      53.37070000      54.36510000
C       47.65100000      53.37030000      45.63470000
C       47.65140000      46.62960000      54.36540000
C       45.63490000      47.65120000      53.37060000
C       54.36520000      47.65130000      46.62950000
C       54.36520000      52.34900000      53.37030000
C       46.62930000      54.36500000      47.65110000
C       53.37040000      54.36540000      52.34860000
C       53.37060000      45.63480000      47.65130000
