240
Lattice="100.0 0.0 0.0 0.0 100.0 0.0 0.0 0.0 100.0" Properties=species:S:1:pos:R:3 name=C-71174-8496-958 pressure=20.1391985229811 spacegroup=Td times_found=1 energy=-1720.07022732019 pbc="T T T"
C       45.15950000      52.95840000      48.79980000
C       52.95840000      48.79960000      45.15950000
C       48.79990000      45.15970000      52.95880000
C       54.84040000      52.95870000      51.20000000
C       54.84040000      47.04150000      48.79970000
C       45.15970000      47.04140000      51.20060000
C       47.04160000      48.79990000      54.84060000
C       47.04120000      51.20000000      45.15960000
C       52.95870000      51.20050000      54.84030000
C       51.20020000      45.15950000      47.04160000
C       51.20030000      54.84050000      52.95830000
C       48.79950000      54.84030000      47.04130000
C       48.79950000      52.95840000      45.15950000
C       45.15970000      48.79980000      52.95880000
C       52.95860000      45.15960000      48.79980000
C       51.20040000      52.95880000      54.84030000
C       48.80000000      47.04160000      54.84060000
C       51.20010000      47.04130000      45.15960000
C       54.84030000      48.79970000      47.04130000
C       45.15940000      51.20010000      47.04160000
C       54.84050000      51.20050000      52.95830000
C       47.04160000      45.15960000      51.20060000
C       52.95850000      54.84050000      51.20000000
C       47.04130000      54.84030000      48.79970000
C       49.36660000      43.99520000      45.84410000
C       43.99540000      45.84370000      49.36700000
C       45.84360000      49.36640000      43.99550000
C       50.63360000      43.99550000      54.15640000
C       50.63310000      56.00450000      45.84360000
C       49.36670000      56.00480000      54.15600000
C       56.00470000      45.84400000      50.63330000
C       56.00450000      54.15630000      49.36630000
C       43.99530000      54.15610000      50.63340000
C       54.15640000      49.36700000      56.00450000
C       54.15590000      50.63320000      43.99520000
C       45.84400000      50.63350000      56.00480000
C       45.84390000      43.99530000      49.36700000
C       49.36650000      45.84360000      43.99550000
C       43.99520000      49.36640000      45.84410000
C       54.15630000      43.99550000      50.63340000
C       45.84370000      56.00460000      50.63330000
C       54.15600000      56.00470000      49.36630000
C       50.63360000      45.84410000      56.00480000
C       49.36680000      54.15640000      56.00450000
C       50.63300000      54.15600000      43.99520000
C       56.00480000      49.36690000      54.15600000
C       43.99550000      50.63340000      54.15640000
C       56.00450000      50.63330000      45.84360000
C       45.38210000      53.58760000      47.38920000
C       53.58770000      47.38910000      45.38230000
C       47.38940000      45.38240000      53.58810000
C       54.61770000      53.58800000      52.61050000
C       54.61770000      46.41220000      47.38920000
C       45.38250000      46.41220000      52.61110000
C       46.41240000      47.38930000      54.61790000
C       46.41200000      52.61060000      45.38230000
C       53.58790000      52.61100000      54.61750000
C       52.61080000      45.38220000      46.41230000
C       52.61090000      54.61790000      53.58750000
C       47.38900000      54.61750000      46.41210000
C       47.38900000      53.58760000      45.38230000
C       45.38250000      47.38920000      53.58810000
C       53.58780000      45.38230000      47.38920000
C       52.61090000      53.58800000      54.61750000
C       47.38940000      46.41230000      54.61790000
C       52.61070000      46.41210000      45.38230000
C       54.61760000      47.38910000      46.41210000
C       45.38210000      52.61060000      46.41230000
C       54.61780000      52.61100000      53.58750000
C       46.41240000      45.38230000      52.61110000
C       53.58780000      54.61790000      52.61050000
C       46.41200000      54.61750000      47.38910000
C       43.55840000      47.06240000      48.82980000
C       47.06240000      48.82920000      43.55850000
C       48.82950000      43.55820000      47.06290000
C       56.44170000      47.06280000      51.17040000
C       56.44160000      52.93750000      48.82910000
C       43.55830000      52.93730000      51.17070000
C       52.93770000      48.82980000      56.44160000
C       52.93710000      51.17040000      43.55820000
C       47.06280000      51.17070000      56.44170000
C       51.17080000      43.55850000      52.93760000
C       51.17030000      56.44160000      47.06230000
C       48.82950000      56.44170000      52.93720000
C       48.82930000      47.06230000      43.55850000
C       43.55830000      48.82920000      47.06290000
C       47.06270000      43.55830000      48.82980000
C       51.17080000      47.06290000      56.44170000
C       48.82960000      52.93760000      56.44160000
C       51.17020000      52.93720000      43.55820000
C       56.44180000      48.82970000      52.93720000
C       43.55840000      51.17050000      52.93760000
C       56.44150000      51.17050000      47.06230000
C       52.93760000      43.55840000      51.17070000
C       47.06250000      56.44160000      51.17040000
C       52.93720000      56.44170000      48.82910000
C       52.36180000      51.33930000      53.35130000
C       51.33910000      53.35160000      52.36150000
C       53.35150000      52.36180000      51.33890000
C       47.63810000      51.33890000      46.64860000
C       47.63840000      48.66100000      53.35160000
C       52.36160000      48.66080000      46.64850000
C       48.66070000      53.35140000      47.63820000
C       48.66100000      46.64860000      52.36190000
C       51.33910000      46.64850000      47.63840000
C       46.64840000      52.36160000      48.66090000
C       46.64860000      47.63830000      51.33930000
C       53.35150000      47.63830000      48.66090000
C       53.35150000      51.33930000      52.36150000
C       52.36170000      53.35160000      51.33890000
C       51.33920000      52.36190000      53.35130000
C       46.64840000      51.33900000      47.63840000
C       53.35140000      48.66090000      47.63820000
C       46.64870000      48.66090000      52.36190000
C       47.63820000      53.35140000      48.66080000
C       52.36170000      46.64850000      48.66090000
C       47.63840000      46.64850000      51.33930000
C       48.66070000      52.36160000      46.64850000
C       51.33900000      47.63820000      46.64860000
C       48.66110000      47.63840000      53.35160000
C       45.24830000      48.02790000      44.28560000
C       48.02810000      44.28510000      45.24880000
C       44.28530000      45.24830000      48.02860000
C       54.75170000      48.02850000      55.71460000
C       54.75120000      51.97170000      44.28510000
C       45.24870000      51.97190000      55.71480000
C       51.97210000      44.28550000      54.75160000
C       51.97150000      55.71460000      45.24820000
C       48.02830000      55.71480000      54.75130000
C       55.71490000      45.24870000      51.97180000
C       55.71450000      54.75150000      48.02780000
C       44.28530000      54.75150000      51.97180000
C       44.28520000      48.02790000      45.24880000
C       45.24850000      44.28510000      48.02860000
C       48.02810000      45.24830000      44.28560000
C       55.71490000      48.02850000      54.75130000
C       44.28540000      51.97190000      54.75160000
C       55.71450000      51.97170000      45.24820000
C       54.75170000      44.28550000      51.97180000
C       45.24850000      55.71470000      51.97180000
C       54.75130000      55.71470000      48.02780000
C       51.97210000      45.24880000      55.71480000
C       48.02830000      54.75170000      55.71460000
C       51.97150000      54.75130000      44.28510000
C       44.32490000      50.75530000      48.26420000
C       50.75530000      48.26380000      44.32500000
C       48.26420000      44.32490000      50.75570000
C       55.67510000      50.75560000      51.73570000
C       55.67500000      49.24460000      48.26390000
C       44.32500000      49.24450000      51.73620000
C       49.24480000      48.26420000      55.67520000
C       49.24430000      51.73570000      44.32490000
C       50.75560000      51.73620000      55.67500000
C       51.73600000      44.32490000      49.24470000
C       51.73590000      55.67510000      50.75520000
C       48.26390000      55.67500000      49.24440000
C       48.26380000      50.75520000      44.32500000
C       44.32500000      48.26400000      50.75570000
C       50.75550000      44.32490000      48.26420000
C       51.73620000      50.75570000      55.67500000
C       48.26430000      49.24470000      55.67520000
C       51.73580000      49.24440000      44.32490000
C       55.67510000      48.26410000      49.24440000
C       44.32490000      51.73580000      49.24470000
C       55.67510000      51.73610000      50.75520000
C       49.24470000      44.32500000      51.73620000
C       50.75540000      55.67510000      51.73570000
C       49.24440000      55.67500000      48.26380000
C       55.10530000      54.12950000      50.40370000
C       54.12950000      50.40430000      55.10520000
C       50.40410000      55.10550000      54.12910000
C       44.89450000      54.12920000      49.59600000
C       44.89470000      45.87060000      50.40430000
C       55.10540000      45.87070000      49.59600000
C       45.87050000      50.40370000      44.89470000
C       45.87090000      49.59610000      55.10560000
C       54.12920000      49.59590000      44.89450000
C       49.59570000      55.10520000      45.87050000
C       49.59620000      44.89480000      54.12960000
C       50.40390000      44.89450000      45.87080000
C       50.40410000      54.12950000      55.10520000
C       55.10550000      50.40430000      54.12910000
C       54.12930000      55.10550000      50.40370000
C       49.59570000      54.12910000      44.89450000
C       50.40390000      45.87050000      44.89480000
C       49.59630000      45.87080000      55.10560000
C       44.89450000      50.40380000      45.87080000
C       55.10520000      49.59590000      45.87050000
C       44.89480000      49.59610000      54.12950000
C       45.87050000      55.10530000      49.59590000
C       54.12940000      44.89470000      49.59600000
C       45.87080000      44.89450000      50.40430000
C       52.54760000      53.49610000      43.75010000
C       53.49650000      43.75040000      52.54800000
C       43.75040000      52.54790000      53.49640000
C       47.45230000      53.49650000      56.24970000
C       47.45190000      46.50340000      43.75050000
C       52.54820000      46.50400000      56.24980000
C       46.50370000      43.75010000      47.45240000
C       46.50370000      56.24970000      52.54780000
C       53.49610000      56.24970000      47.45170000
C       56.24950000      52.54790000      46.50340000
C       56.24990000      47.45230000      53.49620000
C       43.75020000      47.45180000      46.50400000
C       43.75030000      53.49630000      52.54800000
C       52.54820000      43.75050000      53.49640000
C       53.49600000      52.54770000      43.75010000
C       56.24960000      53.49630000      47.45170000
C       43.75030000      46.50350000      47.45240000
C       56.24990000      46.50390000      52.54780000
C       47.45210000      43.75010000      46.50400000
C       52.54770000      56.24960000      46.50340000
C       47.45210000      56.24980000      53.49610000
C       46.50390000      52.54810000      56.24970000
C       53.49660000      47.45240000      56.24970000
C       46.50350000      47.45180000      43.75050000
C       56.18950000      50.63070000      48.32830000
C       50.63090000      48.32880000      56.18960000
C       48.32850000      56.18960000      50.63050000
C       43.81050000      50.63060000      51.67160000
C       43.81040000      49.36910000      48.32880000
C       56.18970000      49.36950000      51.67120000
C       49.36910000      48.32830000      43.81050000
C       49.36950000      51.67160000      56.18960000
C       50.63040000      51.67120000      43.81030000
C       51.67130000      56.18960000      49.36900000
C       51.67160000      43.81050000      50.63090000
C       48.32870000      43.81030000      49.36960000
C       48.32880000      50.63090000      56.18960000
C       56.18970000      48.32870000      50.63050000
C       50.63050000      56.18950000      48.32830000
C       51.67120000      50.63050000      43.81030000
C       48.32840000      49.36910000      43.81050000
C       51.67170000      49.36960000      56.18960000
C       43.81040000      48.32840000      49.36960000
C       56.18960000      51.67150000      49.36900000
C       43.81040000      51.67130000      50.63080000
C       49.36930000      56.18970000      51.67120000
C       50.63090000      43.81050000      51.67160000
C       49.36940000      43.81030000      48.32880000
