240
Lattice="100.0 0.0 0.0 0.0 100.0 0.0 0.0 0.0 100.0" Properties=species:S:1:pos:R:3 name=C-71174-8496-761 pressure=-5.52206574376052 spacegroup=C1 times_found=1 energy=-1751.82352954088 pbc="T T T"
C       49.10280000      43.19450000      48.18120000
C       48.29450000      49.19830000      42.89580000
C       42.88110000      48.26300000      49.47500000
C       49.14730000      57.05780000      51.67460000
C       50.73450000      56.60310000      48.06790000
C       50.67440000      42.87110000      51.81430000
C       48.14180000      50.54180000      56.78500000
C       51.95840000      50.67090000      42.88550000
C       51.84290000      49.14920000      56.42780000
C       42.99580000      51.99990000      50.90470000
C       57.35930000      52.01860000      49.37640000
C       57.30690000      48.23100000      50.71380000
C       50.57060000      43.08410000      48.14810000
C       52.00150000      49.21630000      43.05800000
C       57.23480000      48.31130000      49.25810000
C       50.61360000      56.99830000      51.75680000
C       49.27140000      56.66520000      48.00180000
C       49.19530000      42.84660000      51.86180000
C       51.81740000      50.61350000      56.42570000
C       48.26510000      50.65160000      42.81700000
C       48.14700000      49.07110000      56.69230000
C       57.39430000      51.92600000      50.84300000
C       42.99120000      51.94170000      49.43110000
C       42.79870000      48.31100000      50.94330000
C       55.08870000      45.37500000      50.69590000
C       50.82110000      55.40130000      44.69440000
C       44.66180000      50.62060000      55.80090000
C       55.48550000      55.11460000      49.59750000
C       44.33550000      55.32250000      50.79720000
C       44.43260000      44.98770000      49.66330000
C       50.76080000      44.09010000      55.24270000
C       49.12490000      44.46170000      44.81400000
C       48.88930000      55.35790000      54.82780000
C       45.40010000      49.23420000      45.04230000
C       55.27370000      49.18720000      55.40620000
C       55.02340000      51.01590000      44.75290000
C       44.50670000      45.13240000      51.14370000
C       49.31370000      55.39620000      44.65990000
C       55.25340000      50.69480000      55.42900000
C       44.26170000      55.34090000      49.29820000
C       55.38740000      54.92160000      51.07120000
C       55.06560000      45.41630000      49.19680000
C       49.27430000      44.07480000      55.28460000
C       50.61660000      44.33850000      44.73310000
C       50.37380000      55.42860000      55.00340000
C       55.10900000      49.52530000      44.81140000
C       44.71340000      49.12310000      55.69540000
C       45.40020000      50.74160000      45.00020000
C       46.92260000      51.24530000      56.61130000
C       56.70790000      47.07820000      51.37170000
C       51.47410000      56.11830000      46.92160000
C       47.14630000      48.54790000      43.49380000
C       53.03140000      48.44810000      56.01040000
C       53.07880000      51.43620000      43.36860000
C       56.88530000      53.22290000      48.75780000
C       43.51660000      53.16570000      51.60010000
C       43.24740000      47.02930000      48.84880000
C       51.38960000      43.15640000      53.01850000
C       48.40630000      43.72680000      47.02290000
C       48.39800000      56.63770000      52.83120000
C       52.99050000      51.35560000      56.02420000
C       43.23560000      47.13880000      51.66590000
C       48.55890000      56.16390000      46.84660000
C       53.13220000      48.57690000      43.72170000
C       46.94470000      48.36360000      56.31460000
C       47.12710000      51.35010000      43.38790000
C       43.32020000      53.12200000      48.71140000
C       56.82620000      53.02850000      51.58920000
C       56.61960000      47.18410000      48.57290000
C       48.53790000      43.11740000      53.10240000
C       51.25520000      43.38750000      46.93760000
C       51.22580000      56.65810000      53.00270000
C       50.43310000      56.59330000      54.15190000
C       54.13300000      50.63400000      56.29100000
C       56.64630000      54.23430000      50.98170000
C       50.51800000      43.34300000      45.76610000
C       49.27850000      43.03590000      54.27550000
C       49.32630000      56.33220000      45.72130000
C       54.26730000      49.37190000      43.67900000
C       45.79980000      49.07890000      56.61010000
C       45.98530000      50.66230000      43.69200000
C       56.37510000      46.00700000      49.23060000
C       43.31550000      45.93040000      51.04110000
C       43.25720000      54.31920000      49.40820000
C       49.00740000      56.55500000      54.04740000
C       45.75340000      50.51410000      56.73050000
C       43.34400000      54.30810000      50.84780000
C       49.08410000      43.48310000      45.84390000
C       50.71960000      43.05060000      54.23310000
C       50.76420000      56.32990000      45.75960000
C       45.99220000      49.24270000      43.73510000
C       54.15530000      49.19690000      56.27480000
C       54.25820000      50.79390000      43.56260000
C       43.28220000      45.85910000      49.61360000
C       56.40250000      45.95720000      50.65050000
C       56.71000000      54.35300000      49.55770000
C       46.44510000      47.01080000      45.46000000
C       44.76340000      45.84890000      47.48120000
C       47.15220000      45.65530000      45.93560000
C       45.62710000      52.70570000      55.28750000
C       53.75130000      53.08710000      45.26680000
C       54.25150000      47.12710000      54.25000000
C       45.41310000      54.27000000      52.88320000
C       55.29000000      54.29710000      47.38940000
C       54.74600000      46.40430000      52.93110000
C       46.77650000      54.77380000      53.61500000
C       52.90780000      54.36120000      45.76950000
C       52.80430000      44.64290000      54.20400000
C       54.12810000      47.30910000      45.69040000
C       54.63770000      46.52870000      47.01280000
C       52.68680000      44.84580000      45.73120000
C       54.22730000      52.78480000      54.34100000
C       46.48040000      52.98050000      45.29490000
C       45.71370000      47.05910000      54.53270000
C       54.78740000      53.61850000      53.09590000
C       44.77110000      54.29070000      47.25240000
C       45.15120000      46.32860000      53.22240000
C       52.59450000      55.17600000      54.20480000
C       47.22450000      54.32930000      45.73350000
C       47.17680000      44.59850000      54.35300000
C       52.78600000      56.06870000      49.28050000
C       49.17570000      52.73600000      56.03700000
C       57.00300000      49.27190000      52.94510000
C       52.72780000      43.84330000      50.68990000
C       47.06930000      43.85260000      49.38310000
C       46.98970000      56.60520000      50.48380000
C       49.44080000      47.04310000      43.39210000
C       50.75200000      46.97630000      56.00910000
C       50.82000000      52.86320000      43.08710000
C       56.64200000      50.98530000      47.19300000
C       43.41800000      50.91730000      53.06780000
C       43.83760000      49.32050000      47.38360000
C       47.06820000      56.41110000      49.03700000
C       50.64920000      52.71010000      55.93600000
C       43.28350000      49.46030000      53.11160000
C       47.04350000      43.74240000      50.84980000
C       52.69640000      43.89000000      49.22500000
C       52.79300000      56.16850000      50.75200000
C       50.89920000      47.08180000      43.51990000
C       49.27390000      46.94790000      56.08710000
C       49.36690000      52.86150000      43.06620000
C       43.87180000      50.78910000      47.36780000
C       57.00750000      50.72350000      52.98500000
C       56.69500000      49.53060000      47.17100000
C       51.76350000      53.31540000      55.37390000
C       56.19270000      51.72900000      53.48230000
C       53.28290000      55.60530000      51.94900000
C       51.93240000      46.54210000      44.27770000
C       48.10950000      46.34980000      55.61050000
C       48.34030000      53.35850000      43.85410000
C       55.93350000      48.48030000      46.71210000
C       43.91430000      48.33150000      53.61350000
C       44.50540000      51.92810000      46.84670000
C       53.17160000      44.53080000      48.07500000
C       46.55190000      44.29770000      52.04880000
C       46.49900000      55.68520000      47.99890000
C       47.97150000      53.27510000      55.54010000
C       44.13270000      51.97270000      53.62370000
C       46.44270000      56.01260000      51.61060000
C       48.33870000      46.57210000      44.08700000
C       51.89040000      46.39930000      55.44840000
C       51.83430000      53.39610000      43.86560000
C       44.44750000      48.14680000      46.92360000
C       56.18590000      48.24480000      53.39280000
C       55.89500000      52.08610000      46.71650000
C       46.52460000      44.51590000      48.29600000
C       53.23890000      44.43010000      51.85110000
C       53.39430000      55.46170000      48.19250000
C       44.39680000      53.16290000      52.80190000
C       52.56430000      44.00190000      53.02860000
C       52.98800000      52.64220000      44.10170000
C       44.06070000      46.99740000      47.66230000
C       55.94650000      47.14850000      52.55720000
C       56.11240000      53.22690000      47.53710000
C       52.68850000      55.28000000      46.93470000
C       47.21210000      55.87210000      52.76830000
C       47.27050000      44.67710000      47.06000000
C       53.08350000      47.22870000      55.18500000
C       47.22490000      47.39060000      44.28880000
C       46.83480000      52.48660000      55.88030000
C       55.99670000      52.88740000      52.72530000
C       47.34100000      43.93060000      53.17760000
C       47.22410000      52.55500000      44.11660000
C       55.79750000      47.30480000      47.43660000
C       44.03490000      47.18270000      52.82650000
C       44.12740000      53.12090000      47.51750000
C       47.32760000      55.34230000      46.83580000
C       52.45010000      55.90030000      53.06380000
C       52.45620000      44.18260000      46.90000000
C       46.89290000      47.16090000      55.44580000
C       53.08680000      47.38200000      44.60610000
C       53.02140000      52.58520000      55.20820000
C       51.41380000      43.17210000      49.24480000
C       49.37300000      51.46290000      42.63450000
C       42.78580000      49.45070000      51.73240000
C       51.46560000      56.80510000      50.68190000
C       48.44720000      56.86830000      49.07660000
C       48.35630000      43.06930000      50.78460000
C       49.28660000      48.31750000      56.57440000
C       50.89080000      48.41410000      42.94860000
C       50.67000000      51.36620000      56.46970000
C       43.12490000      50.80810000      48.63690000
C       57.50640000      50.76980000      51.60630000
C       57.30980000      49.47660000      48.49080000
C       48.36170000      43.20380000      49.34040000
C       50.83340000      51.45910000      42.66860000
C       57.49360000      49.30810000      51.56660000
C       48.38820000      57.05140000      50.51450000
C       51.46870000      56.66230000      49.23360000
C       51.45020000      43.11120000      50.68910000
C       50.73130000      48.34850000      56.48350000
C       49.43290000      48.39790000      42.84520000
C       49.22840000      51.37520000      56.60300000
C       57.31130000      50.93870000      48.51120000
C       42.89750000      50.89860000      51.71080000
C       43.08180000      49.35820000      48.64500000
C       51.82620000      45.02280000      55.08430000
C       54.88700000      52.13650000      45.62690000
C       45.30820000      55.20860000      51.76080000
C       51.83990000      54.47530000      44.76180000
C       47.80600000      54.44070000      54.66910000
C       48.20830000      45.47490000      44.94100000
C       55.25320000      48.19830000      54.44180000
C       45.44830000      48.06520000      45.86400000
C       44.69930000      51.76920000      54.92850000
C       45.22890000      45.04840000      48.48280000
C       54.30820000      45.41760000      51.89330000
C       54.72330000      55.02100000      48.39650000
C       48.18370000      44.98750000      55.19220000
C       45.48000000      51.94880000      45.76250000
C       54.44060000      54.70760000      52.11380000
C       48.30690000      54.45020000      44.73420000
C       51.57150000      54.65000000      54.94070000
C       51.74880000      45.22360000      44.81320000
C       44.77140000      48.17340000      54.70620000
C       55.02150000      48.46040000      45.67090000
C       55.23360000      51.71960000      54.50680000
C       54.24740000      45.50440000      48.02870000
C       45.44100000      45.24920000      52.21460000
C       45.15600000      55.21820000      48.17810000
