240
Lattice="100.0 0.0 0.0 0.0 100.0 0.0 0.0 0.0 100.0" Properties=species:S:1:pos:R:3 name=C-71174-8496-491 pressure=77.8489713744705 spacegroup=Th times_found=1 energy=-1740.03468340163 pbc="T T T"
C       55.74440000      47.37690000      48.09350000
C       48.09170000      55.74300000      47.37510000
C       47.37570000      48.09260000      55.74350000
C       44.25600000      52.62280000      48.09190000
C       44.25680000      47.37470000      51.90700000
C       55.74280000      52.62560000      51.90770000
C       51.90890000      44.25660000      47.37650000
C       51.90580000      55.74420000      52.62390000
C       48.09370000      44.25620000      52.62450000
C       52.62320000      51.90840000      55.74370000
C       52.62520000      48.09280000      44.25680000
C       47.37600000      51.90630000      44.25600000
C       55.74400000      47.37720000      51.90810000
C       48.09110000      55.74340000      52.62350000
C       47.37680000      48.09160000      44.25630000
C       44.25560000      52.62310000      51.90650000
C       44.25720000      47.37440000      48.09230000
C       55.74320000      52.62530000      48.09300000
C       51.90830000      44.25700000      52.62490000
C       51.90630000      55.74380000      47.37550000
C       48.09420000      44.25580000      47.37610000
C       52.62430000      51.90740000      44.25650000
C       52.62400000      48.09370000      55.74400000
C       47.37480000      51.90720000      55.74320000
C       43.00150000      51.37680000      54.25710000
C       54.25940000      43.00330000      51.37900000
C       51.37780000      54.25770000      43.00200000
C       56.99770000      48.62390000      54.25880000
C       56.99790000      51.37920000      45.74260000
C       43.00300000      48.62010000      45.74150000
C       45.74040000      56.99700000      51.37700000
C       45.74370000      43.00120000      48.62210000
C       54.25660000      56.99860000      48.62180000
C       48.62360000      45.74110000      43.00240000
C       48.62040000      54.25820000      56.99730000
C       51.37830000      45.74290000      56.99830000
C       43.00230000      51.37610000      45.74120000
C       54.25960000      43.00300000      48.62300000
C       51.37640000      54.25890000      56.99760000
C       56.99850000      48.62320000      45.74290000
C       56.99700000      51.37990000      54.25850000
C       43.00210000      48.62080000      54.25740000
C       45.74060000      56.99670000      48.62100000
C       45.74340000      43.00140000      51.37820000
C       54.25630000      56.99880000      51.37790000
C       48.62220000      45.74230000      56.99800000
C       48.62170000      54.25710000      43.00170000
C       51.37970000      45.74180000      43.00270000
C       50.71140000      43.20090000      50.74040000
C       50.74030000      50.70950000      43.20070000
C       43.20050000      50.73830000      50.70920000
C       49.28850000      56.79920000      50.73910000
C       49.29160000      43.20050000      49.26080000
C       50.70850000      56.79940000      49.25980000
C       49.26110000      49.28930000      43.20070000
C       49.25940000      50.71040000      56.79920000
C       50.73920000      49.29080000      56.79940000
C       56.79940000      49.26180000      50.71070000
C       56.79920000      50.74120000      49.29070000
C       43.20090000      49.25870000      49.28940000
C       50.71150000      43.20080000      49.26090000
C       50.73890000      50.71070000      56.79930000
C       43.20060000      50.73820000      49.28930000
C       49.28860000      56.79910000      49.25960000
C       49.29150000      43.20060000      50.74020000
C       50.70840000      56.79950000      50.73920000
C       49.25970000      49.29050000      56.79930000
C       49.26080000      50.70920000      43.20060000
C       50.74060000      49.28960000      43.20080000
C       56.79950000      49.26170000      49.29080000
C       56.79910000      50.74130000      50.71060000
C       43.20080000      49.25880000      50.70930000
C       46.46790000      49.25730000      44.45220000
C       44.45340000      46.46590000      49.25830000
C       49.26020000      44.45210000      46.46760000
C       53.53320000      50.74170000      44.45280000
C       53.53240000      49.25980000      55.54790000
C       46.46650000      50.74110000      55.54700000
C       55.54680000      53.53400000      49.25880000
C       55.54820000      46.46850000      50.74230000
C       44.45170000      53.53160000      50.74060000
C       50.74050000      55.54730000      46.46680000
C       50.74230000      44.45300000      53.53330000
C       49.25700000      55.54760000      53.53230000
C       46.46680000      49.25830000      55.54720000
C       44.45320000      46.46600000      50.74120000
C       49.25950000      44.45270000      53.53320000
C       53.53210000      50.74270000      55.54770000
C       53.53350000      49.25890000      44.45300000
C       46.46760000      50.74020000      44.45210000
C       55.54660000      53.53410000      50.74170000
C       55.54830000      46.46840000      49.25940000
C       44.45180000      53.53150000      49.25770000
C       50.73980000      55.54790000      53.53240000
C       50.74300000      44.45240000      46.46770000
C       49.25770000      55.54700000      46.46670000
C       48.65350000      45.02480000      54.70430000
C       54.70480000      48.65350000      45.02530000
C       45.02380000      54.70280000      48.65200000
C       51.34560000      54.97600000      54.70380000
C       51.34870000      45.02460000      45.29650000
C       48.65220000      54.97460000      45.29540000
C       45.29620000      51.34570000      45.02410000
C       45.29580000      48.65220000      54.97500000
C       54.70330000      51.34860000      54.97570000
C       54.97650000      45.29690000      48.65380000
C       54.97410000      54.70530000      51.34720000
C       45.02560000      45.29500000      51.34700000
C       48.65440000      45.02400000      45.29620000
C       54.70380000      48.65430000      54.97590000
C       45.02350000      54.70310000      51.34620000
C       51.34650000      54.97520000      45.29570000
C       51.34780000      45.02540000      54.70460000
C       48.65130000      54.97540000      54.70350000
C       45.29520000      51.34650000      54.97470000
C       45.29670000      48.65140000      45.02430000
C       54.70420000      51.34780000      45.02500000
C       54.97620000      45.29720000      51.34800000
C       54.97440000      54.70500000      48.65300000
C       45.02590000      45.29470000      48.65280000
C       45.75130000      45.63530000      52.55660000
C       52.55800000      45.75080000      45.63660000
C       45.63590000      52.55530000      45.75000000
C       54.24820000      54.36510000      52.55670000
C       54.25060000      45.63680000      47.44420000
C       45.74990000      54.36280000      47.44260000
C       47.44290000      54.24850000      45.63540000
C       47.44390000      45.75040000      54.36410000
C       52.55520000      54.25030000      54.36390000
C       54.36500000      47.44400000      45.75130000
C       54.36300000      52.55790000      54.24960000
C       45.63620000      47.44280000      54.24920000
C       45.75180000      45.63490000      47.44330000
C       52.55710000      45.75150000      54.36460000
C       45.63500000      52.55600000      54.24870000
C       54.24870000      54.36470000      47.44340000
C       54.25010000      45.63720000      52.55740000
C       45.74940000      54.36330000      52.55580000
C       47.44200000      54.24920000      54.36340000
C       47.44480000      45.74970000      45.63610000
C       52.55610000      54.24960000      45.63590000
C       54.36410000      47.44470000      54.25000000
C       54.36380000      52.55720000      45.75080000
C       45.63700000      47.44210000      45.75040000
C       45.13730000      53.10850000      46.97500000
C       46.97650000      45.13720000      53.10990000
C       53.11090000      46.97600000      45.13820000
C       54.86330000      46.89100000      46.97650000
C       54.86140000      53.11110000      53.02450000
C       45.13800000      46.88940000      53.02400000
C       53.02290000      54.86330000      53.10970000
C       53.02560000      45.13810000      46.89090000
C       46.97500000      54.86140000      46.88950000
C       46.89000000      53.02320000      45.13710000
C       46.89040000      46.97550000      54.86230000
C       53.10860000      53.02540000      54.86240000
C       45.13670000      53.10900000      53.02350000
C       46.97710000      45.13670000      46.89030000
C       53.11000000      46.97680000      54.86290000
C       54.86270000      46.89150000      53.02500000
C       54.86200000      53.11060000      46.97600000
C       45.13860000      46.88890000      46.97550000
C       53.02350000      54.86280000      46.89010000
C       53.02500000      45.13860000      53.11050000
C       46.97440000      54.86190000      53.10910000
C       46.88910000      53.02400000      54.86180000
C       46.89140000      46.97460000      45.13760000
C       53.10960000      53.02450000      45.13770000
C       55.94860000      49.27650000      45.06360000
C       45.06170000      55.94680000      49.27460000
C       49.27610000      45.06330000      55.94830000
C       44.05230000      50.72270000      45.06230000
C       44.05170000      49.27470000      54.93650000
C       55.94730000      50.72610000      54.93760000
C       54.93840000      44.05300000      49.27660000
C       54.93570000      55.94910000      50.72440000
C       45.06420000      44.05100000      50.72440000
C       50.72270000      54.93770000      55.94770000
C       50.72610000      45.06260000      44.05250000
C       49.27510000      54.93640000      44.05150000
C       55.94770000      49.27730000      54.93770000
C       45.06160000      55.94700000      50.72340000
C       49.27730000      45.06230000      44.05230000
C       44.05140000      50.72350000      54.93640000
C       44.05270000      49.27390000      45.06240000
C       55.94830000      50.72530000      45.06350000
C       54.93830000      44.05320000      50.72540000
C       54.93580000      55.94900000      49.27560000
C       45.06430000      44.05090000      49.27560000
C       50.72390000      54.93670000      44.05170000
C       50.72490000      45.06360000      55.94850000
C       49.27390000      54.93740000      55.94750000
C       51.46160000      48.13470000      43.45030000
C       43.44990000      51.45890000      48.13410000
C       48.13620000      43.44970000      51.46090000
C       48.53970000      51.86420000      43.44970000
C       48.53930000      48.13510000      56.55000000
C       51.45940000      51.86600000      56.55000000
C       56.55050000      48.54080000      48.13570000
C       56.54950000      51.46210000      51.86560000
C       43.45020000      48.53820000      51.86460000
C       51.86350000      56.55050000      51.46010000
C       51.86670000      43.45030000      48.54020000
C       48.13360000      56.54940000      48.53880000
C       51.46030000      48.13580000      56.55030000
C       43.44950000      51.45920000      51.86430000
C       48.13650000      43.44950000      48.53990000
C       48.53840000      51.86530000      56.54970000
C       48.54060000      48.13400000      43.45000000
C       51.46070000      51.86490000      43.45000000
C       56.55010000      48.54110000      51.86590000
C       56.54980000      51.46180000      48.13540000
C       43.45050000      48.53790000      48.13440000
C       51.86380000      56.55030000      48.53910000
C       51.86640000      43.45050000      51.46120000
C       48.13330000      56.54970000      51.45980000
C       50.73500000      46.98140000      57.01970000
C       57.01950000      50.73630000      46.98120000
C       46.97900000      57.01880000      50.73420000
C       49.26360000      53.01980000      57.01910000
C       49.26630000      46.97990000      42.98080000
C       50.73510000      53.01900000      42.98040000
C       42.98110000      49.26310000      46.98000000
C       42.98010000      50.73380000      53.01860000
C       57.01930000      49.26670000      53.02020000
C       53.02090000      42.98130000      50.73590000
C       53.01790000      57.02000000      49.26470000
C       46.98220000      42.97990000      49.26520000
C       50.73640000      46.98020000      42.98090000
C       57.01890000      50.73690000      53.02000000
C       46.97910000      57.01870000      49.26410000
C       49.26500000      53.01860000      42.98030000
C       49.26490000      46.98100000      57.01960000
C       50.73370000      53.02010000      57.01920000
C       42.98050000      49.26370000      53.01880000
C       42.98070000      50.73330000      46.97980000
C       57.01990000      49.26620000      46.98140000
C       53.02100000      42.98120000      49.26580000
C       53.01780000      57.02010000      50.73480000
C       46.98210000      42.98000000      50.73530000
