240
Lattice="100.0 0.0 0.0 0.0 100.0 0.0 0.0 0.0 100.0" Properties=species:S:1:pos:R:3 name=C-71174-8496-936 pressure=-99.8232846517752 energy=-1813.34180385352 spacegroup=Oh times_found=1 pbc="T T T"
C       54.70770000      50.68010000      44.40460000
C       50.66060000      44.38340000      54.68530000
C       44.34960000      54.64960000      50.62340000
C       45.43240000      49.24020000      44.29960000
C       54.56550000      49.30740000      55.71060000
C       45.29440000      50.77230000      55.58520000
C       49.22440000      55.68200000      54.58780000
C       50.79180000      55.61460000      45.33280000
C       49.32330000      44.31990000      45.39420000
C       55.63240000      45.36070000      50.82890000
C       44.35430000      45.36560000      49.23640000
C       55.66370000      54.62420000      49.31140000
C       50.80290000      54.59610000      44.32850000
C       44.29550000      50.76650000      54.56130000
C       54.61950000      44.35060000      50.82340000
C       49.33730000      45.32430000      44.37570000
C       49.21040000      54.67770000      55.60630000
C       50.64950000      45.40200000      55.68950000
C       55.58950000      49.29890000      54.71170000
C       55.70660000      50.68590000      45.42850000
C       44.40840000      49.24870000      45.29850000
C       45.36240000      55.65970000      50.62880000
C       45.36430000      44.35280000      49.25600000
C       54.65370000      55.63700000      49.29170000
C       54.73040000      46.26500000      52.83780000
C       46.19700000      52.79110000      54.70390000
C       52.80560000      54.74010000      46.25290000
C       45.20130000      53.77380000      52.66660000
C       54.80950000      53.72210000      47.28070000
C       45.25880000      46.23900000      47.21500000
C       53.68470000      47.27620000      54.83570000
C       46.30750000      47.21900000      45.20300000
C       53.81090000      52.71370000      45.25730000
C       47.28740000      45.20710000      46.25170000
C       52.69890000      45.25250000      53.81540000
C       47.20810000      54.80030000      53.68000000
C       46.22490000      54.79460000      52.67210000
C       52.68770000      46.28200000      54.83040000
C       54.82040000      52.71950000      46.29220000
C       53.70680000      45.24420000      52.83230000
C       53.78870000      54.74570000      47.26080000
C       46.27950000      45.21540000      47.23490000
C       47.19400000      53.78530000      54.70930000
C       47.30160000      46.22210000      45.22240000
C       52.81680000      53.71060000      45.23800000
C       45.27260000      47.22760000      46.21250000
C       45.18750000      52.78520000      53.66910000
C       54.71950000      47.26760000      53.82630000
C       55.69150000      53.56760000      48.40980000
C       53.51390000      48.39980000      55.72190000
C       48.32830000      55.69390000      53.52630000
C       44.34910000      46.40940000      48.31960000
C       55.64060000      46.41720000      51.73080000
C       44.31880000      53.60590000      51.53970000
C       46.34550000      51.68020000      55.60990000
C       53.65920000      51.59060000      44.36710000
C       46.48140000      48.32950000      44.30110000
C       51.58270000      44.35680000      53.64660000
C       48.40110000      44.31060000      46.43310000
C       51.68790000      55.63880000      46.39400000
C       53.61490000      55.65000000      48.36940000
C       48.29950000      53.62890000      55.62040000
C       55.61920000      48.38230000      53.66830000
C       46.42560000      44.32690000      48.36010000
C       46.40130000      55.68270000      51.55090000
C       53.55810000      44.34040000      51.71970000
C       51.55990000      46.45110000      55.71150000
C       51.71070000      53.54450000      44.32910000
C       48.42990000      46.37550000      44.33900000
C       44.29180000      51.66830000      53.50460000
C       44.37610000      48.34690000      46.35470000
C       55.71290000      51.60250000      46.47240000
C       56.39880000      51.32160000      47.70070000
C       51.26440000      47.67400000      56.40070000
C       47.62340000      56.38050000      51.27250000
C       43.66000000      48.64500000      47.56150000
C       56.33610000      48.66130000      52.45740000
C       43.60510000      51.37210000      52.28040000
C       48.57760000      52.41580000      56.33390000
C       51.42920000      52.32240000      43.63270000
C       48.72880000      47.58780000      43.63260000
C       52.34310000      43.63850000      51.42100000
C       47.63860000      43.62590000      48.66870000
C       52.39480000      56.35510000      48.63790000
C       51.38530000      56.34930000      47.60300000
C       47.55400000      51.39490000      56.32840000
C       56.34740000      47.63190000      51.44250000
C       48.67350000      43.61730000      47.65920000
C       48.63290000      56.38630000      52.30740000
C       51.30830000      43.64710000      52.43040000
C       52.28800000      48.69490000      56.40620000
C       52.44990000      51.29870000      43.65260000
C       47.70810000      48.61140000      43.61280000
C       43.61920000      52.38710000      51.25100000
C       43.64590000      47.63000000      48.59090000
C       56.38750000      52.35100000      48.71560000
C       50.02380000      57.79610000      48.92520000
C       57.80140000      48.96960000      50.10400000
C       48.88330000      50.05640000      57.79000000
C       50.00150000      42.18950000      49.03510000
C       49.97620000      42.20390000      51.07480000
C       49.99850000      57.81050000      50.96490000
C       42.19860000      51.03040000      49.89600000
C       57.80440000      51.00940000      50.08970000
C       42.19560000      48.99060000      49.91030000
C       50.92310000      50.05370000      57.81540000
C       49.07690000      49.94630000      42.18460000
C       51.11670000      49.94360000      42.20990000
C       57.81550000      49.98230000      49.07700000
C       48.99130000      57.80470000      49.93240000
C       49.90170000      49.03510000      57.80990000
C       42.20980000      50.00330000      48.88330000
C       42.18450000      50.01770000      50.92300000
C       57.79020000      49.99670000      51.11670000
C       51.00870000      42.19530000      50.06760000
C       51.03100000      57.80190000      49.95780000
C       48.96900000      42.19810000      50.04220000
C       49.90470000      51.07500000      57.79550000
C       50.09530000      48.92500000      42.20450000
C       50.09830000      50.96490000      42.19010000
C       48.41730000      55.64320000      46.35340000
C       55.68120000      46.39410000      48.46030000
C       46.34080000      48.40940000      55.63290000
C       51.67170000      44.30620000      46.47370000
C       48.31210000      44.36110000      53.60600000
C       51.59890000      55.68940000      53.56690000
C       44.35940000      53.58280000      48.26920000
C       55.65090000      53.59060000      51.68040000
C       44.30850000      46.43240000      51.59020000
C       53.51860000      51.67050000      55.69890000
C       46.48610000      51.60020000      44.27800000
C       53.65450000      48.31980000      44.39010000
C       55.70820000      48.33170000      46.49540000
C       46.44190000      55.65960000      48.28030000
C       48.28930000      46.45550000      55.67090000
C       44.38080000      51.61770000      46.33170000
C       44.28710000      48.39750000      53.52760000
C       55.62390000      51.65310000      53.64530000
C       53.59870000      44.31730000      48.44910000
C       53.57440000      55.67310000      51.63990000
C       46.38510000      44.35000000      51.63060000
C       51.57010000      53.62450000      55.66100000
C       51.70050000      46.37110000      44.37960000
C       48.44010000      53.54890000      44.28850000
C       49.91730000      52.12120000      56.88790000
C       52.08220000      56.90020000      49.97720000
C       56.87690000      50.00530000      52.15800000
C       49.91140000      47.97620000      56.91710000
C       50.08270000      47.87880000      43.11210000
C       50.08860000      52.02380000      43.08290000
C       47.91780000      43.09980000      50.02280000
C       52.06250000      43.09420000      50.07430000
C       47.93750000      56.90580000      49.92570000
C       43.07160000      50.02390000      51.98660000
C       56.92840000      49.97610000      48.01340000
C       43.12300000      49.99470000      47.84200000
C       51.98670000      50.04590000      56.92820000
C       56.90560000      52.06320000      50.07110000
C       49.98420000      56.91760000      52.02370000
C       47.84200000      50.05150000      56.87680000
C       48.01330000      49.95410000      43.07180000
C       52.15800000      49.94850000      43.12320000
C       43.09440000      47.93680000      49.92890000
C       43.10030000      52.08170000      49.89970000
C       56.89970000      47.91830000      50.10030000
C       49.96440000      43.11160000      52.12090000
C       50.03560000      56.88840000      47.87910000
C       50.01580000      43.08240000      47.97630000
C       54.63570000      55.64720000      50.74400000
C       55.59160000      50.75130000      54.70150000
C       50.66270000      54.67570000      55.62430000
C       45.34630000      44.36300000      50.70830000
C       54.63760000      44.34030000      49.37120000
C       45.38050000      55.64940000      49.17660000
C       44.29340000      49.31410000      54.57150000
C       55.70450000      49.23350000      45.43870000
C       44.41050000      50.70110000      45.28830000
C       49.19710000      45.40400000      55.67150000
C       50.78960000      45.32230000      44.39370000
C       49.35050000      54.59800000      44.31050000
C       55.64570000      54.63440000      50.76360000
C       50.67670000      55.68010000      54.60580000
C       54.56760000      50.75980000      55.70030000
C       44.33630000      45.37580000      50.68860000
C       44.36760000      54.63930000      49.17110000
C       55.65040000      45.35040000      49.37660000
C       49.20820000      44.38540000      54.66720000
C       49.33940000      55.61660000      45.31470000
C       50.77560000      44.31800000      45.41220000
C       45.29230000      49.31990000      55.59540000
C       45.43450000      50.69260000      44.28940000
C       54.70570000      49.22770000      44.41480000
C       48.73560000      52.32600000      43.59930000
C       52.37650000      43.61950000      48.72750000
C       43.60120000      48.67840000      52.29930000
C       51.42240000      47.58420000      43.66610000
C       48.57080000      47.67760000      56.36720000
C       51.27120000      52.41220000      56.36740000
C       47.65690000      56.36150000      48.57900000
C       52.36140000      56.37410000      51.33130000
C       47.60520000      43.64490000      51.36210000
C       56.34000000      51.35500000      52.43850000
C       43.66390000      51.33870000      47.54260000
C       56.39490000      48.62790000      47.71960000
C       52.44600000      48.60510000      43.67160000
C       43.65260000      52.36810000      48.55750000
C       48.61470000      43.65070000      52.39700000
C       47.71200000      51.30510000      43.59380000
C       47.55010000      48.70130000      56.34740000
C       52.29190000      51.38860000      56.38720000
C       56.38080000      47.61290000      48.74900000
C       56.35410000      52.37000000      51.40910000
C       43.61240000      47.64900000      51.28440000
C       51.32650000      56.38270000      52.34080000
C       51.36700000      43.61370000      47.69260000
C       48.69170000      56.35290000      47.56960000
C       52.69840000      53.77790000      54.77760000
C       53.72050000      54.78460000      52.76510000
C       54.72740000      52.77240000      53.78750000
C       47.18320000      46.28940000      54.76200000
C       52.80600000      46.21470000      45.29070000
C       47.31230000      53.71800000      45.16960000
C       46.21120000      45.25420000      52.73920000
C       53.77510000      45.20540000      47.32790000
C       46.29320000      54.75580000      47.16770000
C       45.17960000      47.28050000      53.70780000
C       54.81250000      47.21480000      46.33090000
C       45.28050000      52.73240000      46.17370000
C       53.69260000      52.78100000      54.79700000
C       54.74120000      53.76100000      52.78500000
C       52.71260000      54.79290000      53.74830000
C       46.18910000      47.28630000      54.74270000
C       46.31530000      52.72380000      45.16430000
C       53.80300000      47.20890000      45.29610000
C       45.19050000      46.27780000      52.71930000
C       45.26960000      53.73500000      47.16220000
C       54.79870000      46.22620000      47.33340000
C       47.19440000      45.25990000      53.74710000
C       47.30110000      54.74750000      46.18460000
C       52.79190000      45.19970000      46.32000000
