240
Lattice="100.0 0.0 0.0 0.0 100.0 0.0 0.0 0.0 100.0" Properties=species:S:1:pos:R:3 name=C-71174-8496-649 pressure=13.3325389074041 energy=-1789.72931542454 spacegroup=D2d times_found=1 pbc="T T T"
C       46.19390000      54.63680000      54.63550000
C       54.82020000      54.88500000      46.60640000
C       54.81750000      46.60490000      54.88660000
C       53.80910000      54.63420000      45.36450000
C       53.80610000      45.36320000      54.63550000
C       46.19080000      45.36580000      45.36450000
C       45.18310000      54.88820000      53.39360000
C       45.17980000      45.11500000      46.60650000
C       54.81700000      45.11180000      53.39350000
C       45.18030000      46.60810000      45.11340000
C       45.18260000      53.39510000      54.88660000
C       54.81970000      53.39200000      45.11340000
C       46.94190000      44.70630000      55.29470000
C       54.81630000      45.36900000      46.42010000
C       54.81910000      53.57830000      54.62940000
C       53.05460000      44.70430000      44.70530000
C       53.05820000      55.29370000      55.29470000
C       46.94540000      55.29570000      44.70530000
C       45.18060000      45.37220000      53.57990000
C       45.18370000      54.63100000      46.42010000
C       54.81940000      54.62780000      53.57990000
C       45.18330000      53.58150000      45.37060000
C       45.18100000      46.42170000      54.62940000
C       54.81660000      46.41850000      45.37060000
C       50.69960000      42.48150000      49.25790000
C       42.36300000      49.28650000      50.71610000
C       49.29810000      50.74240000      42.48180000
C       49.29540000      42.48200000      50.74210000
C       49.30040000      57.51850000      49.25790000
C       50.70460000      57.51800000      50.74210000
C       57.63650000      49.28140000      49.28390000
C       57.63700000      50.71350000      50.71600000
C       42.36350000      50.71860000      49.28400000
C       50.70240000      50.74190000      57.51820000
C       50.70180000      49.25760000      42.48180000
C       49.29770000      49.25810000      57.51820000
C       50.74180000      57.51900000      49.30490000
C       42.37060000      50.72710000      50.72460000
C       49.26040000      49.30520000      42.48070000
C       49.26310000      57.51950000      50.69510000
C       49.25810000      42.48100000      49.30490000
C       50.73690000      42.48050000      50.69510000
C       57.62990000      50.72200000      49.27540000
C       57.62940000      49.27290000      50.72450000
C       42.37010000      49.27800000      49.27550000
C       50.73920000      49.30470000      57.51930000
C       50.73950000      50.69480000      42.48070000
C       49.26090000      50.69530000      57.51930000
C       45.30240000      50.61650000      54.66450000
C       50.84590000      54.63280000      45.36690000
C       54.69630000      45.33400000      50.61490000
C       54.69800000      50.61340000      45.33550000
C       54.69770000      49.38350000      54.66440000
C       45.30190000      49.38660000      45.33560000
C       49.15710000      54.63340000      54.63310000
C       49.15400000      45.36720000      45.36690000
C       50.84290000      45.36660000      54.63310000
C       45.30060000      45.33710000      49.38510000
C       45.30370000      54.66600000      50.61500000
C       54.69940000      54.66290000      49.38500000
C       45.31480000      49.20480000      54.64060000
C       50.54990000      45.31380000      45.31390000
C       54.68650000      54.63900000      50.79670000
C       54.68470000      49.20170000      45.35940000
C       54.68520000      50.79520000      54.64050000
C       45.31530000      50.79830000      45.35950000
C       49.44700000      45.31410000      54.68610000
C       49.45000000      54.68620000      45.31400000
C       50.55310000      54.68590000      54.68600000
C       45.31660000      54.64210000      49.20330000
C       45.31350000      45.36100000      50.79670000
C       54.68340000      45.35790000      49.20330000
C       51.53750000      55.43690000      46.32220000
C       55.49790000      46.28980000      51.36720000
C       46.23900000      51.28630000      55.51980000
C       48.46610000      55.43790000      53.67780000
C       48.46240000      44.56310000      46.32220000
C       51.53400000      44.56210000      53.67780000
C       44.49970000      46.29350000      48.63280000
C       44.50210000      53.71020000      51.36730000
C       55.50030000      53.70650000      48.63270000
C       53.76190000      51.28380000      44.48020000
C       53.76110000      48.71370000      55.51970000
C       46.23810000      48.71620000      44.48030000
C       51.26800000      44.48570000      46.24610000
C       55.59060000      53.71210000      51.42410000
C       46.31060000      48.44800000      55.39210000
C       48.72840000      44.48650000      53.75390000
C       48.73200000      55.51430000      46.24610000
C       51.27170000      55.51350000      53.75390000
C       44.41190000      53.71580000      48.57590000
C       44.40940000      46.28790000      51.42410000
C       55.58810000      46.28420000      48.57590000
C       53.68830000      48.44560000      44.60790000
C       53.68940000      51.55200000      55.39200000
C       46.31160000      51.55450000      44.60800000
C       46.12310000      52.68880000      55.62290000
C       52.94670000      55.45260000      46.24590000
C       55.44580000      46.20160000      52.78930000
C       53.87870000      52.68620000      44.37710000
C       53.87700000      47.31120000      55.62290000
C       46.12130000      47.31380000      44.37710000
C       47.05700000      55.45460000      53.75410000
C       47.05330000      44.54740000      46.24590000
C       52.94310000      44.54540000      53.75410000
C       44.55170000      46.20520000      47.21070000
C       44.55420000      53.79840000      52.78940000
C       55.44830000      53.79480000      47.21060000
C       46.25080000      46.99500000      55.32790000
C       52.69700000      44.42740000      46.03310000
C       55.71280000      53.82670000      52.80310000
C       53.74720000      46.99250000      44.67210000
C       53.74930000      53.00500000      55.32790000
C       46.25270000      53.00750000      44.67210000
C       47.29930000      44.42910000      53.96690000
C       47.30300000      55.57260000      46.03310000
C       52.70070000      55.57090000      53.96690000
C       44.28980000      53.83050000      47.19690000
C       44.28730000      46.17330000      52.80310000
C       55.71020000      46.16950000      47.19690000
C       51.41300000      56.61170000      51.50960000
C       56.75210000      51.46210000      51.46430000
C       51.41130000      51.50920000      56.61220000
C       48.59140000      56.61270000      48.49040000
C       48.58700000      43.38830000      51.50960000
C       51.40860000      43.38730000      48.49040000
C       43.24880000      51.46660000      48.53570000
C       43.24790000      48.53790000      51.46430000
C       56.75120000      48.53340000      48.53570000
C       48.58970000      51.51010000      43.38780000
C       48.58870000      48.49080000      56.61220000
C       51.41030000      48.48990000      43.38780000
C       51.51430000      43.37790000      51.39680000
C       56.70480000      48.54390000      51.45380000
C       51.51610000      48.60260000      56.62160000
C       48.48130000      43.37890000      48.60320000
C       48.48570000      56.62210000      51.39690000
C       51.51870000      56.62110000      48.60310000
C       43.29430000      48.54840000      48.54620000
C       43.29530000      51.45610000      51.45390000
C       56.70570000      51.45160000      48.54610000
C       48.48300000      48.60370000      43.37840000
C       48.48400000      51.39730000      56.62160000
C       51.51700000      51.39630000      43.37840000
C       44.50040000      48.63460000      46.29170000
C       48.46300000      46.32270000      44.56260000
C       46.23670000      44.48150000      48.71490000
C       55.49870000      48.63090000      53.70830000
C       55.49950000      51.36540000      46.29160000
C       44.50140000      51.36910000      53.70840000
C       51.53450000      46.32170000      55.43740000
C       51.53690000      53.67730000      44.56260000
C       48.46550000      53.67830000      55.43740000
C       53.75960000      44.47900000      51.28500000
C       53.76330000      55.51850000      48.71490000
C       46.24040000      55.52100000      51.28510000
C       44.41110000      51.42600000      46.28610000
C       48.73140000      53.75430000      44.48610000
C       46.31290000      55.39330000      48.44680000
C       55.58990000      51.42220000      53.71390000
C       55.58890000      48.57400000      46.28600000
C       44.41020000      48.57780000      53.71400000
C       51.27110000      53.75350000      55.51390000
C       51.26860000      46.24570000      44.48610000
C       48.72900000      46.24650000      55.51390000
C       53.69070000      55.39080000      51.55320000
C       53.68710000      44.60670000      48.44680000
C       46.30930000      44.60920000      51.55320000
C       56.22040000      52.62870000      50.73310000
C       52.62270000      50.85210000      56.07140000
C       50.62000000      56.10060000      52.64500000
C       43.78130000      52.63290000      49.26690000
C       43.77960000      47.37130000      50.73320000
C       56.21870000      47.36710000      49.26680000
C       47.37780000      50.85390000      43.92860000
C       47.37730000      49.14790000      56.07140000
C       52.62210000      49.14610000      43.92860000
C       49.38400000      56.10100000      47.35500000
C       49.38000000      43.89940000      52.64500000
C       50.61590000      43.89900000      47.35500000
C       56.17540000      47.37160000      50.71770000
C       52.66560000      49.38700000      56.11100000
C       50.84440000      43.90620000      52.59980000
C       43.82290000      47.37570000      49.28230000
C       43.82460000      52.62840000      50.71780000
C       56.17710000      52.62430000      49.28220000
C       47.33400000      49.38870000      43.88900000
C       47.33450000      50.61300000      56.11100000
C       52.66590000      50.61130000      43.88900000
C       49.15160000      43.90680000      47.40020000
C       49.15560000      56.09380000      52.59980000
C       50.84840000      56.09320000      47.40020000
C       50.61890000      52.64480000      56.10080000
C       52.62440000      56.07060000      50.85300000
C       56.21980000      50.73110000      52.63080000
C       49.38290000      52.64520000      43.89920000
C       49.38120000      47.35520000      56.10080000
C       50.61710000      47.35480000      43.89920000
C       47.37960000      56.07230000      49.14700000
C       47.37560000      43.92940000      50.85300000
C       52.62040000      43.92770000      49.14700000
C       43.78070000      50.73520000      47.36920000
C       43.78020000      49.26890000      52.63080000
C       56.21930000      49.26480000      47.36920000
C       50.84560000      47.39990000      56.09350000
C       52.66370000      43.88810000      50.61210000
C       56.17600000      49.28020000      52.62630000
C       49.15270000      47.40050000      43.90650000
C       49.15450000      52.60010000      56.09350000
C       50.84720000      52.59950000      43.90650000
C       47.33220000      43.88990000      49.38790000
C       47.33630000      56.11190000      50.61220000
C       52.66780000      56.11010000      49.38780000
C       43.82350000      49.28430000      47.37370000
C       43.82400000      50.71980000      52.62640000
C       56.17650000      50.71570000      47.37360000
C       53.75000000      55.32660000      53.00620000
C       55.71240000      52.80120000      53.82860000
C       52.70020000      53.96600000      55.57170000
C       46.25350000      55.32910000      46.99380000
C       46.25000000      44.67340000      53.00630000
C       53.74650000      44.67090000      46.99370000
C       44.28940000      52.80500000      46.17140000
C       44.28760000      47.19880000      53.82870000
C       55.71050000      47.19500000      46.17130000
C       47.30250000      53.96780000      44.42830000
C       47.29990000      46.03400000      55.57180000
C       52.69750000      46.03220000      44.42820000
C       53.87600000      44.37580000      52.68750000
C       55.44610000      47.20880000      53.79650000
C       52.94370000      46.24490000      55.45360000
C       46.12030000      44.37840000      47.31250000
C       46.12410000      55.62420000      52.68750000
C       53.87970000      55.62160000      47.31250000
C       44.55200000      47.21250000      46.20350000
C       44.55390000      52.79120000      53.79660000
C       55.44790000      52.78760000      46.20340000
C       47.05380000      46.24690000      44.54640000
C       47.05640000      53.75510000      55.45360000
C       52.94610000      53.75310000      44.54640000
