240
Lattice="100.0 0.0 0.0 0.0 100.0 0.0 0.0 0.0 100.0" Properties=species:S:1:pos:R:3 name=C-71174-8496-292 pressure=-21.2260742536701 energy=-1774.82729450499 spacegroup=Td times_found=1 pbc="T T T"
C       51.71220000      54.05200000      50.83080000
C       50.83080000      51.71220000      54.05200000
C       54.05200000      50.83080000      51.71220000
C       48.28780000      54.05200000      49.16910000
C       51.71220000      45.94800000      49.16920000
C       48.28780000      45.94800000      50.83080000
C       49.16920000      51.71220000      45.94800000
C       50.83090000      48.28780000      45.94800000
C       49.16910000      48.28780000      54.05200000
C       45.94800000      50.83080000      48.28770000
C       54.05200000      49.16910000      48.28790000
C       45.94800000      49.16920000      51.71210000
C       50.83080000      54.05200000      51.71220000
C       54.05200000      51.71220000      50.83090000
C       51.71210000      50.83090000      54.05200000
C       49.16920000      54.05200000      48.28780000
C       49.16910000      45.94800000      51.71220000
C       50.83080000      45.94800000      48.28780000
C       45.94800000      51.71220000      49.16910000
C       45.94800000      48.28780000      50.83080000
C       54.05200000      48.28780000      49.16920000
C       48.28790000      50.83080000      45.94800000
C       48.28770000      49.16920000      54.05200000
C       51.71220000      49.16910000      45.94800000
C       51.28810000      47.69000000      56.33380000
C       56.33380000      51.28820000      47.69000000
C       47.68990000      56.33380000      51.28820000
C       48.71190000      47.68990000      43.66620000
C       51.28830000      52.31000000      43.66620000
C       48.71170000      52.31010000      56.33370000
C       43.66620000      51.28830000      52.31000000
C       56.33370000      48.71180000      52.31020000
C       43.66620000      48.71180000      47.68990000
C       52.31010000      56.33380000      48.71180000
C       47.68990000      43.66620000      48.71180000
C       52.31000000      43.66620000      51.28830000
C       56.33380000      47.68990000      51.28830000
C       47.68990000      51.28830000      56.33370000
C       51.28830000      56.33380000      47.68990000
C       43.66620000      47.69000000      48.71170000
C       43.66620000      52.31010000      51.28810000
C       56.33380000      52.31000000      48.71190000
C       52.31010000      51.28820000      43.66620000
C       52.31000000      48.71180000      56.33380000
C       47.69000000      48.71180000      43.66620000
C       48.71180000      56.33380000      52.31000000
C       48.71180000      43.66620000      47.69000000
C       51.28820000      43.66620000      52.31010000
C       45.00590000      52.96400000      48.89370000
C       48.89380000      45.00590000      52.96400000
C       52.96400000      48.89380000      45.00590000
C       54.99410000      52.96390000      51.10620000
C       45.00580000      47.03610000      51.10610000
C       54.99420000      47.03600000      48.89390000
C       51.10620000      45.00580000      47.03610000
C       48.89390000      54.99410000      47.03600000
C       51.10610000      54.99420000      52.96390000
C       47.03600000      48.89390000      54.99410000
C       52.96390000      51.10620000      54.99420000
C       47.03610000      51.10610000      45.00580000
C       48.89390000      52.96390000      45.00580000
C       52.96390000      45.00580000      48.89390000
C       45.00580000      48.89390000      52.96390000
C       51.10610000      52.96400000      54.99410000
C       51.10620000      47.03600000      45.00590000
C       48.89380000      47.03610000      54.99410000
C       47.03600000      45.00590000      51.10620000
C       47.03610000      54.99410000      48.89380000
C       52.96390000      54.99410000      51.10620000
C       54.99420000      48.89380000      47.03610000
C       54.99410000      51.10620000      52.96400000
C       45.00590000      51.10620000      47.03600000
C       51.02970000      42.00380000      50.00030000
C       50.00030000      51.02970000      42.00380000
C       42.00380000      50.00020000      51.02970000
C       48.97020000      42.00380000      49.99980000
C       51.02980000      57.99620000      49.99980000
C       48.97030000      57.99620000      50.00010000
C       49.99970000      51.02980000      57.99620000
C       50.00010000      48.97030000      57.99620000
C       49.99990000      48.97020000      42.00380000
C       57.99620000      50.00020000      48.97030000
C       42.00380000      49.99980000      48.97010000
C       57.99620000      49.99980000      51.02990000
C       50.00020000      42.00380000      51.02980000
C       42.00380000      51.02980000      50.00010000
C       51.02990000      50.00020000      42.00380000
C       49.99980000      42.00380000      48.97030000
C       49.99980000      57.99620000      51.02970000
C       50.00020000      57.99620000      48.97020000
C       57.99620000      51.02970000      49.99990000
C       57.99620000      48.97020000      50.00030000
C       42.00380000      48.97030000      49.99970000
C       48.97010000      50.00030000      57.99620000
C       48.97030000      49.99970000      42.00380000
C       51.02970000      49.99980000      57.99620000
C       50.09740000      53.84140000      45.17940000
C       45.17940000      50.09730000      53.84140000
C       53.84140000      45.17940000      50.09740000
C       49.90260000      53.84150000      54.82060000
C       50.09720000      46.15860000      54.82060000
C       49.90270000      46.15850000      45.17940000
C       54.82060000      50.09730000      46.15860000
C       45.17950000      49.90270000      46.15850000
C       54.82050000      49.90270000      53.84150000
C       46.15860000      45.17940000      49.90270000
C       53.84150000      54.82060000      49.90270000
C       46.15860000      54.82060000      50.09720000
C       45.17940000      53.84140000      50.09720000
C       53.84150000      50.09730000      45.17950000
C       50.09720000      45.17940000      53.84150000
C       54.82060000      53.84140000      49.90270000
C       54.82060000      46.15860000      50.09740000
C       45.17940000      46.15860000      49.90260000
C       46.15850000      50.09730000      54.82050000
C       46.15860000      49.90270000      45.17940000
C       53.84140000      49.90270000      54.82060000
C       49.90270000      45.17940000      46.15860000
C       49.90270000      54.82060000      53.84140000
C       50.09740000      54.82060000      46.15850000
C       52.00860000      56.99160000      49.98150000
C       49.98150000      52.00860000      56.99160000
C       56.99150000      49.98150000      52.00870000
C       47.99150000      56.99160000      50.01840000
C       52.00850000      43.00840000      50.01850000
C       47.99140000      43.00840000      49.98160000
C       50.01850000      52.00850000      43.00840000
C       49.98160000      47.99140000      43.00840000
C       50.01830000      47.99150000      56.99160000
C       43.00840000      49.98160000      47.99130000
C       56.99160000      50.01840000      47.99150000
C       43.00840000      50.01850000      52.00850000
C       49.98150000      56.99160000      52.00850000
C       56.99160000      52.00850000      49.98160000
C       52.00850000      49.98160000      56.99160000
C       50.01850000      56.99160000      47.99140000
C       50.01840000      43.00840000      52.00860000
C       49.98160000      43.00840000      47.99150000
C       43.00840000      52.00860000      50.01830000
C       43.00840000      47.99150000      49.98150000
C       56.99160000      47.99140000      50.01860000
C       47.99150000      49.98150000      43.00840000
C       47.99130000      50.01850000      56.99150000
C       52.00870000      50.01840000      43.00850000
C       53.30800000      51.32770000      44.67840000
C       44.67840000      53.30800000      51.32760000
C       51.32770000      44.67840000      53.30800000
C       46.69200000      51.32780000      55.32150000
C       53.30790000      48.67230000      55.32170000
C       46.69210000      48.67230000      44.67840000
C       55.32160000      53.30790000      48.67230000
C       44.67840000      46.69200000      48.67220000
C       55.32160000      46.69200000      51.32780000
C       48.67230000      44.67840000      46.69200000
C       51.32780000      55.32160000      46.69200000
C       48.67220000      55.32160000      53.30790000
C       44.67840000      51.32780000      53.30790000
C       51.32780000      53.30790000      44.67840000
C       53.30790000      44.67840000      51.32780000
C       55.32160000      51.32770000      46.69210000
C       55.32160000      48.67230000      53.30800000
C       44.67840000      48.67230000      46.69200000
C       48.67220000      53.30800000      55.32160000
C       48.67230000      46.69200000      44.67840000
C       51.32760000      46.69210000      55.32160000
C       46.69200000      44.67840000      48.67230000
C       46.69200000      55.32160000      51.32760000
C       53.30800000      55.32160000      48.67230000
C       48.82130000      47.80820000      56.26410000
C       56.26410000      48.82140000      47.80820000
C       47.80820000      56.26410000      48.82130000
C       51.17870000      47.80810000      43.73590000
C       48.82150000      52.19180000      43.73590000
C       51.17850000      52.19190000      56.26410000
C       43.73590000      48.82140000      52.19180000
C       56.26410000      51.17860000      52.19190000
C       43.73590000      51.17860000      47.80800000
C       52.19190000      56.26410000      51.17860000
C       47.80810000      43.73590000      51.17860000
C       52.19190000      43.73590000      48.82150000
C       56.26410000      47.80810000      48.82150000
C       47.80800000      48.82140000      56.26410000
C       48.82150000      56.26410000      47.80810000
C       43.73590000      47.80820000      51.17850000
C       43.73590000      52.19190000      48.82130000
C       56.26410000      52.19180000      51.17870000
C       52.19190000      48.82140000      43.73590000
C       52.19180000      51.17860000      56.26410000
C       47.80820000      51.17860000      43.73590000
C       51.17860000      56.26410000      52.19180000
C       51.17860000      43.73590000      47.80820000
C       48.82140000      43.73590000      52.19190000
C       45.61620000      52.40090000      46.59840000
C       46.59840000      45.61620000      52.40090000
C       52.40090000      46.59840000      45.61620000
C       54.38380000      52.40090000      53.40160000
C       45.61610000      47.59920000      53.40150000
C       54.38390000      47.59910000      46.59850000
C       53.40150000      45.61610000      47.59920000
C       46.59850000      54.38390000      47.59910000
C       53.40150000      54.38390000      52.40090000
C       47.59910000      46.59850000      54.38390000
C       52.40080000      53.40150000      54.38390000
C       47.59920000      53.40150000      45.61610000
C       46.59850000      52.40090000      45.61610000
C       52.40090000      45.61610000      46.59850000
C       45.61610000      46.59850000      52.40080000
C       53.40150000      52.40090000      54.38390000
C       53.40160000      47.59910000      45.61620000
C       46.59840000      47.59920000      54.38380000
C       47.59910000      45.61620000      53.40150000
C       47.59920000      54.38390000      46.59840000
C       52.40080000      54.38390000      53.40150000
C       54.38390000      46.59840000      47.59920000
C       54.38390000      53.40150000      52.40090000
C       45.61620000      53.40150000      47.59900000
C       52.50980000      54.53290000      46.47910000
C       46.47900000      52.50970000      54.53290000
C       54.53290000      46.47910000      52.50980000
C       47.49030000      54.53300000      53.52090000
C       52.50960000      45.46710000      53.52100000
C       47.49030000      45.46710000      46.47910000
C       53.52100000      52.50970000      45.46710000
C       46.47910000      47.49030000      45.46700000
C       53.52090000      47.49030000      54.53300000
C       45.46710000      46.47910000      47.49030000
C       54.53300000      53.52090000      47.49030000
C       45.46710000      53.52100000      52.50960000
C       46.47900000      54.53300000      52.50960000
C       54.53300000      52.50970000      46.47910000
C       52.50960000      46.47910000      54.53300000
C       53.52100000      54.53290000      47.49030000
C       53.52090000      45.46710000      52.50980000
C       46.47910000      45.46710000      47.49030000
C       45.46700000      52.50970000      53.52090000
C       45.46710000      47.49030000      46.47900000
C       54.53290000      47.49030000      53.52100000
C       47.49030000      46.47900000      45.46710000
C       47.49020000      53.52100000      54.53290000
C       52.50980000      53.52090000      45.46710000
