240
Lattice="100.0 0.0 0.0 0.0 100.0 0.0 0.0 0.0 100.0" Properties=species:S:1:pos:R:3 name=C-71174-8496-180 pressure=0.0138260272694253 spacegroup=Th times_found=1 energy=-1723.43969423847 pbc="T T T"
C       51.68490000      43.78230000      52.76810000
C       43.78280000      52.76880000      51.68550000
C       52.76840000      51.68540000      43.78260000
C       48.31380000      43.78280000      47.23170000
C       48.31500000      56.21760000      52.76820000
C       51.68630000      56.21730000      47.23200000
C       56.21780000      52.76750000      48.31460000
C       56.21710000      47.23120000      51.68570000
C       43.78230000      47.23250000      48.31420000
C       47.23190000      51.68580000      56.21740000
C       47.23180000      48.31480000      43.78250000
C       52.76780000      48.31400000      56.21750000
C       51.68620000      56.21720000      52.76830000
C       43.78220000      47.23250000      51.68540000
C       52.76810000      48.31420000      43.78260000
C       48.31510000      56.21770000      47.23190000
C       48.31370000      43.78270000      52.76800000
C       51.68500000      43.78240000      47.23180000
C       56.21720000      47.23120000      48.31450000
C       56.21770000      52.76750000      51.68580000
C       43.78290000      52.76880000      48.31430000
C       47.23160000      48.31460000      56.21740000
C       47.23220000      51.68600000      43.78250000
C       52.76820000      51.68520000      56.21750000
C       46.30060000      49.32630000      44.23230000
C       49.32530000      44.23250000      46.30040000
C       44.23200000      46.30120000      49.32560000
C       53.69930000      49.32530000      55.76760000
C       53.69960000      50.67390000      44.23250000
C       46.30050000      50.67450000      55.76750000
C       50.67350000      44.23230000      53.69940000
C       50.67490000      55.76760000      46.30060000
C       49.32640000      55.76760000      53.69950000
C       55.76720000      46.29990000      50.67420000
C       55.76800000      53.69890000      49.32600000
C       44.23280000      53.70010000      50.67410000
C       46.30070000      50.67470000      44.23240000
C       49.32650000      55.76770000      46.30060000
C       44.23280000      53.70010000      49.32580000
C       53.69940000      50.67370000      55.76770000
C       53.69950000      49.32550000      44.23250000
C       46.30040000      49.32610000      55.76750000
C       50.67470000      55.76750000      53.69960000
C       50.67360000      44.23240000      46.30050000
C       49.32510000      44.23240000      53.69940000
C       55.76800000      53.69880000      50.67440000
C       55.76720000      46.29990000      49.32590000
C       44.23200000      46.30110000      50.67400000
C       55.47520000      45.65000000      45.24790000
C       45.64990000      45.24820000      55.47540000
C       45.24850000      55.47610000      45.65050000
C       44.52390000      45.65100000      54.75200000
C       44.52500000      54.35020000      45.24780000
C       55.47590000      54.34890000      54.75230000
C       54.34910000      45.24750000      44.52450000
C       54.34990000      54.75160000      55.47570000
C       45.65110000      54.75270000      44.52440000
C       54.75260000      55.47500000      54.34970000
C       54.75160000      44.52400000      45.65050000
C       45.24720000      44.52490000      54.34930000
C       55.47610000      54.34900000      45.24800000
C       45.65090000      54.75250000      55.47550000
C       45.24740000      44.52500000      45.65030000
C       44.52480000      54.35000000      54.75210000
C       44.52410000      45.65110000      45.24770000
C       55.47500000      45.64980000      54.75220000
C       54.35010000      54.75180000      44.52460000
C       54.34890000      45.24730000      55.47560000
C       45.65010000      45.24840000      44.52430000
C       54.75150000      44.52390000      54.34950000
C       54.75280000      55.47510000      45.65070000
C       45.24840000      55.47600000      54.34950000
C       45.37950000      51.68260000      44.74770000
C       51.68150000      44.74770000      45.37920000
C       44.74730000      45.37970000      51.68180000
C       54.62090000      51.68140000      55.25230000
C       54.62070000      48.31760000      44.74780000
C       45.37890000      48.31840000      55.25210000
C       48.31740000      44.74790000      54.62070000
C       48.31870000      55.25250000      45.37930000
C       51.68250000      55.25200000      54.62090000
C       55.25180000      45.37870000      48.31800000
C       55.25270000      54.62020000      51.68220000
C       44.74830000      54.62140000      48.31800000
C       45.37910000      48.31860000      44.74770000
C       51.68260000      55.25210000      45.37930000
C       44.74820000      54.62130000      51.68200000
C       54.62050000      48.31740000      55.25230000
C       54.62110000      51.68160000      44.74790000
C       45.37930000      51.68240000      55.25220000
C       48.31850000      55.25230000      54.62080000
C       48.31750000      44.74800000      45.37910000
C       51.68130000      44.74750000      54.62070000
C       55.25270000      54.62030000      48.31820000
C       55.25170000      45.37860000      51.68200000
C       44.74730000      45.37980000      48.31780000
C       53.70340000      47.32200000      44.11560000
C       47.32160000      44.11580000      53.70350000
C       44.11610000      53.70430000      47.32220000
C       46.29600000      47.32260000      55.88430000
C       46.29680000      52.67820000      44.11560000
C       53.70380000      52.67730000      55.88450000
C       52.67720000      44.11540000      46.29640000
C       52.67830000      55.88400000      53.70380000
C       47.32290000      55.88470000      46.29640000
C       55.88470000      53.70290000      52.67790000
C       55.88400000      46.29580000      47.32230000
C       44.11520000      46.29700000      52.67760000
C       53.70400000      52.67740000      44.11570000
C       47.32280000      55.88460000      53.70360000
C       44.11530000      46.29710000      47.32210000
C       46.29660000      52.67800000      55.88440000
C       46.29620000      47.32270000      44.11550000
C       53.70320000      47.32180000      55.88440000
C       52.67840000      55.88420000      46.29650000
C       52.67710000      44.11530000      53.70360000
C       47.32170000      44.11600000      46.29620000
C       55.88390000      46.29570000      52.67780000
C       55.88480000      53.70300000      47.32240000
C       44.11600000      53.70420000      52.67770000
C       56.35560000      51.39620000      51.88530000
C       51.39700000      51.88490000      56.35550000
C       51.88580000      56.35520000      51.39710000
C       43.64470000      51.39760000      48.11470000
C       43.64440000      48.60370000      51.88500000
C       56.35530000      48.60240000      48.11490000
C       48.60340000      51.88540000      43.64460000
C       48.60280000      48.11490000      56.35540000
C       51.39680000      48.11480000      43.64450000
C       48.11550000      56.35570000      48.60310000
C       48.11410000      43.64470000      51.39680000
C       51.88450000      43.64440000      48.60300000
C       56.35530000      48.60240000      51.88530000
C       51.39660000      48.11460000      56.35540000
C       51.88450000      43.64430000      51.39690000
C       43.64440000      48.60380000      48.11470000
C       43.64470000      51.39760000      51.88510000
C       56.35560000      51.39630000      48.11500000
C       48.60300000      48.11510000      43.64450000
C       48.60320000      51.88520000      56.35550000
C       51.39720000      51.88510000      43.64460000
C       48.11420000      43.64480000      48.60290000
C       48.11550000      56.35560000      51.39700000
C       51.88590000      56.35530000      48.60320000
C       45.81800000      55.53230000      48.22810000
C       55.53170000      48.22760000      45.81750000
C       48.22760000      45.81750000      55.53170000
C       54.18320000      55.53130000      51.77200000
C       54.18210000      44.46780000      48.22810000
C       45.81680000      44.46860000      51.77170000
C       44.46790000      48.22860000      54.18250000
C       44.46850000      51.77250000      45.81730000
C       55.53190000      51.77120000      54.18280000
C       51.77150000      45.81730000      44.46820000
C       51.77220000      54.18240000      55.53190000
C       48.22870000      54.18290000      44.46820000
C       45.81680000      44.46870000      48.22800000
C       55.53210000      51.77140000      45.81750000
C       48.22850000      54.18270000      55.53180000
C       54.18200000      44.46770000      51.77190000
C       54.18320000      55.53140000      48.22830000
C       45.81790000      55.53220000      51.77190000
C       44.46830000      51.77240000      54.18250000
C       44.46810000      48.22880000      45.81720000
C       55.53150000      48.22750000      54.18270000
C       51.77240000      54.18250000      44.46830000
C       51.77130000      45.81710000      55.53180000
C       48.22780000      45.81760000      44.46810000
C       43.28560000      50.70560000      49.26820000
C       50.70490000      49.26830000      43.28560000
C       49.26760000      43.28560000      50.70470000
C       56.71450000      50.70410000      50.73190000
C       56.71440000      49.29450000      49.26840000
C       43.28550000      49.29580000      50.73160000
C       49.29490000      49.26830000      56.71440000
C       49.29540000      50.73190000      43.28550000
C       50.70480000      50.73150000      56.71450000
C       50.73100000      43.28550000      49.29510000
C       50.73240000      56.71440000      50.70500000
C       49.26900000      56.71450000      49.29520000
C       43.28550000      49.29590000      49.26810000
C       50.70510000      50.73170000      43.28560000
C       49.26900000      56.71450000      50.70490000
C       56.71440000      49.29440000      50.73180000
C       56.71450000      50.70420000      49.26840000
C       43.28560000      50.70550000      50.73160000
C       49.29510000      50.73170000      56.71440000
C       49.29520000      49.26850000      43.28550000
C       50.70460000      49.26810000      56.71450000
C       50.73240000      56.71440000      49.29530000
C       50.73100000      43.28550000      50.70480000
C       49.26760000      43.28560000      49.29500000
C       55.96220000      50.74400000      46.84220000
C       50.74410000      46.84190000      55.96200000
C       46.84260000      55.96240000      50.74460000
C       44.03800000      50.74510000      53.15790000
C       44.03790000      49.25610000      46.84190000
C       55.96190000      49.25480000      53.15810000
C       49.25530000      46.84220000      44.03790000
C       49.25570000      53.15800000      55.96210000
C       50.74500000      53.15800000      44.03800000
C       53.15860000      55.96170000      49.25560000
C       53.15730000      44.03760000      50.74450000
C       46.84140000      44.03830000      49.25530000
C       55.96200000      49.25490000      46.84210000
C       50.74470000      53.15780000      55.96210000
C       46.84140000      44.03830000      50.74440000
C       44.03780000      49.25600000      53.15780000
C       44.03810000      50.74520000      46.84190000
C       55.96210000      50.74390000      53.15810000
C       49.25590000      53.15810000      44.03800000
C       49.25500000      46.84200000      55.96200000
C       50.74430000      46.84200000      44.03790000
C       53.15740000      44.03760000      49.25540000
C       53.15860000      55.96170000      50.74470000
C       46.84270000      55.96240000      49.25550000
C       53.22210000      53.96550000      44.19880000
C       53.96510000      44.19820000      53.22160000
C       44.19890000      53.22210000      53.96570000
C       46.77870000      53.96600000      55.80140000
C       46.77810000      46.03460000      44.19850000
C       53.22110000      46.03380000      55.80140000
C       46.03370000      44.19910000      46.77820000
C       46.03480000      55.80170000      53.22160000
C       53.96650000      55.80100000      46.77860000
C       55.80180000      53.22110000      46.03440000
C       55.80090000      46.77770000      53.96580000
C       44.19840000      46.77910000      46.03410000
C       53.22130000      46.03400000      44.19860000
C       53.96630000      55.80090000      53.22180000
C       44.19820000      46.77890000      53.96560000
C       46.77790000      46.03450000      55.80120000
C       46.77890000      53.96620000      44.19860000
C       53.22190000      53.96540000      55.80150000
C       46.03490000      55.80180000      46.77840000
C       46.03350000      44.19900000      53.22140000
C       53.96520000      44.19830000      46.77840000
C       55.80110000      46.77790000      46.03430000
C       55.80160000      53.22090000      53.96590000
C       44.19910000      53.22230000      46.03420000
