240
Lattice="100.0 0.0 0.0 0.0 100.0 0.0 0.0 0.0 100.0" Properties=species:S:1:pos:R:3 name=C-71174-8496-83 pressure=-0.0309883498980806 energy=-1865.40672626182 spacegroup=Oh times_found=1 pbc="T T T"
C       55.80560000      45.92290000      50.71330000
C       45.92390000      50.71490000      55.80600000
C       50.71260000      55.80440000      45.92110000
C       44.19560000      45.92110000      49.28770000
C       44.19490000      54.07730000      50.71640000
C       55.80390000      54.07880000      49.28270000
C       54.07590000      50.71470000      44.19380000
C       54.08010000      49.28640000      55.80340000
C       45.92010000      49.28390000      44.19680000
C       49.28580000      55.80510000      54.07760000
C       49.28460000      44.19470000      45.92290000
C       50.71710000      44.19580000      54.07840000
C       55.80440000      54.07890000      50.71230000
C       45.92410000      49.28530000      55.80620000
C       50.71420000      44.19490000      45.92240000
C       44.19440000      54.07710000      49.28670000
C       44.19610000      45.92120000      50.71730000
C       55.80510000      45.92270000      49.28360000
C       54.07610000      49.28510000      44.19400000
C       54.07990000      50.71610000      55.80320000
C       45.91990000      50.71360000      44.19660000
C       49.28740000      44.19560000      54.07890000
C       49.28290000      55.80420000      45.92160000
C       50.71540000      55.80530000      54.07710000
C       50.69820000      56.82430000      48.25150000
C       56.82490000      48.25360000      50.69770000
C       48.25480000      50.70030000      56.82490000
C       49.29980000      56.82450000      51.74690000
C       49.30060000      43.17530000      48.25360000
C       50.70140000      43.17590000      51.74800000
C       43.17560000      48.25150000      49.30270000
C       43.17560000      51.74650000      50.70200000
C       56.82390000      51.74840000      49.29760000
C       51.74500000      50.69930000      43.17490000
C       51.74990000      49.30120000      56.82390000
C       48.25030000      49.29920000      43.17630000
C       50.70020000      43.17550000      48.25310000
C       56.82440000      51.74850000      50.69730000
C       48.25500000      49.30070000      56.82510000
C       49.30180000      43.17570000      51.74850000
C       49.29860000      56.82410000      48.25200000
C       50.69940000      56.82470000      51.74640000
C       43.17510000      51.74640000      49.30230000
C       43.17610000      48.25160000      50.70240000
C       56.82440000      48.25350000      49.29800000
C       51.74520000      49.29970000      43.17510000
C       51.74970000      50.70080000      56.82370000
C       48.25010000      50.69880000      43.17610000
C       50.71340000      45.92140000      44.19550000
C       45.92310000      44.19480000      50.71690000
C       44.19380000      50.71350000      45.92390000
C       49.28780000      45.92250000      55.80540000
C       49.28260000      54.07730000      44.19510000
C       50.71620000      54.07880000      55.80400000
C       54.07860000      44.19580000      49.28440000
C       54.07740000      55.80540000      50.71270000
C       45.92090000      55.80400000      49.28590000
C       55.80600000      50.71610000      54.07590000
C       55.80340000      49.28560000      45.92010000
C       44.19680000      49.28480000      54.08010000
C       50.71220000      54.07750000      44.19460000
C       45.92140000      55.80420000      50.71560000
C       44.19400000      49.28390000      45.92410000
C       49.28660000      54.07860000      55.80450000
C       49.28380000      45.92120000      44.19600000
C       50.71740000      45.92270000      55.80490000
C       54.07690000      55.80520000      49.28310000
C       54.07910000      44.19600000      50.71410000
C       45.92260000      44.19460000      49.28730000
C       55.80620000      49.28650000      54.07610000
C       55.80320000      50.71520000      45.91990000
C       44.19660000      50.71440000      54.07990000
C       43.60940000      52.96710000      51.34890000
C       52.96550000      51.34670000      43.60820000
C       51.34890000      43.60990000      52.96810000
C       56.38970000      52.96860000      48.65050000
C       56.39150000      47.03320000      51.34510000
C       43.60940000      47.03100000      48.65550000
C       47.03410000      51.34730000      56.39150000
C       47.03010000      48.65190000      43.61060000
C       52.97030000      48.65420000      56.38970000
C       48.65290000      43.60890000      47.03330000
C       48.65310000      56.39070000      52.96760000
C       51.34500000      56.39050000      47.03090000
C       43.61030000      47.03140000      51.34950000
C       52.96590000      48.65270000      43.60850000
C       51.34710000      56.39110000      52.96670000
C       56.39060000      47.03290000      48.65110000
C       56.39060000      52.96900000      51.34450000
C       43.60850000      52.96680000      48.65490000
C       47.03450000      48.65330000      56.39180000
C       47.02970000      51.34580000      43.61030000
C       52.96990000      51.34810000      56.38940000
C       48.65110000      56.39010000      47.03190000
C       48.65500000      43.60950000      52.96910000
C       51.34690000      43.60930000      47.03240000
C       52.70890000      47.28910000      43.87800000
C       47.29120000      43.87860000      52.71220000
C       43.87730000      52.70940000      47.29120000
C       47.29190000      47.28970000      56.12260000
C       47.28690000      52.70950000      43.87930000
C       52.71230000      52.71170000      56.12010000
C       52.71060000      43.87870000      47.28910000
C       52.71070000      56.12200000      52.70900000
C       47.28760000      56.12070000      47.28960000
C       56.12190000      52.71180000      52.70820000
C       56.12080000      47.29000000      47.28760000
C       43.88000000      47.28880000      52.71300000
C       52.70810000      52.71030000      43.87740000
C       47.28940000      56.12130000      52.71090000
C       43.87810000      47.28820000      47.29180000
C       47.29110000      52.71090000      56.12200000
C       47.28770000      47.28830000      43.87990000
C       52.71310000      47.29050000      56.12070000
C       52.70880000      56.12140000      47.28780000
C       52.71240000      43.87930000      52.71040000
C       47.28930000      43.87800000      47.29100000
C       56.12270000      47.29060000      52.70880000
C       56.12000000      52.71120000      47.28700000
C       43.87920000      52.71000000      52.71240000
C       50.69720000      51.74680000      43.17520000
C       51.74870000      43.17590000      50.70000000
C       43.17610000      50.69900000      51.74970000
C       49.30230000      51.74810000      56.82440000
C       49.29810000      48.25170000      43.17600000
C       50.70240000      48.25340000      56.82440000
C       48.25330000      43.17530000      49.30160000
C       48.25180000      56.82420000      50.69970000
C       51.74620000      56.82460000      49.29880000
C       56.82370000      50.70060000      48.25010000
C       56.82510000      49.30140000      51.74520000
C       43.17510000      49.29900000      48.25500000
C       50.69770000      48.25190000      43.17560000
C       51.74670000      56.82470000      50.69840000
C       43.17630000      49.29940000      51.74990000
C       49.30280000      48.25320000      56.82480000
C       49.29760000      51.74660000      43.17560000
C       50.70190000      51.74830000      56.82400000
C       48.25130000      56.82410000      49.30000000
C       48.25380000      43.17540000      50.70120000
C       51.74820000      43.17580000      49.30030000
C       56.82390000      49.30100000      48.25030000
C       56.82490000      50.70100000      51.74500000
C       43.17490000      50.69860000      48.25480000
C       54.91580000      45.08500000      48.53390000
C       45.08630000      48.53490000      54.91740000
C       48.53270000      54.91480000      45.08440000
C       45.08560000      45.08390000      51.46720000
C       45.08320000      54.91470000      48.53620000
C       54.91540000      54.91640000      51.46270000
C       54.91410000      48.53520000      45.08290000
C       54.91710000      51.46620000      54.91370000
C       45.08250000      51.46370000      45.08600000
C       51.46590000      54.91630000      54.91450000
C       51.46390000      45.08410000      45.08450000
C       48.53750000      45.08480000      54.91660000
C       54.91440000      54.91610000      48.53280000
C       45.08590000      51.46480000      54.91710000
C       48.53410000      45.08370000      45.08550000
C       45.08420000      54.91500000      51.46610000
C       45.08460000      45.08360000      48.53730000
C       54.91680000      45.08530000      51.46380000
C       54.91370000      51.46510000      45.08260000
C       54.91750000      48.53630000      54.91400000
C       45.08290000      48.53380000      45.08630000
C       51.46730000      45.08520000      54.91560000
C       51.46250000      54.91520000      45.08340000
C       48.53610000      54.91590000      54.91550000
C       47.16310000      54.60720000      54.60760000
C       54.60550000      54.60750000      47.16010000
C       54.60910000      47.16340000      54.60580000
C       52.83550000      54.60700000      45.39140000
C       52.84000000      45.39380000      54.60660000
C       47.16130000      45.39200000      45.39440000
C       45.39320000      54.60680000      52.83890000
C       45.39260000      45.39190000      47.16430000
C       54.60880000      45.39390000      52.83670000
C       45.39170000      47.16100000      45.39480000
C       45.39410000      52.83760000      54.60840000
C       54.60510000      52.83790000      45.39100000
C       47.16450000      45.39300000      54.60860000
C       54.60680000      45.39320000      47.16110000
C       54.60830000      52.83900000      54.60520000
C       52.83690000      45.39280000      45.39240000
C       52.83870000      54.60800000      54.60560000
C       47.16000000      54.60620000      45.39340000
C       45.39450000      45.39250000      52.83990000
C       45.39120000      54.60610000      47.16330000
C       54.60740000      54.60810000      52.83570000
C       45.39090000      52.83660000      45.39420000
C       45.39490000      47.16210000      54.60900000
C       54.60590000      47.16240000      45.39160000
C       43.61060000      48.65240000      52.97020000
C       48.65040000      52.96700000      43.60950000
C       52.96830000      43.60970000      48.65270000
C       56.38980000      48.65360000      47.03010000
C       56.39140000      51.34830000      52.96550000
C       43.60820000      51.34570000      47.03420000
C       51.34880000      52.96880000      56.38980000
C       51.34520000      47.03160000      43.60930000
C       48.65560000      47.03270000      56.39140000
C       47.03350000      43.60910000      51.34870000
C       47.03070000      56.39000000      48.65330000
C       52.96740000      56.39120000      51.34530000
C       43.61020000      51.34640000      52.96990000
C       48.65120000      47.03120000      43.61020000
C       52.96650000      56.39090000      48.65130000
C       56.38940000      51.34760000      47.02980000
C       56.39180000      48.65430000      52.96580000
C       43.60860000      48.65170000      47.03450000
C       51.34960000      47.03300000      56.39050000
C       51.34440000      52.96730000      43.60860000
C       48.65480000      52.96840000      56.39070000
C       47.03170000      56.39030000      51.34730000
C       47.03260000      43.60880000      48.65470000
C       52.96930000      43.61000000      51.34670000
C       44.80190000      46.54170000      53.46010000
C       46.53980000      53.45680000      44.80100000
C       53.45750000      44.80030000      46.54150000
C       55.19910000      46.54240000      46.54070000
C       55.20050000      53.45910000      53.45570000
C       44.79850000      53.45680000      46.54350000
C       53.45920000      53.45900000      55.19820000
C       53.45660000      46.54200000      44.79940000
C       46.54440000      46.54220000      55.20140000
C       46.54400000      44.80010000      53.45970000
C       46.54010000      55.19890000      46.54270000
C       53.45840000      55.20070000      53.45610000
C       44.80090000      53.45760000      53.45930000
C       46.54080000      46.54100000      44.80180000
C       53.45600000      55.19990000      46.54030000
C       55.19810000      53.45830000      46.53990000
C       55.20150000      46.54320000      53.45650000
C       44.79950000      46.54090000      46.54430000
C       53.46020000      46.54320000      55.19900000
C       53.45560000      53.45780000      44.79860000
C       46.54340000      53.45800000      55.20060000
C       46.54250000      55.19970000      53.45850000
C       46.54160000      44.79930000      46.54390000
C       53.45990000      44.80110000      53.45730000
