240
Lattice="100.0 0.0 0.0 0.0 100.0 0.0 0.0 0.0 100.0" Properties=species:S:1:pos:R:3 name=C-71174-8496-756 pressure=-0.0189399030705679 energy=-1756.49315361252 spacegroup=C1 times_found=1 pbc="T T T"
C       41.93730000      50.48190000      48.68610000
C       50.68870000      48.46830000      42.34370000
C       48.26750000      43.35110000      50.74410000
C       41.92170000      49.24910000      51.38990000
C       56.92780000      50.72320000      51.55250000
C       56.82660000      49.32660000      48.17510000
C       50.76650000      51.81670000      56.88020000
C       49.43770000      48.57140000      57.72630000
C       49.47830000      51.78730000      43.09140000
C       48.78180000      57.66390000      49.41800000
C       51.46530000      42.59160000      49.44540000
C       51.38960000      57.05860000      50.45710000
C       56.97430000      50.60420000      48.43030000
C       49.48530000      48.62470000      42.22440000
C       51.46200000      42.60960000      50.66410000
C       56.76420000      49.43710000      51.75070000
C       41.88960000      50.46690000      51.38540000
C       41.95640000      49.26600000      48.61470000
C       49.36560000      51.79950000      56.92230000
C       50.65780000      48.60130000      57.64910000
C       50.73570000      51.45000000      42.96270000
C       51.86670000      56.94140000      49.23710000
C       48.27370000      43.35110000      49.34930000
C       48.45220000      57.57590000      50.60040000
C       57.03070000      51.69840000      49.23010000
C       51.76420000      49.34340000      57.29020000
C       49.16240000      57.03530000      51.67400000
C       57.18280000      48.41970000      50.71320000
C       42.38770000      51.62120000      50.80360000
C       42.69260000      48.27120000      49.27820000
C       51.81380000      50.63740000      42.85850000
C       48.36700000      49.37940000      42.46920000
C       48.36200000      50.80630000      57.43830000
C       49.22920000      42.80470000      48.34600000
C       50.84690000      57.28520000      48.20260000
C       50.68150000      42.72530000      51.80450000
C       42.42210000      51.61900000      49.30050000
C       48.30190000      49.33390000      57.52750000
C       50.62060000      56.92860000      51.57150000
C       42.67760000      48.26770000      50.73430000
C       57.05110000      51.77290000      50.70220000
C       57.20650000      48.37240000      49.27050000
C       48.42530000      50.84370000      42.57900000
C       51.79750000      49.16490000      42.77280000
C       51.78180000      50.79180000      57.26970000
C       50.68750000      42.69440000      48.30150000
C       49.40460000      57.28360000      48.27140000
C       49.22310000      42.81650000      51.75500000
C       55.45430000      45.98470000      47.51270000
C       45.55730000      47.58420000      55.97580000
C       47.50170000      54.82970000      46.21830000
C       55.84200000      54.65930000      52.44590000
C       45.17540000      46.39650000      52.74960000
C       44.32380000      54.20400000      47.53170000
C       46.17480000      52.58560000      44.47430000
C       53.91220000      47.23700000      45.06250000
C       54.07000000      52.61710000      55.43870000
C       47.44290000      44.61990000      54.09100000
C       52.74030000      55.05910000      53.94440000
C       52.48170000      44.10970000      45.56910000
C       45.23130000      46.40410000      47.30850000
C       53.79300000      47.48580000      54.85930000
C       52.66200000      55.43830000      45.94140000
C       44.06370000      54.30660000      52.65870000
C       55.35970000      46.13910000      52.50490000
C       55.17720000      54.06910000      47.16980000
C       54.65660000      52.42620000      44.13540000
C       45.65360000      47.61630000      44.08630000
C       45.97050000      52.58970000      55.70950000
C       52.43090000      44.29920000      54.46680000
C       47.22600000      54.90030000      53.98340000
C       47.49270000      44.62650000      45.98890000
C       49.28340000      53.88630000      55.42210000
C       54.21500000      55.64180000      49.20990000
C       55.39580000      49.50860000      53.97100000
C       49.16650000      45.41170000      44.44730000
C       51.05290000      54.26230000      44.58530000
C       50.58720000      45.41780000      55.66840000
C       54.45770000      44.61630000      50.84060000
C       45.18020000      55.50270000      50.82960000
C       46.25430000      44.92390000      49.30400000
C       55.71000000      50.68820000      45.47030000
C       44.50470000      49.48160000      45.17850000
C       44.47110000      50.93090000      54.84790000
C       50.76440000      53.91590000      55.41070000
C       45.28240000      55.47190000      49.37850000
C       44.40020000      49.46280000      54.89900000
C       50.65450000      45.27470000      44.37610000
C       49.54420000      53.97990000      44.58590000
C       49.09270000      45.47400000      55.61560000
C       46.24170000      44.91960000      50.77210000
C       54.56480000      55.73210000      50.67270000
C       54.48020000      44.57350000      49.23770000
C       44.62000000      50.93800000      45.27260000
C       55.56100000      49.24470000      45.87920000
C       55.42980000      51.02360000      54.26120000
C       55.55470000      52.46530000      53.59840000
C       51.46490000      52.91060000      56.17600000
C       53.85990000      55.88980000      51.99200000
C       56.17250000      48.59850000      47.04100000
C       44.57480000      52.15740000      46.22550000
C       44.30850000      48.25770000      54.00240000
C       51.93350000      46.06660000      44.29840000
C       48.83590000      52.92150000      43.86030000
C       47.72800000      46.37280000      55.69880000
C       53.63920000      44.41900000      47.76520000
C       46.21150000      55.58310000      48.15780000
C       47.19690000      44.08500000      51.44990000
C       44.36880000      52.21580000      53.94890000
C       48.63190000      52.88530000      56.22950000
C       45.97280000      55.65930000      52.08570000
C       44.39110000      48.26870000      46.05330000
C       55.90810000      52.03650000      46.10500000
C       56.04870000      48.78090000      52.87610000
C       47.80720000      46.36870000      44.35790000
C       52.48740000      53.60860000      44.42550000
C       51.84810000      46.27620000      55.69930000
C       47.21560000      44.09350000      48.63470000
C       53.05960000      56.26060000      48.55040000
C       53.57880000      44.53710000      52.26370000
C       54.71910000      55.22220000      52.96400000
C       54.60050000      53.31680000      54.37890000
C       54.05360000      54.54450000      53.98010000
C       54.34130000      45.44200000      46.92050000
C       45.52410000      54.74470000      47.20510000
C       45.74870000      46.31270000      54.02490000
C       53.88610000      45.99380000      45.71690000
C       45.68090000      53.03470000      45.66390000
C       45.07200000      47.25690000      54.75540000
C       52.88760000      45.29500000      45.07350000
C       46.27250000      54.15580000      46.22250000
C       46.89900000      45.76950000      54.60970000
C       45.21150000      54.90630000      53.07210000
C       45.41410000      53.11760000      54.57020000
C       45.95390000      54.29580000      54.05870000
C       45.82360000      46.32820000      46.03760000
C       54.59980000      54.03710000      45.87770000
C       54.22190000      45.63300000      53.06180000
C       45.16030000      47.27490000      45.30100000
C       55.23680000      52.98170000      45.22900000
C       53.74270000      46.23860000      54.22030000
C       46.97460000      45.78220000      45.45540000
C       53.35590000      54.40250000      45.36050000
C       52.78170000      45.52830000      54.89700000
C       54.63510000      48.47930000      45.00200000
C       48.58610000      44.33870000      54.87460000
C       44.11310000      54.76570000      48.79380000
C       54.77120000      51.38180000      55.45910000
C       44.97540000      48.84960000      56.14640000
C       45.36610000      51.47670000      44.14560000
C       48.73980000      54.88730000      45.49010000
C       51.20920000      44.00210000      44.96990000
C       51.44440000      54.86280000      54.53090000
C       45.32320000      45.81120000      51.46250000
C       55.80690000      55.14410000      51.11710000
C       55.62730000      45.27180000      48.72750000
C       45.07610000      48.88710000      43.92460000
C       51.17840000      44.14970000      55.09440000
C       55.14800000      54.75490000      48.44410000
C       45.20950000      51.43850000      55.98990000
C       54.53160000      48.71760000      54.90640000
C       55.13010000      51.09210000      44.21330000
C       51.40630000      55.43910000      45.27970000
C       48.62790000      44.30940000      45.21040000
C       48.54120000      54.78710000      54.53830000
C       55.58820000      45.34820000      51.35120000
C       43.96310000      54.81370000      51.35490000
C       45.35120000      45.81720000      48.59830000
C       52.89200000      52.58220000      56.24290000
C       52.64000000      55.91410000      52.74180000
C       56.19900000      53.23770000      52.58260000
C       52.72300000      47.25090000      44.15070000
C       47.41000000      52.62930000      43.73140000
C       46.96950000      47.40010000      56.39820000
C       52.63230000      43.71230000      46.98250000
C       47.45070000      55.78150000      47.39530000
C       47.44420000      43.89070000      52.86370000
C       56.23060000      47.20050000      47.46280000
C       43.88140000      52.81710000      47.31170000
C       44.22010000      47.54680000      52.74190000
C       47.21820000      52.59820000      56.41530000
C       47.21970000      55.78450000      52.79540000
C       43.69110000      52.88340000      52.85360000
C       47.06190000      47.42310000      43.65840000
C       53.23610000      52.56640000      43.78340000
C       52.64750000      47.47630000      55.83560000
C       47.47230000      43.90310000      47.22230000
C       52.65360000      56.24370000      47.13580000
C       52.59420000      43.83500000      53.07810000
C       44.27700000      47.55200000      47.30500000
C       56.01970000      52.85510000      47.25920000
C       56.13470000      47.35360000      52.53940000
C       53.00880000      51.25150000      43.21060000
C       51.35230000      43.06670000      52.97970000
C       42.98210000      52.65700000      51.54350000
C       52.76430000      48.66410000      56.56320000
C       47.13460000      51.43040000      57.23440000
C       47.21690000      48.68830000      42.89770000
C       51.39810000      56.91670000      46.99780000
C       48.59900000      43.03010000      47.11980000
C       48.52630000      56.32710000      52.68930000
C       43.64760000      47.50860000      48.58950000
C       56.58570000      52.82810000      48.53110000
C       56.95730000      47.20310000      51.37240000
C       47.24220000      51.49300000      42.86060000
C       48.58810000      43.03980000      52.97870000
C       56.78690000      53.00970000      51.28200000
C       47.13280000      48.65420000      57.15280000
C       53.01650000      51.34590000      56.94160000
C       52.77600000      48.48140000      43.47820000
C       48.65770000      56.52530000      47.30770000
C       51.36320000      42.99160000      47.11780000
C       51.31060000      56.35140000      52.65560000
C       57.00190000      47.11970000      48.66890000
C       43.08000000      52.63260000      48.57680000
C       43.61940000      47.50480000      51.44360000
C       54.14590000      50.41050000      43.52770000
C       50.60130000      43.23070000      54.22090000
C       43.19360000      53.83200000      50.73670000
C       53.95970000      49.29780000      56.09650000
C       45.90860000      50.77450000      57.01880000
C       45.99080000      49.46300000      43.04800000
C       50.62350000      56.38500000      45.92170000
C       49.24870000      43.23260000      45.89240000
C       49.27500000      55.71890000      53.76100000
C       44.36590000      46.51990000      49.34040000
C       56.19770000      54.03530000      49.13710000
C       56.68120000      45.96520000      50.72320000
C       46.01690000      50.83390000      43.08590000
C       49.23760000      43.27680000      54.20400000
C       56.51470000      54.16430000      50.45040000
C       45.89300000      49.41030000      57.03210000
C       54.12960000      50.60610000      56.42280000
C       53.96570000      49.11450000      43.90340000
C       49.31400000      56.05850000      46.11100000
C       50.60930000      43.13670000      45.87650000
C       50.63390000      55.75260000      53.76260000
C       56.69990000      45.92180000      49.36730000
C       43.26280000      53.81870000      49.36970000
C       44.35270000      46.51720000      50.70410000
