240
Lattice="100.0 0.0 0.0 0.0 100.0 0.0 0.0 0.0 100.0" Properties=species:S:1:pos:R:3 name=C-71174-8496-871 pressure=0.0035393333595375 spacegroup=Td times_found=1 energy=-1746.56786435426 pbc="T T T"
C       44.29120000      52.24320000      45.28970000
C       52.24210000      45.28980000      44.29060000
C       45.28910000      44.29120000      52.24200000
C       55.70950000      52.24150000      54.71040000
C       55.70950000      47.75690000      45.29050000
C       44.28990000      47.75840000      54.70950000
C       47.75660000      45.29030000      55.70930000
C       47.75870000      54.71030000      44.29040000
C       52.24260000      54.70960000      55.70970000
C       54.70930000      44.28990000      47.75790000
C       54.71060000      55.70880000      52.24280000
C       45.29100000      55.71020000      47.75730000
C       45.29080000      52.24310000      44.29020000
C       44.28970000      45.29080000      52.24190000
C       52.24190000      44.29030000      45.29020000
C       54.70980000      52.24170000      55.70980000
C       45.28930000      47.75820000      55.70910000
C       54.71000000      47.75700000      44.29080000
C       55.70900000      45.28930000      47.75800000
C       44.29130000      54.71080000      47.75730000
C       55.71000000      54.70910000      52.24280000
C       47.75650000      44.29080000      54.70970000
C       52.24280000      55.70910000      54.71010000
C       47.75870000      55.70980000      45.29000000
C       49.22700000      48.25360000      44.36230000
C       48.25270000      44.36260000      49.22660000
C       44.36240000      49.22760000      48.25310000
C       50.77250000      48.25330000      55.63770000
C       50.77380000      51.74650000      44.36240000
C       49.22670000      51.74660000      55.63760000
C       51.74570000      44.36210000      50.77330000
C       51.74740000      55.63740000      49.22700000
C       48.25420000      55.63790000      50.77310000
C       55.63740000      49.22600000      51.74690000
C       55.63790000      50.77240000      48.25390000
C       44.36240000      50.77400000      51.74610000
C       44.36220000      48.25430000      49.22640000
C       49.22610000      44.36250000      48.25340000
C       48.25380000      49.22710000      44.36220000
C       55.63730000      48.25270000      50.77360000
C       44.36260000      51.74730000      50.77280000
C       55.63790000      51.74570000      49.22720000
C       50.77230000      44.36220000      51.74650000
C       49.22750000      55.63770000      51.74650000
C       50.77410000      55.63750000      48.25360000
C       51.74600000      49.22650000      55.63770000
C       48.25320000      50.77340000      55.63750000
C       51.74700000      50.77300000      44.36250000
C       43.67300000      52.52060000      48.51260000
C       52.51990000      48.51270000      43.67270000
C       48.51200000      43.67270000      52.51950000
C       56.32770000      52.51880000      51.48740000
C       56.32730000      47.47940000      48.51350000
C       43.67200000      47.48120000      51.48650000
C       47.47970000      48.51330000      56.32730000
C       47.48100000      51.48740000      43.67230000
C       52.51940000      51.48660000      56.32770000
C       51.48630000      43.67230000      47.48040000
C       51.48770000      56.32730000      52.51980000
C       48.51410000      56.32770000      47.48030000
C       48.51380000      52.51990000      43.67240000
C       43.67210000      48.51390000      52.51920000
C       52.51890000      43.67220000      48.51320000
C       51.48690000      52.51940000      56.32760000
C       48.51220000      47.48050000      56.32740000
C       51.48710000      47.48020000      43.67260000
C       56.32750000      48.51220000      47.48080000
C       43.67290000      51.48790000      47.47990000
C       56.32750000      51.48610000      52.52010000
C       47.47930000      43.67280000      51.48670000
C       52.52050000      56.32710000      51.48720000
C       47.48130000      56.32790000      48.51290000
C       45.13130000      46.10910000      50.07700000
C       46.10880000      50.07790000      45.13160000
C       50.07690000      45.13190000      46.10840000
C       54.86760000      46.10770000      49.92300000
C       54.86870000      53.89090000      50.07770000
C       45.13240000      53.89230000      49.92240000
C       53.89130000      50.07670000      54.86840000
C       53.89190000      49.92220000      45.13210000
C       46.10810000      49.92320000      54.86790000
C       49.92170000      45.13180000      53.89150000
C       49.92360000      54.86820000      46.10850000
C       50.07770000      54.86810000      53.89160000
C       50.07710000      46.10840000      45.13180000
C       45.13220000      50.07800000      46.10810000
C       46.10770000      45.13240000      50.07700000
C       49.92180000      46.10840000      54.86810000
C       50.07750000      53.89150000      54.86820000
C       49.92360000      53.89160000      45.13190000
C       54.86790000      50.07660000      53.89190000
C       45.13160000      49.92330000      53.89120000
C       54.86840000      49.92200000      46.10880000
C       53.89090000      45.13130000      49.92290000
C       46.10910000      54.86870000      49.92240000
C       53.89230000      54.86760000      50.07760000
C       54.45470000      53.42860000      47.58760000
C       53.42860000      47.58680000      54.45430000
C       47.58770000      54.45440000      53.42910000
C       45.54620000      53.42980000      52.41240000
C       45.54560000      46.57140000      47.58700000
C       54.45340000      46.57010000      52.41300000
C       46.57070000      47.58780000      45.54560000
C       46.57080000      52.41310000      54.45390000
C       53.42990000      52.41230000      45.54620000
C       52.41360000      54.45380000      46.57100000
C       52.41180000      45.54550000      53.42940000
C       47.58690000      45.54630000      46.57050000
C       47.58750000      53.42950000      54.45390000
C       54.45350000      47.58660000      53.42950000
C       53.43000000      54.45360000      47.58760000
C       52.41350000      53.42890000      45.54610000
C       47.58710000      46.57110000      45.54570000
C       52.41190000      46.57040000      54.45420000
C       45.54580000      47.58800000      46.57040000
C       54.45470000      52.41210000      46.57110000
C       45.54600000      52.41330000      53.42890000
C       46.57120000      54.45450000      52.41250000
C       53.42840000      45.54540000      52.41290000
C       46.57030000      45.54640000      47.58700000
C       51.50600000      56.22500000      50.47550000
C       56.22520000      50.47450000      51.50560000
C       50.47510000      51.50500000      56.22530000
C       48.49570000      56.22550000      49.52460000
C       48.49390000      43.77500000      50.47520000
C       51.50430000      43.77450000      49.52470000
C       43.77490000      50.47630000      48.49440000
C       43.77460000      49.52550000      51.50470000
C       56.22530000      49.52380000      48.49530000
C       49.52530000      51.50530000      43.77470000
C       49.52400000      48.49480000      56.22520000
C       50.47560000      48.49480000      43.77480000
C       50.47610000      56.22520000      51.50530000
C       51.50480000      50.47510000      56.22540000
C       56.22540000      51.50430000      50.47580000
C       49.52560000      56.22530000      48.49490000
C       50.47460000      43.77470000      48.49480000
C       49.52370000      43.77480000      51.50510000
C       48.49530000      50.47560000      43.77460000
C       51.50550000      49.52450000      43.77480000
C       48.49430000      49.52480000      56.22510000
C       43.77500000      51.50600000      49.52420000
C       56.22510000      48.49400000      49.52510000
C       43.77450000      48.49570000      50.47490000
C       44.24730000      46.24310000      51.23340000
C       46.24290000      51.23440000      44.24760000
C       51.23330000      44.24770000      46.24240000
C       55.75170000      46.24150000      48.76650000
C       55.75260000      53.75690000      51.23430000
C       44.24850000      53.75850000      48.76580000
C       53.75740000      51.23330000      55.75240000
C       53.75790000      48.76570000      44.24810000
C       46.24170000      48.76660000      55.75180000
C       48.76510000      44.24800000      53.75750000
C       48.76720000      55.75230000      46.24230000
C       51.23440000      55.75190000      53.75780000
C       51.23370000      46.24220000      44.24790000
C       44.24830000      51.23470000      46.24190000
C       46.24140000      44.24840000      51.23350000
C       48.76520000      46.24240000      55.75200000
C       51.23400000      53.75750000      55.75220000
C       48.76710000      53.75790000      44.24780000
C       55.75200000      51.23300000      53.75810000
C       44.24740000      48.76690000      53.75730000
C       55.75220000      48.76540000      46.24270000
C       53.75700000      44.24740000      48.76640000
C       46.24320000      55.75270000      48.76590000
C       53.75840000      55.75160000      51.23420000
C       52.26420000      53.26310000      48.76370000
C       53.26300000      48.76300000      52.26390000
C       48.76360000      52.26380000      53.26330000
C       47.73670000      53.26370000      51.23630000
C       47.73600000      46.73700000      48.76330000
C       52.26310000      46.73630000      51.23660000
C       46.73660000      48.76400000      47.73610000
C       46.73660000      51.23690000      52.26340000
C       53.26370000      51.23600000      47.73660000
C       51.23700000      52.26350000      46.73670000
C       51.23590000      47.73620000      53.26340000
C       48.76340000      47.73660000      46.73650000
C       48.76380000      53.26350000      52.26360000
C       52.26320000      48.76320000      53.26350000
C       53.26380000      52.26320000      48.76380000
C       51.23710000      53.26320000      47.73650000
C       48.76320000      46.73680000      47.73620000
C       51.23590000      46.73640000      52.26370000
C       47.73640000      48.76390000      46.73650000
C       52.26400000      51.23620000      46.73680000
C       47.73630000      51.23680000      53.26320000
C       46.73690000      52.26410000      51.23630000
C       53.26300000      47.73590000      51.23670000
C       46.73640000      47.73680000      48.76330000
C       54.72560000      48.98950000      52.88490000
C       48.99030000      52.88470000      54.72590000
C       52.88530000      54.72550000      48.99050000
C       45.27410000      48.99090000      47.11510000
C       45.27400000      51.01040000      52.88430000
C       54.72630000      51.00910000      47.11570000
C       51.01050000      52.88450000      45.27420000
C       51.00900000      47.11520000      54.72600000
C       48.99010000      47.11560000      45.27400000
C       47.11600000      54.72630000      51.00960000
C       47.11480000      45.27450000      48.99000000
C       52.88390000      45.27370000      51.00990000
C       52.88410000      48.98980000      54.72610000
C       54.72640000      52.88390000      48.99060000
C       48.99070000      54.72600000      52.88460000
C       47.11560000      48.99070000      45.27390000
C       52.88510000      51.00940000      45.27430000
C       47.11520000      51.01010000      54.72570000
C       45.27440000      52.88530000      51.00950000
C       54.72540000      47.11470000      51.01010000
C       45.27380000      47.11610000      48.98990000
C       51.01070000      54.72580000      47.11550000
C       48.98980000      45.27420000      47.11530000
C       51.00890000      45.27390000      52.88460000
C       46.29730000      55.74170000      45.32190000
C       55.74070000      45.32130000      46.29660000
C       45.32120000      46.29680000      55.74080000
C       53.70430000      55.74060000      54.67820000
C       53.70330000      44.25840000      45.32230000
C       46.29510000      44.25940000      54.67760000
C       44.25800000      45.32290000      53.70340000
C       44.25980000      54.67870000      46.29580000
C       55.74150000      54.67710000      53.70430000
C       54.67780000      46.29560000      44.25920000
C       54.67800000      53.70310000      55.74150000
C       45.32300000      53.70450000      44.25860000
C       45.32320000      55.74180000      46.29590000
C       46.29510000      45.32260000      55.74080000
C       55.74090000      46.29540000      45.32250000
C       54.67850000      55.74040000      53.70420000
C       45.32100000      44.25950000      53.70340000
C       54.67740000      44.25830000      46.29650000
C       53.70360000      45.32160000      44.25910000
C       46.29720000      54.67850000      44.25870000
C       53.70410000      54.67730000      55.74140000
C       44.25800000      46.29700000      54.67750000
C       55.74130000      53.70300000      54.67840000
C       44.25970000      53.70470000      45.32170000
