240
Lattice="100.0 0.0 0.0 0.0 100.0 0.0 0.0 0.0 100.0" Properties=species:S:1:pos:R:3 name=C-71174-8496-730 pressure=0.00778297281347328 energy=-1717.0645071008 spacegroup=C1 times_found=1 pbc="T T T"
C       57.68760000      48.12500000      48.98290000
C       49.10090000      56.99320000      48.78710000
C       48.06100000      49.17440000      57.34090000
C       42.39850000      48.39170000      50.56410000
C       57.68270000      51.77060000      50.25690000
C       42.66620000      52.03100000      49.22200000
C       50.72970000      56.71500000      52.17580000
C       49.31460000      43.04510000      52.12900000
C       50.78430000      42.74560000      48.55940000
C       52.02360000      49.21210000      42.51360000
C       48.43120000      50.73530000      42.54300000
C       51.63650000      51.04380000      56.76690000
C       57.57690000      51.71170000      48.77820000
C       49.30370000      42.75790000      48.55680000
C       47.98980000      50.64380000      57.41280000
C       42.38080000      51.98590000      50.68540000
C       57.66860000      48.21230000      50.46600000
C       42.47660000      48.42000000      49.07340000
C       50.79970000      42.93310000      52.09840000
C       49.31330000      56.38830000      52.37040000
C       50.58170000      57.06790000      48.69670000
C       52.05920000      50.67930000      42.75270000
C       48.39860000      49.25020000      42.42750000
C       51.66160000      49.57810000      56.77560000
C       52.23740000      53.78580000      45.81030000
C       45.04110000      52.38370000      54.18750000
C       54.08900000      46.08320000      52.36290000
C       45.90350000      53.48500000      53.91130000
C       52.03740000      46.36680000      54.21080000
C       48.13280000      46.03780000      45.31700000
C       53.26700000      53.56300000      46.64930000
C       45.49750000      48.04080000      45.97970000
C       54.28060000      47.55470000      53.06630000
C       46.11390000      45.62290000      47.96260000
C       53.79100000      54.26820000      47.67000000
C       45.67080000      54.29900000      52.77930000
C       52.11590000      45.91390000      45.27650000
C       45.32170000      47.76270000      53.78110000
C       54.34700000      54.13730000      52.24580000
C       46.09220000      46.75990000      53.30440000
C       52.28750000      53.93740000      55.28360000
C       47.79080000      53.62680000      45.79810000
C       54.71500000      47.51360000      45.96960000
C       45.80500000      52.21090000      46.17440000
C       54.52360000      52.86250000      53.03140000
C       46.74790000      53.11990000      46.48080000
C       54.07730000      45.43300000      47.90290000
C       45.96550000      45.87340000      52.29740000
C       50.87850000      47.20660000      43.57160000
C       43.97530000      50.99200000      47.36260000
C       47.40470000      44.25040000      51.01790000
C       49.14270000      47.31810000      56.03860000
C       50.15400000      53.08140000      56.36830000
C       49.47770000      52.57170000      44.01370000
C       56.22880000      50.86030000      52.21310000
C       43.51910000      49.38000000      52.66420000
C       56.38180000      49.07500000      46.99570000
C       52.70130000      44.14150000      49.50840000
C       47.14400000      55.72580000      49.77310000
C       52.78860000      55.72900000      51.01280000
C       50.98420000      52.51140000      44.06250000
C       43.87960000      49.52020000      47.25150000
C       47.18500000      55.60970000      51.27360000
C       48.72030000      52.82600000      56.40820000
C       50.56060000      47.51390000      55.86440000
C       49.42360000      47.25360000      43.58210000
C       56.17880000      49.35420000      52.25460000
C       43.42670000      50.87560000      52.76410000
C       56.25850000      50.54730000      46.94190000
C       52.69840000      55.81550000      49.50770000
C       47.40020000      44.14820000      49.52350000
C       52.74670000      44.26030000      50.99940000
C       42.69740000      45.91300000      50.47910000
C       50.72240000      42.72570000      46.06410000
C       45.94300000      50.70510000      42.75590000
C       57.40180000      45.63040000      49.21610000
C       43.09680000      54.44490000      49.36240000
C       57.40670000      54.25250000      50.08210000
C       49.35300000      43.35890000      54.54960000
C       50.91420000      56.88690000      54.53770000
C       49.01740000      56.99460000      46.31420000
C       54.01820000      51.00720000      56.06990000
C       45.62790000      49.03580000      57.17410000
C       54.47930000      49.19610000      42.87010000
C       42.71770000      54.45460000      50.69470000
C       50.40170000      57.03300000      46.22120000
C       45.92510000      49.31190000      42.69140000
C       57.26570000      54.14900000      48.70070000
C       42.75010000      45.93870000      49.08970000
C       57.38520000      45.71130000      50.60590000
C       49.69530000      56.11060000      54.79930000
C       50.74510000      43.19500000      54.54860000
C       49.32700000      42.76080000      46.06790000
C       54.06920000      49.63600000      56.07830000
C       45.52850000      50.41720000      57.26580000
C       54.49200000      50.56450000      43.11130000
C       44.69940000      45.99120000      51.63740000
C       51.79360000      44.77390000      45.87380000
C       45.97600000      51.66210000      44.86420000
C       55.34900000      45.69750000      48.18530000
C       45.35740000      54.43030000      48.64400000
C       55.49890000      54.24200000      51.39650000
C       48.30250000      45.51580000      54.62740000
C       52.58830000      55.24770000      54.74560000
C       48.08680000      54.91990000      46.23960000
C       53.96470000      52.28030000      54.17750000
C       45.66530000      48.12640000      55.09070000
C       54.34280000      47.91350000      44.75750000
C       44.45460000      54.29750000      52.15400000
C       51.57180000      55.03260000      46.05510000
C       45.95520000      48.23860000      44.74160000
C       55.13200000      53.97020000      47.92560000
C       44.85610000      46.02110000      48.15570000
C       55.32660000      45.91600000      51.67220000
C       47.15440000      53.86980000      54.53030000
C       51.93080000      45.08050000      54.42850000
C       48.36180000      44.86410000      45.90330000
C       53.80940000      48.36270000      54.12760000
C       45.36380000      51.67560000      55.35400000
C       54.60530000      51.44510000      45.31940000
C       47.07430000      44.95190000      52.19000000
C       52.05880000      46.83190000      44.26810000
C       44.78090000      52.12090000      47.18400000
C       53.02660000      44.61230000      48.20240000
C       46.67230000      55.13360000      48.54910000
C       53.28910000      55.13940000      52.21300000
C       47.99640000      46.77770000      55.37940000
C       50.99160000      54.06610000      55.96520000
C       48.23520000      52.82590000      44.64260000
C       55.70430000      52.14430000      52.45290000
C       44.21540000      48.16450000      52.90040000
C       55.73810000      47.81340000      46.83200000
C       46.84710000      55.01890000      52.48180000
C       52.14840000      52.75770000      44.80620000
C       44.52270000      48.28540000      46.91710000
C       52.90660000      55.30210000      48.20980000
C       47.10130000      44.71410000      48.23990000
C       53.08330000      44.96050000      52.21800000
C       47.51360000      53.06140000      55.68730000
C       51.62540000      47.36880000      54.98380000
C       48.23190000      46.97000000      44.32060000
C       55.53200000      48.12270000      52.50980000
C       43.97280000      52.09970000      53.21550000
C       55.45370000      51.67190000      46.53710000
C       55.12730000      48.98210000      44.15280000
C       44.43560000      55.01040000      49.59300000
C       49.37270000      44.68260000      55.18630000
C       44.93120000      49.04820000      55.87720000
C       54.53010000      51.05610000      54.69410000
C       45.24890000      50.70650000      44.08070000
C       56.06350000      54.89730000      50.25200000
C       44.04910000      45.27070000      50.57720000
C       56.07400000      44.99830000      49.23170000
C       50.77620000      43.92970000      45.23070000
C       49.01390000      55.74140000      45.55510000
C       51.66420000      56.12330000      55.44240000
C       55.13420000      50.44360000      44.42830000
C       44.05400000      45.28010000      49.11510000
C       50.49560000      55.39930000      55.83170000
C       44.80390000      50.51170000      55.97540000
C       54.55040000      49.54780000      54.67920000
C       45.23320000      49.24690000      43.97300000
C       56.01370000      45.09620000      50.70080000
C       44.02920000      55.04900000      51.00920000
C       55.93710000      54.76740000      48.78230000
C       50.47960000      55.75020000      45.45850000
C       49.32210000      43.96880000      45.24050000
C       50.86250000      44.47230000      55.21390000
C       50.57840000      48.70220000      56.70960000
C       57.22750000      50.59570000      48.05370000
C       48.45830000      56.32040000      51.29160000
C       49.46820000      48.42250000      42.70090000
C       50.95660000      51.45300000      43.06280000
C       48.99100000      51.53030000      57.04160000
C       42.63270000      50.88300000      51.51040000
C       57.23030000      49.32680000      51.18890000
C       42.88770000      49.51530000      48.32940000
C       51.46750000      56.62780000      49.66650000
C       48.51160000      43.20590000      49.60110000
C       51.61100000      43.29050000      51.03210000
C       50.42770000      51.73950000      56.85100000
C       57.31580000      49.16480000      48.12290000
C       48.52630000      43.30840000      51.03580000
C       49.51330000      51.49160000      42.99510000
C       50.91630000      48.39680000      42.71540000
C       49.17060000      48.50170000      56.91550000
C       42.68250000      49.44880000      51.43340000
C       57.25830000      50.75220000      51.11860000
C       42.96500000      50.95350000      48.42160000
C       51.58030000      43.21350000      49.60430000
C       48.37820000      56.51510000      49.85820000
C       51.54400000      56.50670000      51.07670000
C       57.43830000      53.05070000      50.84250000
C       51.55800000      56.66400000      53.29140000
C       52.79910000      51.71000000      56.18960000
C       43.28670000      53.21690000      48.71250000
C       57.33960000      46.84130000      48.44690000
C       42.72930000      47.14650000      51.17380000
C       48.38410000      56.73520000      47.57790000
C       51.40330000      42.97870000      47.29620000
C       48.70160000      43.54400000      53.31650000
C       47.19930000      51.35070000      42.90550000
C       53.22950000      48.51630000      42.84080000
C       46.90010000      48.42170000      56.98700000
C       57.35040000      47.00980000      51.18170000
C       51.48110000      43.22500000      53.30680000
C       52.83210000      49.00450000      56.18600000
C       42.88180000      47.20400000      48.43910000
C       57.10420000      52.86190000      48.08250000
C       42.58680000      53.21070000      51.38610000
C       48.67210000      43.03650000      47.30610000
C       51.14740000      56.88200000      47.40890000
C       48.87080000      55.79220000      53.66430000
C       47.16670000      48.61100000      42.79160000
C       53.26360000      51.22780000      43.31150000
C       46.70110000      51.21370000      57.19180000
C       52.36170000      44.33600000      53.31190000
C       53.32070000      51.92490000      44.55720000
C       43.56860000      53.21600000      52.41980000
C       47.93910000      44.22830000      47.16570000
C       51.99470000      55.76500000      47.21940000
C       47.73510000      54.92030000      53.64190000
C       46.50570000      52.12170000      56.11590000
C       52.73380000      48.18890000      55.06840000
C       47.12160000      47.80790000      43.95420000
C       55.84490000      52.83190000      47.38150000
C       44.08700000      47.17830000      47.71120000
C       56.17870000      47.02670000      51.92450000
C       52.64100000      55.68800000      53.38470000
C       53.20860000      47.61090000      43.92740000
C       43.85870000      47.09860000      52.02270000
C       47.57390000      55.55080000      47.44960000
C       52.17870000      44.13750000      47.14100000
C       47.90980000      44.73670000      53.36310000
C       46.84220000      47.62240000      55.77990000
C       52.95780000      52.73370000      55.17830000
C       47.14490000      52.06270000      44.12640000
C       56.16320000      46.77880000      47.69280000
C       44.56350000      53.24050000      48.07520000
C       56.35080000      53.14840000      51.70710000
