240
Lattice="100.0 0.0 0.0 0.0 100.0 0.0 0.0 0.0 100.0" Properties=species:S:1:pos:R:3 name=C-71174-8496-6 pressure=130.771278800914 spacegroup=C1 times_found=1 energy=-1732.25872795563 pbc="T T T"
C       55.21160000      50.66260000      46.36970000
C       50.78490000      46.56700000      55.27900000
C       46.54250000      55.07330000      50.62310000
C       44.75490000      49.19910000      46.44690000
C       55.44450000      49.40510000      53.56760000
C       44.45690000      50.53670000      53.72570000
C       49.19520000      54.42670000      55.75300000
C       51.04640000      53.47780000      44.74510000
C       49.22520000      46.39970000      44.54820000
C       53.55940000      44.85870000      50.59560000
C       46.36910000      44.97800000      49.23890000
C       53.55970000      55.16660000      49.52570000
C       55.45100000      50.82490000      53.66930000
C       50.64290000      46.42590000      44.55070000
C       46.53990000      54.95880000      49.17520000
C       44.49440000      49.06870000      53.66350000
C       55.23870000      49.22570000      46.33710000
C       44.80070000      50.62850000      46.49590000
C       49.63830000      53.41620000      44.69900000
C       50.53220000      54.44710000      55.82450000
C       49.35700000      46.57070000      55.30360000
C       53.56530000      44.89660000      49.11040000
C       46.39110000      44.97980000      50.70730000
C       53.56210000      55.11130000      50.96940000
C       47.66610000      51.24050000      44.10540000
C       51.46620000      44.09110000      47.54670000
C       43.61190000      47.65410000      51.46880000
C       52.27090000      48.52260000      43.78620000
C       47.55340000      48.55910000      56.17480000
C       52.83810000      51.33750000      56.23040000
C       48.62960000      55.78710000      47.58060000
C       51.51330000      56.10220000      52.56230000
C       48.53710000      44.13570000      52.32400000
C       56.11810000      52.24860000      51.53160000
C       43.87520000      52.14840000      48.61880000
C       56.23620000      47.74700000      48.43710000
C       46.77780000      51.31550000      56.34230000
C       51.52700000      44.06420000      52.32670000
C       43.72400000      47.74730000      48.54960000
C       52.44010000      48.66120000      56.00750000
C       47.60360000      48.45760000      43.72760000
C       52.43700000      51.40340000      43.82530000
C       48.55350000      56.15560000      52.38180000
C       51.54220000      55.97790000      47.75180000
C       48.46260000      44.13250000      47.61070000
C       55.94410000      52.20720000      48.56940000
C       43.96020000      52.22260000      51.57920000
C       55.89730000      47.75470000      51.23010000
C       53.05950000      46.32840000      55.69770000
C       46.22610000      55.66180000      52.86820000
C       55.42110000      53.01980000      46.24040000
C       47.14200000      53.61570000      55.90040000
C       53.33060000      53.63100000      44.31920000
C       46.99730000      46.11610000      44.05530000
C       53.92680000      44.67940000      52.96960000
C       46.08810000      44.66540000      46.88940000
C       53.89890000      55.76500000      47.30450000
C       44.15260000      46.94590000      46.30290000
C       56.06770000      47.13730000      53.50430000
C       44.64740000      52.92820000      53.92610000
C       52.86110000      46.17490000      44.02370000
C       46.32380000      55.07910000      46.82300000
C       55.72430000      53.14110000      53.78650000
C       47.40880000      53.58750000      44.01270000
C       52.64790000      53.78540000      56.06010000
C       47.12120000      46.19000000      55.85260000
C       53.83800000      44.60890000      46.76140000
C       46.18060000      44.67520000      53.06040000
C       53.83640000      55.27680000      53.30940000
C       44.12570000      46.74230000      53.66420000
C       55.78050000      46.95170000      46.19520000
C       44.43340000      52.94270000      46.36510000
C       50.69820000      56.87110000      48.40320000
C       57.01580000      48.29710000      50.63400000
C       48.09180000      51.01520000      56.71320000
C       49.24880000      43.28040000      48.43850000
C       50.72270000      43.14240000      51.60700000
C       49.38610000      56.97870000      51.60850000
C       42.96990000      51.49430000      50.84450000
C       56.84970000      51.39590000      49.30720000
C       42.76920000      48.47800000      49.29540000
C       51.56020000      49.53130000      56.71640000
C       48.29590000      49.26550000      42.80070000
C       51.48660000      50.75070000      43.00840000
C       50.81980000      56.91850000      51.62780000
C       57.20820000      48.38150000      49.25810000
C       48.29610000      50.63020000      43.05210000
C       49.29240000      43.16770000      51.61530000
C       50.69660000      43.26650000      48.41570000
C       49.27600000      56.74740000      48.39430000
C       42.89090000      51.53240000      49.42200000
C       56.89750000      51.35680000      50.75030000
C       42.68540000      48.40040000      50.70800000
C       51.47190000      49.32820000      42.94260000
C       48.27570000      49.58570000      56.87350000
C       51.59480000      50.98930000      56.62780000
C       53.68540000      54.98600000      54.66710000
C       56.16830000      54.41070000      53.49760000
C       53.93240000      53.67340000      55.35680000
C       46.36750000      44.87570000      54.42950000
C       53.67650000      44.87490000      45.39910000
C       46.53180000      54.81820000      45.47490000
C       43.82060000      45.45370000      53.31050000
C       56.08190000      45.65830000      46.54290000
C       43.99610000      54.23390000      46.59740000
C       45.83510000      46.02140000      55.24870000
C       54.14090000      46.11310000      44.63740000
C       46.13390000      53.58390000      44.71960000
C       54.02170000      55.19180000      46.00670000
C       55.20820000      54.37950000      46.47280000
C       54.61250000      53.33650000      43.90730000
C       46.21980000      44.87640000      45.51250000
C       53.81650000      44.99280000      54.32620000
C       46.08260000      55.07990000      54.17450000
C       43.82680000      45.65650000      46.66640000
C       56.13280000      45.88220000      52.99250000
C       44.93280000      54.26900000      53.70130000
C       45.73900000      46.08360000      44.71600000
C       54.32570000      46.23280000      55.03870000
C       46.23900000      52.58380000      55.95130000
C       44.63800000      53.23520000      50.74550000
C       53.48800000      50.60420000      44.42750000
C       50.76370000      44.71580000      53.40450000
C       55.32070000      46.70410000      50.52610000
C       44.37690000      46.67840000      49.29260000
C       55.38960000      53.28180000      49.39830000
C       46.56560000      49.13000000      44.56790000
C       53.65260000      49.22700000      55.40280000
C       45.93550000      50.32850000      55.77900000
C       49.18240000      55.75490000      53.64690000
C       50.93680000      55.26550000      46.62400000
C       49.24220000      44.63860000      46.47790000
C       44.61070000      53.18260000      49.32950000
C       53.78020000      50.64570000      55.53530000
C       50.66190000      44.62360000      46.44800000
C       55.45260000      46.70780000      49.11810000
C       44.35900000      46.65610000      50.70710000
C       55.45050000      53.29160000      50.81200000
C       46.25770000      48.99430000      55.60660000
C       53.40930000      49.17430000      44.45270000
C       46.62240000      50.56920000      44.72340000
C       49.50240000      55.22180000      46.53400000
C       50.65830000      55.80230000      53.74120000
C       49.34240000      44.74980000      53.39450000
C       51.33320000      42.28240000      50.63780000
C       42.14370000      50.52590000      51.45190000
C       50.45070000      51.51240000      42.46310000
C       48.75650000      57.72560000      50.59160000
C       51.32250000      57.74890000      49.33600000
C       48.67060000      42.53380000      49.45870000
C       57.37090000      49.10110000      51.79690000
C       42.02030000      49.51230000      48.69360000
C       57.65690000      50.45110000      48.70480000
C       49.25710000      48.82820000      41.80470000
C       50.51260000      49.01380000      57.43430000
C       49.10930000      52.11520000      56.67750000
C       51.30110000      42.52500000      49.42630000
C       41.85820000      50.73710000      48.79050000
C       50.61180000      52.10280000      56.65780000
C       48.59550000      57.46620000      49.39870000
C       51.45210000      57.55320000      50.54610000
C       48.65050000      42.29810000      50.67150000
C       58.19340000      49.32540000      48.75880000
C       41.80380000      49.33490000      51.35760000
C       57.55110000      50.35880000      51.47590000
C       49.33100000      49.23660000      57.68160000
C       50.44380000      48.82070000      42.15960000
C       49.19200000      51.71630000      42.75010000
C       56.21020000      48.41300000      52.70110000
C       48.47820000      53.35210000      56.31270000
C       52.90040000      55.77630000      48.26440000
C       44.24990000      51.89070000      52.96370000
C       55.62500000      51.92760000      47.16940000
C       44.09960000      48.06510000      47.17800000
C       52.05180000      47.27910000      55.79600000
C       47.99360000      47.07340000      43.95090000
C       52.21160000      52.77940000      44.15440000
C       47.08130000      44.49450000      47.93500000
C       52.90340000      44.40320000      51.94460000
C       47.21290000      55.74990000      51.89920000
C       55.89160000      48.07890000      47.05890000
C       48.52000000      52.64580000      43.89610000
C       52.86890000      55.60330000      52.27020000
C       44.24080000      51.81560000      47.24220000
C       55.91510000      52.01460000      52.92270000
C       43.94600000      47.91550000      52.86200000
C       51.87240000      47.14160000      43.99740000
C       48.07370000      47.21080000      55.93060000
C       51.29990000      53.35080000      56.33090000
C       47.14480000      44.51060000      51.98940000
C       52.85880000      44.42330000      47.82790000
C       47.26140000      55.37200000      47.87690000
C       45.11800000      54.54150000      47.34140000
C       54.83040000      47.20090000      45.16530000
C       47.60650000      45.08970000      55.06640000
C       55.03320000      45.16670000      47.27160000
C       44.95000000      45.18670000      52.57230000
C       55.02030000      54.70960000      52.77460000
C       45.36260000      52.60220000      45.33010000
C       54.83440000      52.75520000      54.85940000
C       45.02490000      47.01910000      54.73430000
C       52.49790000      55.11320000      55.38830000
C       47.77730000      54.73180000      44.82080000
C       52.43040000      45.00610000      44.75520000
C       45.10110000      54.88640000      52.44090000
C       55.06450000      47.29760000      54.52960000
C       47.44410000      44.98020000      44.82490000
C       55.09570000      45.22640000      52.39620000
C       44.89400000      45.21790000      47.40940000
C       55.03320000      54.99440000      47.73150000
C       45.10800000      52.34740000      55.11460000
C       54.91100000      52.54910000      44.99750000
C       45.07620000      47.18610000      45.24310000
C       52.99390000      54.65840000      45.25610000
C       47.13490000      54.74860000      54.98720000
C       52.58900000      45.15860000      55.00180000
C       48.69620000      45.26300000      45.31400000
C       45.16110000      45.62980000      48.72240000
C       45.50660000      48.54770000      45.33000000
C       51.61890000      54.54820000      45.58200000
C       48.49220000      55.15700000      54.76170000
C       51.31970000      45.40510000      54.53250000
C       54.71320000      54.44000000      48.94160000
C       45.38980000      54.35700000      51.20910000
C       54.71240000      45.56490000      51.08870000
C       54.54480000      51.19130000      45.18120000
C       44.97470000      50.96570000      54.97490000
C       54.67670000      48.66670000      54.58100000
C       48.82060000      45.43410000      54.53620000
C       45.17990000      45.62230000      51.25710000
C       45.27510000      48.39250000      54.74570000
C       51.20550000      55.34450000      54.97180000
C       49.02010000      54.51560000      45.39810000
C       51.18830000      45.26540000      45.28230000
C       54.73620000      54.35870000      51.43940000
C       45.37130000      54.20840000      48.69160000
C       54.74470000      45.60230000      48.57050000
C       54.73910000      51.35520000      54.79130000
C       45.60750000      51.21990000      45.45740000
C       54.45770000      48.57230000      45.23350000
