240
Lattice="100.0 0.0 0.0 0.0 100.0 0.0 0.0 0.0 100.0" Properties=species:S:1:pos:R:3 name=C-71174-8496-81 pressure=-0.0238432886534808 spacegroup=Oh times_found=1 energy=-1624.65902439436 pbc="T T T"
C       50.72120000      49.27910000      43.54360000
C       49.27830000      43.54370000      50.72080000
C       43.54370000      50.72180000      49.27880000
C       49.27870000      49.27850000      56.45630000
C       49.27890000      50.72160000      43.54370000
C       50.72120000      50.72080000      56.45640000
C       50.72060000      43.54360000      49.27850000
C       50.72170000      56.45630000      50.72150000
C       49.27940000      56.45650000      49.27910000
C       56.45640000      50.72060000      50.72130000
C       56.45630000      49.27830000      49.27880000
C       43.54360000      49.27930000      50.72110000
C       50.72130000      50.72150000      43.54370000
C       49.27940000      56.45640000      50.72150000
C       43.54360000      49.27940000      49.27870000
C       49.27880000      50.72090000      56.45640000
C       49.27880000      49.27920000      43.54360000
C       50.72110000      49.27840000      56.45630000
C       50.72170000      56.45630000      49.27920000
C       50.72060000      43.54350000      50.72090000
C       49.27830000      43.54370000      49.27850000
C       56.45630000      49.27820000      50.72120000
C       56.45640000      50.72070000      49.27890000
C       43.54370000      50.72170000      50.72120000
C       54.58600000      55.64310000      47.32570000
C       55.64300000      47.32470000      54.58540000
C       47.32580000      54.58540000      55.64350000
C       45.41500000      55.64360000      52.67480000
C       45.41410000      44.35720000      47.32510000
C       54.58500000      44.35620000      52.67430000
C       44.35650000      47.32610000      45.41430000
C       44.35690000      52.67480000      54.58560000
C       55.64360000      52.67430000      45.41470000
C       52.67500000      54.58550000      44.35700000
C       52.67410000      45.41400000      55.64310000
C       47.32510000      45.41510000      44.35640000
C       54.58500000      44.35640000      47.32520000
C       55.64350000      52.67390000      54.58570000
C       47.32500000      45.41450000      55.64300000
C       45.41400000      44.35690000      52.67430000
C       45.41500000      55.64380000      47.32570000
C       54.58590000      55.64280000      52.67490000
C       44.35700000      52.67530000      45.41460000
C       44.35640000      47.32570000      54.58530000
C       55.64310000      47.32520000      45.41440000
C       52.67420000      45.41460000      44.35650000
C       52.67490000      54.58490000      55.64360000
C       47.32590000      54.58600000      44.35690000
C       55.71860000      51.54970000      51.55040000
C       51.55040000      51.54990000      55.71860000
C       51.55080000      55.71830000      51.55060000
C       44.28160000      51.55090000      48.44970000
C       44.28130000      48.45010000      51.55020000
C       55.71840000      48.44930000      48.44970000
C       48.44990000      51.55070000      44.28160000
C       48.44950000      48.44950000      55.71840000
C       51.55020000      48.44990000      44.28140000
C       48.45020000      55.71870000      48.45000000
C       48.44920000      44.28150000      51.55000000
C       51.54980000      44.28140000      48.44940000
C       55.71840000      48.44910000      51.55030000
C       51.55010000      48.44930000      55.71840000
C       51.54980000      44.28130000      51.55000000
C       44.28140000      48.45030000      48.44960000
C       44.28160000      51.55070000      51.55030000
C       55.71870000      51.54990000      48.44980000
C       48.44960000      48.45010000      44.28140000
C       48.44980000      51.55010000      55.71860000
C       51.55050000      51.55050000      44.28160000
C       48.44920000      44.28170000      48.44940000
C       48.45020000      55.71860000      51.55060000
C       51.55080000      55.71850000      48.45000000
C       51.32130000      44.82160000      45.87940000
C       44.82110000      45.88000000      51.32150000
C       45.87980000      51.32240000      44.82150000
C       48.67780000      44.82140000      54.12010000
C       48.67870000      55.17890000      45.87990000
C       51.32220000      55.17820000      54.12070000
C       55.17820000      45.87920000      48.67810000
C       55.17890000      54.11990000      51.32200000
C       44.82180000      54.12090000      48.67840000
C       54.12040000      51.32110000      55.17860000
C       54.12030000      48.67820000      44.82140000
C       45.87950000      48.67830000      55.17840000
C       51.32220000      55.17860000      45.87990000
C       44.82180000      54.12080000      51.32190000
C       45.87960000      48.67890000      44.82140000
C       48.67870000      55.17840000      54.12060000
C       48.67780000      44.82180000      45.87930000
C       51.32130000      44.82110000      54.12010000
C       55.17890000      54.12000000      48.67850000
C       55.17820000      45.87910000      51.32160000
C       44.82110000      45.88010000      48.67800000
C       54.12020000      48.67760000      55.17850000
C       54.12050000      51.32170000      44.82160000
C       45.87970000      51.32180000      55.17860000
C       44.54330000      53.45560000      46.54510000
C       53.45480000      46.54500000      44.54280000
C       46.54450000      44.54300000      53.45470000
C       55.45730000      53.45440000      53.45520000
C       55.45680000      46.54470000      46.54490000
C       44.54260000      46.54530000      53.45480000
C       46.54470000      46.54500000      55.45690000
C       46.54530000      53.45560000      44.54310000
C       53.45520000      53.45440000      55.45730000
C       53.45460000      44.54280000      46.54470000
C       53.45540000      55.45660000      53.45530000
C       46.54550000      55.45750000      46.54530000
C       44.54270000      46.54560000      46.54480000
C       53.45530000      53.45500000      44.54310000
C       46.54540000      55.45720000      53.45530000
C       55.45670000      46.54440000      53.45490000
C       55.45740000      53.45470000      46.54520000
C       44.54320000      53.45530000      53.45510000
C       46.54520000      53.45500000      55.45720000
C       46.54480000      46.54560000      44.54270000
C       53.45470000      46.54440000      55.45690000
C       53.45550000      55.45700000      46.54530000
C       53.45450000      44.54250000      53.45470000
C       46.54460000      44.54340000      46.54470000
C       45.41470000      52.67470000      55.64340000
C       52.67510000      55.64330000      45.41480000
C       55.64290000      45.41390000      52.67440000
C       54.58580000      52.67450000      44.35690000
C       54.58520000      47.32470000      55.64320000
C       45.41430000      47.32610000      44.35650000
C       47.32590000      55.64330000      54.58570000
C       47.32500000      44.35720000      45.41420000
C       52.67410000      44.35620000      54.58520000
C       44.35630000      45.41510000      47.32510000
C       44.35710000      54.58580000      52.67480000
C       55.64370000      54.58510000      47.32570000
C       45.41420000      47.32550000      55.64310000
C       52.67410000      44.35670000      45.41430000
C       55.64370000      54.58490000      52.67490000
C       54.58530000      47.32530000      44.35660000
C       54.58570000      52.67390000      55.64350000
C       45.41480000      52.67530000      44.35680000
C       47.32490000      44.35670000      54.58520000
C       47.32590000      55.64380000      45.41480000
C       52.67500000      55.64280000      54.58580000
C       44.35710000      54.58610000      47.32560000
C       44.35630000      45.41490000      52.67430000
C       55.64290000      45.41420000      47.32520000
C       52.80490000      55.35910000      50.75310000
C       55.35950000      50.75220000      52.80450000
C       50.75300000      52.80410000      55.35960000
C       47.19600000      55.35970000      49.24750000
C       47.19510000      44.64080000      50.75250000
C       52.80400000      44.64040000      49.24700000
C       44.64070000      50.75340000      47.19550000
C       44.64050000      49.24750000      52.80440000
C       55.35940000      49.24690000      47.19560000
C       49.24750000      52.80480000      44.64070000
C       49.24690000      47.19530000      55.35930000
C       50.75260000      47.19580000      44.64040000
C       52.80400000      44.64030000      50.75250000
C       55.35930000      49.24660000      52.80450000
C       50.75250000      47.19520000      55.35930000
C       47.19510000      44.64090000      49.24690000
C       47.19600000      55.35960000      50.75300000
C       52.80490000      55.35920000      49.24750000
C       44.64050000      49.24780000      47.19550000
C       44.64060000      50.75310000      52.80440000
C       55.35950000      50.75250000      47.19560000
C       49.24700000      47.19590000      44.64040000
C       49.24740000      52.80420000      55.35960000
C       50.75310000      52.80470000      44.64070000
C       54.11990000      44.82100000      51.32150000
C       44.82150000      51.32200000      54.12040000
C       51.32210000      54.12050000      44.82170000
C       45.87920000      44.82190000      48.67790000
C       45.88000000      55.17880000      51.32200000
C       54.12080000      55.17830000      48.67860000
C       55.17870000      51.32150000      45.87970000
C       55.17840000      48.67760000      54.12040000
C       44.82140000      48.67890000      45.87950000
C       48.67860000      54.12020000      55.17870000
C       48.67790000      45.88000000      44.82120000
C       51.32140000      45.87920000      55.17830000
C       54.12080000      55.17810000      51.32210000
C       44.82130000      48.67850000      54.12030000
C       51.32140000      45.87980000      44.82130000
C       45.88010000      55.17900000      48.67850000
C       45.87920000      44.82170000      51.32140000
C       54.12000000      44.82120000      48.67800000
C       55.17850000      48.67800000      45.87960000
C       55.17860000      51.32110000      54.12050000
C       44.82160000      51.32240000      45.87960000
C       48.67790000      45.87950000      55.17830000
C       48.67860000      54.12080000      44.82170000
C       51.32210000      54.12000000      55.17880000
C       50.75320000      55.35920000      52.80470000
C       55.35970000      52.80390000      50.75300000
C       52.80450000      50.75220000      55.35950000
C       49.24770000      55.35960000      47.19580000
C       49.24680000      44.64050000      52.80420000
C       50.75230000      44.64070000      47.19530000
C       44.64080000      52.80490000      49.24730000
C       44.64030000      47.19600000      50.75260000
C       55.35920000      47.19510000      49.24710000
C       47.19570000      50.75330000      44.64060000
C       47.19540000      49.24720000      55.35940000
C       52.80440000      49.24730000      44.64060000
C       50.75230000      44.64040000      52.80420000
C       55.35920000      47.19510000      50.75270000
C       52.80430000      49.24670000      55.35940000
C       49.24680000      44.64080000      47.19530000
C       49.24770000      55.35930000      52.80470000
C       50.75320000      55.35950000      47.19580000
C       44.64030000      47.19610000      49.24700000
C       44.64080000      52.80490000      50.75290000
C       55.35970000      52.80400000      49.24740000
C       47.19550000      49.24780000      44.64050000
C       47.19560000      50.75270000      55.35940000
C       52.80460000      50.75280000      44.64060000
C       45.97710000      46.97900000      46.97830000
C       46.97830000      46.97900000      45.97710000
C       46.97820000      45.97770000      46.97830000
C       54.02240000      46.97800000      53.02130000
C       54.02300000      53.02130000      46.97870000
C       45.97750000      53.02160000      53.02160000
C       53.02120000      46.97810000      54.02260000
C       53.02180000      53.02140000      45.97750000
C       46.97880000      53.02150000      54.02280000
C       53.02110000      45.97690000      53.02130000
C       53.02180000      54.02260000      46.97880000
C       46.97890000      54.02280000      53.02160000
C       45.97760000      53.02200000      46.97870000
C       46.97880000      53.02190000      45.97740000
C       46.97890000      54.02310000      46.97870000
C       54.02290000      53.02100000      53.02170000
C       54.02250000      46.97840000      46.97840000
C       45.97700000      46.97870000      53.02130000
C       53.02170000      53.02100000      54.02290000
C       53.02120000      46.97850000      45.97720000
C       46.97820000      46.97860000      54.02250000
C       53.02180000      54.02230000      53.02170000
C       53.02110000      45.97720000      46.97840000
C       46.97820000      45.97740000      53.02120000
