240
Lattice="100.0 0.0 0.0 0.0 100.0 0.0 0.0 0.0 100.0" Properties=species:S:1:pos:R:3 name=C-71174-8496-369 pressure=14.7171691005976 spacegroup=Th times_found=1 energy=-1686.89544406013 pbc="T T T"
C       46.06860000      44.76880000      51.51190000
C       51.51160000      46.06810000      44.76900000
C       44.76870000      51.51110000      46.06830000
C       46.06720000      55.23040000      48.48880000
C       53.93170000      55.23120000      51.51130000
C       53.93260000      44.76970000      48.48800000
C       51.51170000      53.93220000      55.23070000
C       48.48750000      53.93210000      44.76940000
C       48.48930000      46.06760000      55.23080000
C       44.76970000      48.48780000      53.93260000
C       55.23060000      48.48900000      46.06740000
C       55.23100000      51.51210000      53.93170000
C       53.93280000      44.76960000      51.51120000
C       48.48830000      46.06780000      44.76930000
C       55.23030000      51.51220000      46.06740000
C       53.93140000      55.23120000      48.48810000
C       46.06740000      55.23030000      51.51200000
C       46.06830000      44.76880000      48.48870000
C       48.48840000      53.93190000      55.23100000
C       51.51070000      53.93240000      44.76920000
C       51.51250000      46.06790000      55.23060000
C       55.23130000      48.48890000      53.93170000
C       44.76900000      48.48790000      46.06830000
C       44.76940000      51.51100000      53.93260000
C       43.78690000      53.90610000      49.31540000
C       49.31580000      43.78730000      53.90670000
C       53.90630000      49.31530000      43.78710000
C       43.78790000      46.09260000      50.68570000
C       56.21290000      46.09390000      49.31420000
C       56.21220000      53.90740000      50.68470000
C       49.31380000      56.21260000      46.09340000
C       50.68490000      56.21260000      53.90680000
C       50.68550000      43.78750000      46.09310000
C       53.90720000      50.68550000      56.21230000
C       46.09260000      50.68490000      43.78780000
C       46.09390000      49.31430000      56.21290000
C       56.21210000      53.90740000      49.31430000
C       50.68620000      43.78740000      53.90660000
C       46.09280000      49.31450000      43.78770000
C       56.21310000      46.09390000      50.68460000
C       43.78780000      46.09260000      49.31530000
C       43.78710000      53.90610000      50.68580000
C       50.68420000      56.21270000      46.09330000
C       49.31450000      56.21250000      53.90690000
C       49.31510000      43.78740000      46.09320000
C       46.09370000      50.68470000      56.21290000
C       53.90610000      50.68570000      43.78710000
C       53.90740000      49.31510000      56.21220000
C       43.51140000      47.12290000      48.29800000
C       48.29790000      43.51110000      47.12370000
C       47.12320000      48.29720000      43.51140000
C       43.51110000      52.87570000      51.70320000
C       56.48830000      52.87710000      48.29690000
C       56.48920000      47.12430000      51.70190000
C       48.29700000      56.48860000      52.87660000
C       51.70160000      56.48900000      47.12360000
C       51.70350000      43.51140000      52.87610000
C       47.12400000      51.70220000      56.48910000
C       52.87560000      51.70300000      43.51100000
C       52.87720000      48.29770000      56.48850000
C       56.48890000      47.12430000      48.29680000
C       51.70300000      43.51140000      47.12340000
C       52.87600000      48.29780000      43.51090000
C       56.48860000      52.87710000      51.70200000
C       43.51080000      52.87570000      48.29810000
C       43.51170000      47.12290000      51.70310000
C       51.70210000      56.48890000      52.87630000
C       48.29650000      56.48860000      47.12390000
C       48.29840000      43.51100000      52.87640000
C       52.87680000      51.70280000      56.48860000
C       47.12280000      51.70230000      43.51150000
C       47.12440000      48.29700000      56.48900000
C       43.35820000      48.53140000      51.82620000
C       51.82620000      43.35810000      48.53180000
C       48.53130000      51.82550000      43.35800000
C       43.35750000      51.46720000      48.17500000
C       56.64220000      51.46860000      51.82500000
C       56.64220000      48.53280000      48.17380000
C       51.82500000      56.64230000      51.46780000
C       48.17360000      56.64200000      48.53240000
C       48.17530000      43.35760000      51.46800000
C       48.53290000      48.17420000      56.64230000
C       51.46750000      48.17470000      43.35770000
C       51.46830000      51.82570000      56.64210000
C       56.64250000      48.53280000      51.82500000
C       48.17500000      43.35770000      48.53220000
C       51.46710000      51.82580000      43.35770000
C       56.64180000      51.46860000      48.17380000
C       43.35780000      51.46720000      51.82620000
C       43.35780000      48.53140000      48.17500000
C       48.17380000      56.64190000      51.46820000
C       51.82470000      56.64240000      48.53200000
C       51.82640000      43.35800000      51.46760000
C       51.46870000      48.17450000      56.64200000
C       48.53170000      48.17430000      43.35790000
C       48.53250000      51.82530000      56.64230000
C       45.28120000      47.36090000      46.78960000
C       46.78950000      45.28090000      47.36160000
C       47.36130000      46.78900000      45.28140000
C       45.28120000      52.63810000      53.21130000
C       54.71820000      52.63920000      46.78880000
C       54.71930000      47.36180000      53.21030000
C       46.78890000      54.71840000      52.63900000
C       53.21010000      54.71910000      47.36120000
C       53.21150000      45.28150000      52.63830000
C       47.36150000      53.21040000      54.71900000
C       52.63790000      53.21120000      45.28100000
C       52.63940000      46.78940000      54.71850000
C       54.71880000      47.36190000      46.78870000
C       53.21110000      45.28160000      47.36100000
C       52.63850000      46.78960000      45.28100000
C       54.71880000      52.63910000      53.21040000
C       45.28070000      52.63820000      46.78970000
C       45.28180000      47.36080000      53.21120000
C       53.21050000      54.71910000      52.63840000
C       46.78850000      54.71850000      47.36170000
C       46.78990000      45.28090000      52.63880000
C       52.63870000      53.21100000      54.71860000
C       47.36060000      53.21060000      45.28150000
C       47.36210000      46.78880000      54.71900000
C       44.86500000      54.50910000      51.49080000
C       51.49120000      44.86550000      54.50940000
C       54.50900000      51.49080000      44.86500000
C       44.86570000      45.48980000      48.51010000
C       55.13520000      45.49090000      51.48980000
C       55.13400000      54.51020000      48.50930000
C       51.48930000      55.13490000      45.49030000
C       48.50960000      55.13440000      54.50990000
C       48.50990000      44.86530000      45.49040000
C       54.51030000      48.51010000      55.13420000
C       45.49010000      48.50930000      44.86580000
C       45.49060000      51.48970000      55.13510000
C       55.13430000      54.51020000      51.48990000
C       48.51070000      44.86510000      54.50970000
C       45.48970000      51.48990000      44.86580000
C       55.13500000      45.49090000      48.50920000
C       44.86600000      45.48980000      51.49070000
C       44.86480000      54.50910000      48.51020000
C       48.50880000      55.13450000      45.49060000
C       51.49010000      55.13470000      54.50960000
C       51.49040000      44.86560000      45.49010000
C       45.49100000      48.50920000      55.13500000
C       54.50940000      48.51030000      44.86490000
C       54.50990000      51.49070000      55.13430000
C       56.08280000      49.28580000      53.01480000
C       53.01460000      56.08280000      49.28500000
C       49.28540000      53.01520000      56.08260000
C       56.08210000      50.71550000      46.98410000
C       43.91770000      50.71410000      53.01590000
C       43.91730000      49.28460000      46.98520000
C       53.01610000      43.91780000      50.71440000
C       46.98530000      43.91720000      49.28540000
C       46.98410000      56.08220000      50.71520000
C       49.28500000      46.98470000      43.91750000
C       50.71570000      46.98460000      56.08240000
C       50.71390000      53.01550000      43.91750000
C       43.91790000      49.28450000      53.01590000
C       46.98390000      56.08220000      49.28560000
C       50.71500000      53.01530000      56.08250000
C       43.91720000      50.71420000      46.98520000
C       56.08270000      50.71540000      53.01480000
C       56.08230000      49.28590000      46.98410000
C       46.98540000      43.91720000      50.71500000
C       53.01590000      43.91780000      49.28490000
C       53.01480000      56.08280000      50.71460000
C       50.71460000      46.98480000      43.91740000
C       49.28610000      46.98450000      56.08250000
C       49.28430000      53.01540000      43.91760000
C       46.56980000      52.35500000      47.40770000
C       47.40790000      46.57000000      52.35550000
C       52.35530000      47.40770000      46.57010000
C       46.57080000      47.64430000      52.59290000
C       53.42970000      47.64510000      47.40700000
C       53.42970000      52.35560000      52.59240000
C       47.40680000      53.42940000      47.64500000
C       52.59250000      53.42990000      52.35510000
C       52.59280000      46.57060000      47.64440000
C       52.35530000      52.59280000      53.42950000
C       47.64410000      52.59240000      46.57060000
C       47.64530000      47.40710000      53.42990000
C       53.42920000      52.35570000      47.40710000
C       52.59320000      46.57060000      52.35500000
C       47.64470000      47.40710000      46.57050000
C       53.43020000      47.64500000      52.59230000
C       46.57030000      47.64440000      47.40760000
C       46.57030000      52.35490000      52.59300000
C       52.59210000      53.43000000      47.64450000
C       47.40720000      53.42940000      52.35560000
C       47.40750000      46.57010000      47.64490000
C       47.64470000      52.59230000      53.42990000
C       52.35470000      52.59290000      46.57010000
C       52.35590000      47.40760000      53.42940000
C       46.49070000      52.51170000      44.49040000
C       44.49060000      46.49080000      52.51240000
C       52.51230000      44.49040000      46.49110000
C       46.49220000      47.48750000      55.51020000
C       53.50840000      47.48850000      44.48970000
C       53.50880000      52.51230000      55.50970000
C       44.48940000      53.50800000      47.48850000
C       55.50980000      53.50910000      52.51160000
C       55.51010000      46.49210000      47.48750000
C       52.51170000      55.51020000      53.50840000
C       47.48710000      55.50970000      46.49170000
C       47.48890000      44.48970000      53.50870000
C       53.50780000      52.51250000      44.48980000
C       55.51060000      46.49200000      52.51150000
C       47.48830000      44.48980000      46.49160000
C       53.50930000      47.48830000      55.50960000
C       46.49120000      47.48770000      44.49030000
C       46.49160000      52.51150000      55.51030000
C       55.50940000      53.50920000      47.48760000
C       44.48990000      53.50800000      52.51250000
C       44.49020000      46.49090000      47.48840000
C       47.48770000      55.50960000      53.50890000
C       52.51110000      55.51030000      46.49130000
C       52.51290000      44.49020000      53.50830000
C       49.26420000      57.08640000      49.27990000
C       49.28040000      49.26490000      57.08650000
C       57.08640000      49.28050000      49.26440000
C       49.26590000      42.91350000      50.72020000
C       50.73560000      42.91370000      49.27960000
C       50.73420000      57.08650000      50.72030000
C       49.27900000      50.73500000      42.91360000
C       50.72080000      50.73490000      57.08640000
C       50.71970000      49.26530000      42.91350000
C       57.08640000      50.72100000      50.73430000
C       42.91340000      50.71950000      49.26570000
C       42.91370000      49.27900000      50.73550000
C       50.73410000      57.08650000      49.27980000
C       50.72100000      49.26510000      57.08640000
C       42.91360000      49.27900000      49.26570000
C       50.73580000      42.91360000      50.72010000
C       49.26580000      42.91350000      49.27970000
C       49.26440000      57.08630000      50.72040000
C       50.71960000      50.73510000      42.91350000
C       49.28030000      50.73470000      57.08650000
C       49.27920000      49.26510000      42.91360000
C       42.91360000      50.71950000      50.73560000
C       57.08630000      50.72100000      49.26450000
C       57.08660000      49.28050000      50.73430000
