240
Lattice="100.0 0.0 0.0 0.0 100.0 0.0 0.0 0.0 100.0" Properties=species:S:1:pos:R:3 name=C-71174-8496-610 pressure=-6.16394313607343 energy=-1706.13393145228 spacegroup=Td times_found=1 pbc="T T T"
C       52.55290000      44.48270000      51.55890000
C       51.55840000      52.55240000      44.48230000
C       44.48250000      51.55850000      52.55260000
C       47.44730000      44.48240000      48.44200000
C       52.55280000      55.51740000      48.44120000
C       47.44710000      55.51760000      51.55790000
C       48.44150000      52.55320000      55.51720000
C       51.55840000      47.44770000      55.51770000
C       48.44170000      47.44670000      44.48270000
C       55.51750000      51.55820000      47.44710000
C       44.48260000      48.44130000      47.44730000
C       55.51750000      48.44190000      52.55300000
C       51.55840000      44.48280000      52.55330000
C       44.48250000      52.55290000      51.55810000
C       52.55280000      51.55800000      44.48240000
C       48.44170000      44.48230000      47.44760000
C       48.44150000      55.51770000      52.55240000
C       51.55840000      55.51730000      47.44670000
C       55.51750000      52.55270000      48.44140000
C       55.51750000      47.44740000      51.55860000
C       44.48260000      47.44700000      48.44180000
C       47.44710000      51.55880000      55.51730000
C       47.44720000      48.44110000      44.48260000
C       52.55280000      48.44210000      55.51760000
C       44.29540000      54.73090000      50.80350000
C       50.80400000      44.29580000      54.73140000
C       54.73090000      50.80350000      44.29540000
C       55.70450000      54.73090000      49.19570000
C       44.29550000      45.26900000      49.19640000
C       55.70460000      45.26920000      50.80440000
C       49.19610000      44.29500000      45.26950000
C       50.80390000      55.70420000      45.26860000
C       49.19600000      55.70500000      54.73040000
C       45.26900000      50.80440000      55.70450000
C       54.73090000      49.19660000      55.70470000
C       45.26910000      49.19550000      44.29540000
C       50.80390000      54.73050000      44.29500000
C       54.73100000      44.29550000      50.80450000
C       44.29540000      50.80430000      54.73080000
C       49.19600000      54.73140000      55.70420000
C       49.19610000      45.26860000      44.29580000
C       50.80400000      45.26960000      55.70500000
C       45.26920000      44.29530000      49.19650000
C       45.26900000      55.70460000      50.80340000
C       54.73090000      55.70460000      49.19560000
C       55.70460000      50.80360000      45.26910000
C       55.70460000      49.19650000      54.73100000
C       44.29550000      49.19560000      45.26910000
C       48.28300000      47.30810000      56.54240000
C       56.54220000      48.28280000      47.30780000
C       47.30760000      56.54200000      48.28240000
C       51.71710000      47.30710000      43.45810000
C       48.28300000      52.69180000      43.45760000
C       51.71690000      52.69290000      56.54190000
C       43.45780000      48.28310000      52.69250000
C       56.54210000      51.71730000      52.69230000
C       43.45790000      51.71670000      47.30740000
C       52.69230000      56.54230000      51.71650000
C       47.30770000      43.45800000      51.71750000
C       52.69250000      43.45770000      48.28350000
C       56.54220000      47.30760000      48.28330000
C       47.30760000      48.28350000      56.54230000
C       48.28290000      56.54190000      47.30710000
C       43.45790000      47.30770000      51.71720000
C       43.45780000      52.69220000      48.28270000
C       56.54210000      52.69260000      51.71680000
C       52.69240000      48.28250000      43.45800000
C       52.69230000      51.71760000      56.54200000
C       47.30770000      51.71650000      43.45770000
C       51.71690000      56.54240000      52.69190000
C       51.71710000      43.45760000      47.30820000
C       48.28300000      43.45810000      52.69290000
C       44.92650000      53.05890000      45.91910000
C       45.91940000      44.92670000      53.05970000
C       53.05940000      45.91900000      44.92680000
C       55.07350000      53.05970000      54.08040000
C       44.92650000      46.94100000      54.08080000
C       55.07360000      46.94040000      45.91970000
C       54.08070000      44.92630000      46.94110000
C       45.91940000      55.07320000      46.94020000
C       54.08050000      55.07380000      53.05890000
C       46.94070000      45.91980000      55.07380000
C       53.05920000      54.08110000      55.07320000
C       46.94070000      54.08020000      44.92610000
C       45.91940000      53.05890000      44.92620000
C       53.05940000      44.92620000      45.91980000
C       44.92650000      45.91960000      53.05960000
C       54.08050000      53.05980000      55.07330000
C       54.08070000      46.94030000      44.92670000
C       45.91940000      46.94100000      55.07380000
C       46.94070000      44.92680000      54.08100000
C       46.94070000      55.07320000      45.91900000
C       53.05920000      55.07390000      54.08020000
C       55.07360000      45.91920000      46.94100000
C       55.07350000      54.08090000      53.05900000
C       44.92640000      54.08030000      46.94030000
C       44.87150000      50.45760000      45.99910000
C       45.99920000      44.87150000      50.45840000
C       50.45810000      45.99870000      44.87180000
C       55.12840000      50.45840000      54.00090000
C       44.87150000      49.54220000      54.00090000
C       55.12850000      49.54170000      45.99920000
C       54.00090000      44.87150000      49.54240000
C       45.99910000      55.12840000      49.54150000
C       54.00080000      55.12860000      50.45760000
C       49.54200000      45.99950000      55.12880000
C       50.45790000      54.00130000      55.12820000
C       49.54200000      54.00040000      44.87120000
C       45.99920000      50.45760000      44.87140000
C       50.45810000      44.87120000      45.99960000
C       44.87160000      45.99910000      50.45830000
C       54.00080000      50.45850000      55.12850000
C       54.00090000      49.54160000      44.87160000
C       45.99910000      49.54230000      55.12850000
C       49.54200000      44.87180000      54.00130000
C       49.54190000      55.12820000      45.99870000
C       50.45790000      55.12880000      54.00050000
C       55.12850000      45.99910000      49.54230000
C       55.12840000      54.00100000      50.45770000
C       44.87150000      54.00080000      49.54160000
C       48.03970000      44.23700000      46.10190000
C       46.10150000      48.03910000      44.23740000
C       44.23730000      46.10120000      48.03980000
C       51.96050000      44.23760000      53.89900000
C       48.03950000      55.76300000      53.89810000
C       51.96040000      55.76240000      46.10100000
C       53.89850000      48.04010000      55.76290000
C       46.10140000      51.96090000      55.76250000
C       53.89860000      51.96000000      44.23720000
C       55.76270000      46.10170000      51.96080000
C       44.23720000      53.89870000      51.96010000
C       55.76270000      53.89850000      48.03930000
C       46.10150000      44.23710000      48.04000000
C       44.23730000      48.03920000      46.10160000
C       48.03970000      46.10090000      44.23760000
C       53.89860000      44.23750000      51.96090000
C       53.89850000      55.76260000      48.03910000
C       46.10140000      55.76280000      51.95990000
C       55.76270000      48.03990000      53.89880000
C       55.76270000      51.96020000      46.10130000
C       44.23720000      51.96070000      53.89840000
C       51.96040000      46.10190000      55.76300000
C       51.96040000      53.89810000      44.23700000
C       48.03950000      53.89900000      55.76240000
C       46.16630000      44.26580000      51.79570000
C       51.79540000      46.16580000      44.26600000
C       44.26570000      51.79490000      46.16610000
C       53.83380000      44.26560000      48.20520000
C       46.16620000      55.73420000      48.20420000
C       53.83370000      55.73450000      51.79480000
C       48.20470000      46.16670000      55.73460000
C       51.79520000      53.83420000      55.73400000
C       48.20470000      53.83330000      44.26530000
C       55.73430000      51.79570000      53.83370000
C       44.26570000      48.20500000      53.83390000
C       55.73440000      48.20450000      46.16640000
C       51.79540000      44.26540000      46.16670000
C       44.26570000      46.16630000      51.79550000
C       46.16630000      51.79480000      44.26550000
C       48.20480000      44.26600000      53.83420000
C       48.20470000      55.73400000      46.16580000
C       51.79520000      55.73470000      53.83330000
C       55.73440000      46.16620000      48.20510000
C       55.73430000      53.83400000      51.79500000
C       44.26560000      53.83360000      48.20440000
C       53.83370000      51.79580000      55.73420000
C       53.83380000      48.20430000      44.26580000
C       46.16620000      48.20510000      55.73450000
C       54.26180000      44.72510000      53.25910000
C       53.25870000      54.26140000      44.72440000
C       44.72470000      53.25900000      54.26150000
C       45.73830000      44.72450000      46.74170000
C       54.26180000      55.27500000      46.74090000
C       45.73810000      55.27550000      53.25820000
C       46.74130000      54.26220000      55.27490000
C       53.25870000      45.73860000      55.27560000
C       46.74140000      45.73770000      44.72510000
C       55.27520000      53.25840000      45.73800000
C       44.72480000      46.74090000      45.73840000
C       55.27520000      46.74170000      54.26210000
C       53.25870000      44.72520000      54.26230000
C       44.72470000      54.26200000      53.25830000
C       54.26180000      53.25830000      44.72450000
C       46.74140000      44.72440000      45.73860000
C       46.74130000      55.27550000      54.26140000
C       53.25860000      55.27490000      45.73780000
C       55.27520000      54.26160000      46.74100000
C       55.27520000      45.73850000      53.25900000
C       44.72480000      45.73790000      46.74160000
C       45.73810000      53.25900000      55.27490000
C       45.73830000      46.74090000      44.72500000
C       54.26180000      46.74180000      55.27550000
C       51.72510000      49.30580000      43.97300000
C       43.97290000      51.72500000      49.30610000
C       49.30630000      43.97310000      51.72560000
C       48.27490000      49.30670000      56.02710000
C       51.72500000      50.69430000      56.02700000
C       48.27500000      50.69330000      43.97290000
C       56.02700000      51.72520000      50.69370000
C       43.97300000      48.27490000      50.69390000
C       56.02710000      48.27490000      49.30640000
C       50.69380000      43.97280000      48.27540000
C       49.30620000      56.02690000      48.27440000
C       50.69370000      56.02720000      51.72460000
C       43.97300000      49.30630000      51.72510000
C       49.30630000      51.72460000      43.97280000
C       51.72520000      43.97290000      49.30670000
C       56.02710000      49.30620000      48.27500000
C       56.02700000      50.69400000      51.72510000
C       43.97300000      50.69360000      48.27480000
C       50.69370000      51.72560000      56.02690000
C       50.69380000      48.27440000      43.97310000
C       49.30620000      48.27540000      56.02720000
C       48.27500000      43.97300000      50.69420000
C       48.27490000      56.02700000      49.30570000
C       51.72500000      56.02710000      50.69330000
C       44.72320000      52.50590000      50.15960000
C       50.15990000      44.72350000      52.50630000
C       52.50590000      50.15950000      44.72330000
C       55.27670000      52.50590000      49.84000000
C       44.72330000      47.49400000      49.84030000
C       55.27680000      47.49420000      50.16010000
C       49.84020000      44.72310000      47.49450000
C       50.15980000      55.27650000      47.49370000
C       49.84010000      55.27690000      52.50550000
C       47.49400000      50.16030000      55.27670000
C       52.50590000      49.84060000      55.27680000
C       47.49410000      49.83970000      44.72330000
C       50.15990000      52.50550000      44.72310000
C       52.50600000      44.72330000      50.16030000
C       44.72320000      50.16000000      52.50590000
C       49.84010000      52.50630000      55.27650000
C       49.84020000      47.49370000      44.72350000
C       50.15990000      47.49450000      55.27690000
C       47.49410000      44.72320000      49.84050000
C       47.49400000      55.27670000      50.15940000
C       52.50590000      55.27670000      49.83970000
C       55.27670000      50.15970000      47.49410000
C       55.27670000      49.84040000      52.50600000
C       44.72330000      49.83990000      47.49410000
