240
Lattice="100.0 0.0 0.0 0.0 100.0 0.0 0.0 0.0 100.0" Properties=species:S:1:pos:R:3 name=C-71174-8496-540 pressure=0.0538351588135164 energy=-1739.33889353163 spacegroup=C1 times_found=1 pbc="T T T"
C       56.27080000      51.73140000      49.35020000
C       49.24370000      56.47590000      51.86550000
C       51.97920000      49.18650000      56.24920000
C       43.72090000      51.84760000      50.81680000
C       56.53100000      48.19460000      50.66290000
C       43.64120000      48.32460000      49.26220000
C       50.66560000      56.38560000      48.36180000
C       49.06070000      43.95680000      48.12310000
C       50.63910000      43.78830000      51.69690000
C       48.23450000      49.29790000      43.43110000
C       51.79940000      50.74430000      43.52380000
C       48.37680000      50.56090000      56.31270000
C       56.35830000      48.19800000      49.23110000
C       49.17870000      43.79830000      51.68750000
C       51.93570000      50.64160000      56.27280000
C       43.67180000      48.27970000      50.73010000
C       56.42460000      51.72950000      50.78780000
C       43.62140000      51.88870000      49.36950000
C       50.52450000      43.93120000      48.11430000
C       49.22900000      56.23870000      48.34460000
C       50.68050000      56.37210000      51.90530000
C       48.26530000      50.72280000      43.48500000
C       51.76220000      49.30770000      43.36610000
C       48.42690000      49.11050000      56.38110000
C       50.71070000      48.41880000      42.84990000
C       43.30070000      50.85440000      48.42390000
C       48.25200000      43.43830000      50.63360000
C       49.53530000      48.19290000      56.75140000
C       50.85290000      51.51360000      56.70170000
C       49.33060000      51.66220000      43.06310000
C       56.93530000      50.65750000      51.66870000
C       43.44630000      49.33090000      51.73490000
C       56.59360000      49.27570000      48.27710000
C       51.44120000      43.48070000      49.15180000
C       48.29080000      56.67850000      49.36260000
C       51.64890000      56.66670000      50.86600000
C       50.76250000      51.72810000      43.26190000
C       43.41120000      49.43510000      48.32290000
C       48.34750000      56.92230000      50.78470000
C       49.41410000      51.55690000      56.58950000
C       50.97090000      48.26730000      56.71590000
C       49.27280000      48.36340000      42.96000000
C       57.05580000      49.22230000      51.56850000
C       43.35880000      50.76720000      51.70570000
C       56.68500000      50.71210000      48.39150000
C       51.57060000      56.86660000      49.43600000
C       48.15360000      43.57160000      49.20430000
C       51.56240000      43.53770000      50.59180000
C       54.99840000      54.04510000      49.54360000
C       49.11050000      55.15550000      54.15270000
C       54.31620000      49.26180000      55.10850000
C       44.79010000      54.23010000      50.77040000
C       55.18200000      45.92340000      50.79100000
C       44.39960000      45.84630000      49.21700000
C       50.82520000      55.06950000      46.06880000
C       49.08850000      44.94270000      45.72720000
C       50.62300000      44.60220000      54.15300000
C       45.97950000      49.30490000      44.86900000
C       54.12740000      50.51910000      44.69340000
C       45.96900000      50.39710000      55.29890000
C       55.22160000      45.84730000      49.39620000
C       49.23520000      44.71700000      54.10680000
C       54.29680000      50.67320000      55.19040000
C       44.47930000      45.80890000      50.59450000
C       55.10110000      54.01270000      50.95390000
C       44.56430000      54.29170000      49.38930000
C       50.50020000      44.98070000      45.72480000
C       49.41050000      54.98750000      46.03200000
C       50.50290000      55.24740000      54.26180000
C       46.00770000      50.72090000      44.95740000
C       54.01720000      49.12620000      44.73930000
C       46.05710000      49.00850000      55.21120000
C       47.04260000      44.87310000      46.89820000
C       46.96280000      47.36890000      44.17770000
C       44.02330000      46.90880000      47.22100000
C       52.65500000      44.19290000      53.14700000
C       47.22490000      55.75190000      53.00020000
C       52.69460000      55.67010000      47.24650000
C       53.10920000      47.20900000      55.16640000
C       46.86570000      52.47980000      55.78590000
C       53.25090000      52.62340000      44.28580000
C       55.83670000      47.03160000      52.67650000
C       44.80730000      52.95790000      52.78990000
C       55.13180000      52.88650000      47.44290000
C       47.31250000      55.12430000      47.14670000
C       47.16280000      52.64600000      44.41300000
C       44.18100000      53.24020000      47.35420000
C       52.59030000      55.73660000      53.36870000
C       47.17400000      44.69520000      52.93450000
C       52.54170000      44.88220000      46.94510000
C       53.04060000      52.68840000      55.31750000
C       47.16000000      47.11440000      55.73590000
C       52.83860000      47.26890000      44.13440000
C       55.76380000      52.92570000      52.81940000
C       44.18780000      46.77020000      52.67130000
C       55.67570000      46.76900000      47.30940000
C       43.95270000      53.13920000      48.77570000
C       48.56360000      44.28810000      52.88660000
C       52.92750000      48.64850000      43.90200000
C       55.92780000      52.92630000      51.42980000
C       43.98290000      46.99350000      51.26820000
C       55.88320000      46.95330000      48.71320000
C       51.15230000      44.49030000      46.93820000
C       48.68470000      55.54660000      47.19080000
C       51.18690000      55.91490000      53.16190000
C       47.19910000      48.49390000      55.94300000
C       53.08330000      51.29640000      55.71160000
C       47.08420000      51.28490000      44.12460000
C       43.88420000      47.06530000      48.64220000
C       48.60950000      55.96990000      53.05590000
C       53.04590000      51.23040000      44.03180000
C       56.02550000      46.99940000      51.28940000
C       44.32640000      53.00430000      51.43270000
C       55.56530000      52.87950000      48.81530000
C       51.30710000      55.88300000      47.17190000
C       48.43350000      44.47880000      46.94240000
C       51.23520000      44.06100000      52.96770000
C       47.09990000      51.07260000      55.92100000
C       53.13130000      48.58020000      55.62030000
C       47.01800000      48.74870000      43.99750000
C       52.75290000      45.74990000      45.80120000
C       46.38460000      53.04020000      45.52500000
C       44.59860000      45.47330000      52.87950000
C       47.01230000      45.54440000      54.11130000
C       52.80730000      55.25410000      54.63440000
C       47.16450000      54.17270000      46.06050000
C       54.17570000      52.92550000      54.43590000
C       46.30220000      46.70410000      54.68890000
C       53.59060000      46.83900000      45.25570000
C       55.15190000      45.51720000      47.09080000
C       44.62070000      54.51620000      47.06880000
C       54.68300000      53.70180000      53.28350000
C       53.13240000      54.57520000      46.46690000
C       46.15420000      46.94650000      45.25340000
C       45.68950000      54.09830000      52.97460000
C       46.81480000      54.63100000      53.76700000
C       52.92990000      44.60930000      54.43170000
C       46.85970000      45.75650000      45.76140000
C       54.22030000      47.04390000      54.24730000
C       45.58510000      52.69880000      55.34170000
C       54.50040000      52.81820000      44.82200000
C       54.22410000      54.00740000      47.28230000
C       44.37770000      45.61020000      46.90260000
C       54.73030000      46.25920000      53.10820000
C       49.66310000      46.12300000      42.17970000
C       42.71680000      49.92410000      46.09520000
C       45.98820000      42.68210000      49.62790000
C       51.26800000      46.01560000      57.91400000
C       49.74850000      53.78910000      57.35610000
C       50.45810000      54.01700000      42.68990000
C       58.45580000      49.11730000      53.71200000
C       42.23010000      50.83930000      54.00410000
C       57.76670000      50.86060000      46.07900000
C       53.75850000      42.74420000      50.12090000
C       46.15840000      58.21520000      50.66770000
C       53.76820000      58.12340000      49.55830000
C       49.42450000      53.94460000      41.96230000
C       42.06850000      51.00870000      46.23220000
C       46.08230000      57.52350000      49.61590000
C       50.87320000      53.75210000      57.92700000
C       50.08120000      45.96220000      57.49040000
C       50.74690000      46.22400000      41.53120000
C       57.80090000      50.19110000      53.86450000
C       42.78170000      49.70430000      53.99860000
C       57.22840000      49.72030000      46.02750000
C       53.90180000      57.37640000      50.57340000
C       46.08570000      42.11480000      50.74780000
C       53.64490000      42.20460000      48.98460000
C       44.90760000      45.03810000      48.05410000
C       48.05500000      45.60340000      44.96430000
C       45.34570000      48.10960000      45.56190000
C       54.42850000      45.37200000      51.97610000
C       45.55270000      54.94380000      51.78120000
C       54.30180000      54.79820000      48.51510000
C       51.76380000      45.13540000      55.00550000
C       47.94340000      54.35840000      54.67510000
C       52.03570000      54.34320000      45.51540000
C       55.05400000      48.25170000      54.36170000
C       45.08850000      51.52420000      54.78280000
C       54.96730000      51.61420000      45.33410000
C       45.12730000      55.07840000      48.23820000
C       48.39110000      54.28440000      45.26880000
C       45.44330000      51.91130000      45.75410000
C       54.38420000      54.58680000      52.16920000
C       45.06560000      44.92130000      51.68260000
C       54.60660000      45.02550000      48.27810000
C       51.62810000      54.69050000      55.12170000
C       48.22820000      45.38540000      54.88040000
C       51.54460000      45.65970000      44.96660000
C       55.00700000      51.74360000      54.53760000
C       45.43610000      47.85090000      54.46200000
C       54.53330000      47.93940000      45.51610000
C       56.76800000      51.23450000      47.04810000
C       46.97680000      57.18240000      51.21260000
C       51.50370000      46.92580000      56.81660000
C       43.25580000      51.22910000      53.07020000
C       57.32500000      48.72240000      52.90790000
C       43.42480000      49.05420000      46.92090000
C       52.94310000      57.09540000      49.01580000
C       46.76380000      43.50100000      48.79260000
C       52.96760000      43.49370000      50.99710000
C       48.83850000      46.97270000      42.89300000
C       51.21200000      53.10830000      43.42310000
C       48.93950000      52.94100000      56.59050000
C       56.52010000      48.86100000      46.87750000
C       46.92010000      43.20810000      51.15570000
C       51.30600000      52.87510000      56.87530000
C       43.47950000      48.86800000      53.12190000
C       57.04970000      51.04030000      53.07650000
C       43.16600000      51.37640000      47.08190000
C       52.77760000      43.29400000      48.63480000
C       46.92310000      56.67030000      48.89690000
C       53.03270000      56.59040000      51.32130000
C       48.89670000      53.03930000      42.92860000
C       51.16280000      47.05180000      42.63530000
C       49.14580000      46.78790000      56.87560000
C       48.22030000      46.27620000      55.98470000
C       55.59390000      47.87940000      46.46570000
C       46.42420000      55.66840000      48.08510000
C       51.73970000      46.49690000      43.81050000
C       48.23600000      53.47010000      44.09810000
C       51.95880000      53.44630000      55.77370000
C       44.36450000      47.85240000      53.52560000
C       56.08640000      51.86020000      53.62300000
C       44.32350000      52.07830000      46.59370000
C       53.43130000      55.63250000      52.26120000
C       46.33860000      44.25970000      51.90220000
C       53.33600000      44.40860000      47.99570000
C       47.93820000      53.36380000      55.69520000
C       55.61650000      51.87290000      46.59500000
C       46.19320000      44.41310000      47.90320000
C       52.13980000      53.45460000      44.41620000
C       47.98820000      46.50340000      43.86810000
C       52.08270000      46.39090000      55.65290000
C       44.39590000      51.86740000      53.57000000
C       56.18140000      48.10170000      53.47910000
C       44.26860000      48.04370000      46.46350000
C       53.45410000      44.33910000      52.01660000
C       46.42430000      56.07960000      51.91730000
C       53.47030000      55.96020000      48.35460000
