240
Lattice="100.0 0.0 0.0 0.0 100.0 0.0 0.0 0.0 100.0" Properties=species:S:1:pos:R:3 name=C-71174-8496-766 pressure=9.35014267332632 spacegroup=C1 times_found=1 energy=-1794.57977680418 pbc="T T T"
C       50.89410000      52.57270000      56.73630000
C       57.02770000      50.81890000      52.43460000
C       52.43570000      56.61280000      51.05170000
C       50.70020000      47.29840000      43.46160000
C       49.41410000      47.49410000      56.74750000
C       49.23270000      52.30280000      43.69540000
C       56.82820000      49.34240000      47.40550000
C       43.66220000      49.31000000      52.31770000
C       43.31630000      50.78500000      47.36110000
C       52.39410000      43.63080000      49.26070000
C       47.43950000      43.52700000      50.60900000
C       47.41810000      56.82650000      49.38670000
C       49.41440000      52.55870000      56.81500000
C       43.68190000      50.82200000      52.32800000
C       47.39580000      56.77230000      50.87370000
C       49.17550000      47.28230000      43.43350000
C       50.89270000      47.48810000      56.65920000
C       50.74410000      52.28650000      43.73080000
C       43.23460000      49.27750000      47.33960000
C       57.02070000      49.35710000      52.40380000
C       56.71380000      50.82060000      47.43630000
C       47.40790000      43.43500000      49.09060000
C       52.38140000      43.69330000      50.77050000
C       52.41940000      56.63980000      49.56820000
C       44.58010000      51.85160000      52.97820000
C       53.03290000      44.60570000      51.79550000
C       51.77010000      52.92750000      44.63680000
C       44.06580000      48.28920000      46.65250000
C       56.03300000      48.59960000      53.15360000
C       55.73980000      51.67140000      46.77900000
C       53.14950000      55.76760000      48.65560000
C       46.69300000      55.84170000      51.74230000
C       46.72650000      44.24920000      47.99870000
C       51.75330000      46.77180000      55.72840000
C       48.15750000      46.55400000      44.25680000
C       48.47880000      53.32140000      55.97680000
C       56.06430000      51.55530000      53.23450000
C       46.76860000      44.41790000      51.52640000
C       48.18240000      52.96660000      44.55800000
C       55.97040000      48.40850000      46.66840000
C       44.56710000      48.27660000      52.93240000
C       44.22180000      51.68200000      46.66670000
C       46.66920000      55.97530000      48.44980000
C       53.11160000      55.67290000      52.04400000
C       53.03720000      44.49790000      48.21290000
C       48.47720000      46.75090000      55.89470000
C       51.65280000      46.60900000      44.31110000
C       51.76070000      53.32380000      55.84060000
C       48.47580000      42.55970000      48.57620000
C       48.60600000      48.37660000      42.66380000
C       42.46560000      48.66410000      48.42600000
C       48.47040000      57.47970000      51.54650000
C       51.39070000      57.38060000      48.86960000
C       51.36010000      42.82530000      51.39620000
C       48.78670000      51.45210000      57.47710000
C       51.37020000      51.27560000      42.84910000
C       51.55310000      48.59890000      57.33050000
C       42.78840000      51.45030000      51.33140000
C       57.41340000      51.48310000      48.51800000
C       57.66910000      48.70580000      51.31320000
C       51.41370000      42.68630000      48.66380000
C       51.36220000      48.38070000      42.74230000
C       57.54380000      48.70900000      48.47160000
C       51.36050000      57.44110000      51.62910000
C       48.52730000      57.48640000      48.76510000
C       48.47100000      42.77900000      51.32350000
C       51.55540000      51.44390000      57.37660000
C       48.63060000      51.30150000      42.77990000
C       48.78520000      48.58110000      57.44010000
C       57.64660000      51.49390000      51.33690000
C       42.61520000      51.45270000      48.44160000
C       42.72400000      48.69790000      51.34050000
C       44.09820000      53.43950000      48.43770000
C       48.48280000      44.22370000      53.33310000
C       53.38600000      48.40550000      44.16500000
C       43.89730000      46.63640000      51.09610000
C       55.88040000      46.92360000      48.62890000
C       55.94920000      53.21460000      51.46860000
C       48.63230000      55.81980000      46.97380000
C       51.22790000      56.23460000      53.64980000
C       51.28670000      43.71810000      46.53250000
C       53.44990000      51.50070000      55.80210000
C       46.52480000      51.18110000      43.84330000
C       46.98080000      48.70370000      55.79060000
C       55.72130000      53.28600000      48.68780000
C       51.22240000      43.94510000      53.45440000
C       46.59510000      48.46670000      43.98950000
C       55.91170000      46.99600000      51.30940000
C       43.76690000      46.61180000      48.45360000
C       43.90300000      53.51670000      51.18780000
C       51.28920000      55.75520000      47.04900000
C       48.46630000      55.95700000      53.49980000
C       48.60860000      43.59770000      46.43870000
C       46.98360000      51.36960000      55.82470000
C       53.44930000      51.15240000      43.95110000
C       53.43160000      48.59600000      55.74140000
C       55.54240000      50.78400000      54.26530000
C       54.17290000      54.63650000      52.00280000
C       51.57850000      54.56480000      55.15480000
C       55.46610000      48.60660000      45.46160000
C       45.59440000      48.28580000      53.96420000
C       44.96590000      51.52290000      45.47000000
C       54.05160000      45.54110000      48.22930000
C       45.58350000      45.15250000      51.37170000
C       45.44900000      55.49570000      48.63880000
C       51.56010000      45.38780000      45.01170000
C       48.67460000      45.53740000      55.40590000
C       48.19160000      54.00230000      45.58170000
C       45.59840000      51.83110000      54.01370000
C       45.50520000      55.07840000      51.54770000
C       48.67300000      54.54380000      55.50900000
C       45.03880000      48.24040000      45.61630000
C       55.52260000      49.33060000      54.22410000
C       55.00270000      51.50370000      45.57000000
C       45.66840000      45.27870000      47.93960000
C       54.07330000      45.63320000      51.77310000
C       54.30400000      55.20290000      48.94470000
C       48.20100000      45.26330000      44.89430000
C       51.57690000      45.55560000      55.00530000
C       51.73640000      53.94840000      45.66580000
C       47.71430000      49.31230000      56.81420000
C       56.92120000      47.64150000      49.21910000
C       49.26000000      56.82560000      47.71600000
C       47.45030000      50.54210000      43.07530000
C       52.62710000      50.76000000      56.73080000
C       52.51550000      49.04260000      43.24720000
C       56.91080000      52.53870000      50.69900000
C       43.15930000      52.59550000      49.08800000
C       43.01630000      47.52180000      50.55480000
C       49.11510000      43.28320000      52.48670000
C       50.67950000      42.92200000      47.45400000
C       50.56450000      57.02610000      52.75400000
C       52.62180000      49.30410000      56.70400000
C       42.91040000      47.49290000      49.11960000
C       50.68240000      56.78030000      47.76830000
C       52.52970000      50.49490000      43.19040000
C       47.71610000      50.73640000      56.83220000
C       47.45300000      49.08490000      43.09370000
C       43.12630000      52.60680000      50.54080000
C       56.77590000      52.53080000      49.26170000
C       56.95570000      47.65880000      50.64280000
C       50.56320000      43.19170000      52.53420000
C       49.23410000      42.85630000      47.40380000
C       49.11100000      56.93620000      52.69390000
C       50.72580000      50.60690000      41.82300000
C       41.75020000      50.80560000      50.68820000
C       50.68740000      41.79270000      50.76910000
C       50.92040000      49.27710000      58.37620000
C       49.31310000      49.13430000      41.72960000
C       49.47930000      50.73160000      58.45260000
C       41.59270000      49.39770000      49.22390000
C       58.64350000      49.39070000      50.57750000
C       58.50220000      50.85240000      49.13420000
C       50.70400000      58.42560000      49.48030000
C       49.21970000      58.46440000      50.89010000
C       49.22370000      41.67320000      49.34520000
C       49.31210000      50.60810000      41.79150000
C       58.61700000      50.84090000      50.58310000
C       49.21430000      41.74980000      50.75340000
C       49.47910000      49.27590000      58.43280000
C       50.72810000      49.13670000      41.76020000
C       50.92050000      50.73230000      58.39790000
C       58.55590000      49.40680000      49.12670000
C       41.70670000      49.38850000      50.69440000
C       41.64690000      50.81540000      49.22090000
C       49.24580000      58.46370000      49.45380000
C       50.68690000      58.42530000      50.91250000
C       50.70490000      41.71560000      49.36030000
C       47.28340000      44.08660000      46.68080000
C       46.88620000      47.20500000      44.58670000
C       44.23750000      46.99330000      47.21110000
C       47.25200000      55.40620000      53.04740000
C       52.56550000      55.31120000      47.42010000
C       52.47740000      44.51010000      53.10080000
C       47.29500000      52.68530000      55.44110000
C       53.08390000      52.38880000      44.54430000
C       53.02820000      47.33300000      55.26220000
C       44.48220000      53.16040000      52.43280000
C       55.24380000      52.92180000      47.40730000
C       55.49460000      47.37010000      52.61510000
C       52.49860000      44.35670000      46.89690000
C       52.96620000      47.18700000      44.71030000
C       55.45530000      47.23040000      47.32560000
C       52.51380000      55.70460000      53.32860000
C       47.31430000      55.43510000      47.27010000
C       47.29530000      44.79440000      52.86940000
C       53.05160000      52.78890000      55.37970000
C       46.86880000      52.42600000      44.43000000
C       47.29560000      47.40030000      55.37140000
C       55.54930000      52.81940000      52.77590000
C       44.63850000      52.99790000      47.22000000
C       44.48940000      46.98350000      52.33200000
C       52.68660000      45.42450000      54.12710000
C       54.10350000      52.59250000      45.47050000
C       45.38640000      54.19430000      52.65020000
C       52.91410000      54.22450000      46.57190000
C       46.44040000      54.23120000      53.54180000
C       47.03380000      44.85060000      45.55730000
C       53.55170000      46.49960000      54.13690000
C       45.86250000      47.02780000      45.64880000
C       46.45670000      53.03660000      54.33700000
C       45.38270000      46.23690000      46.79540000
C       54.37360000      46.51840000      52.96120000
C       54.09970000      53.43110000      46.56890000
C       46.46840000      45.92530000      53.40670000
C       45.83300000      52.63520000      45.33660000
C       54.44710000      53.69640000      53.16360000
C       46.97650000      54.32410000      46.42780000
C       52.71330000      54.74890000      54.32040000
C       52.67590000      45.28070000      45.87370000
C       46.46270000      47.08080000      54.25210000
C       53.52220000      46.36870000      45.84280000
C       53.59280000      53.67920000      54.31020000
C       54.34180000      46.39410000      47.01490000
C       45.42480000      45.97800000      52.50810000
C       45.79250000      53.51760000      46.39920000
C       54.96230000      46.01590000      49.28490000
C       49.26030000      54.88790000      46.05630000
C       46.04880000      49.34030000      54.88040000
C       55.08040000      54.20170000      50.94760000
C       44.61370000      54.60560000      49.15510000
C       44.66750000      45.61260000      50.39340000
C       49.18930000      44.69980000      54.51960000
C       50.62660000      44.41350000      45.44670000
C       50.60420000      55.49060000      54.68400000
C       45.45090000      50.54190000      44.55990000
C       54.50950000      50.77020000      55.27040000
C       54.56040000      49.12710000      44.64860000
C       44.69340000      45.65160000      48.98850000
C       50.67340000      54.86130000      46.09290000
C       54.49570000      49.33110000      55.23480000
C       44.58000000      54.60160000      50.57610000
C       55.08780000      54.31730000      49.52180000
C       54.97640000      46.06120000      50.70330000
C       50.60830000      44.63340000      54.53130000
C       49.23730000      44.35460000      45.40340000
C       49.18360000      55.41830000      54.65530000
C       54.54340000      50.54660000      44.62080000
C       46.05290000      50.75530000      54.89950000
C       45.52120000      49.14460000      44.65210000
