240
Lattice="100.0 0.0 0.0 0.0 100.0 0.0 0.0 0.0 100.0" Properties=species:S:1:pos:R:3 name=C-71174-8496-420 pressure=-0.0272792546006524 energy=-1734.13796821567 spacegroup=Cs times_found=1 pbc="T T T"
C       56.49890000      53.00350000      49.28450000
C       53.00120000      49.21760000      57.02330000
C       49.53270000      56.85650000      53.01400000
C       43.14290000      47.18140000      49.32380000
C       56.81820000      47.20190000      50.63380000
C       43.26830000      53.03100000      50.76300000
C       47.15970000      50.68480000      56.93830000
C       52.92690000      50.71850000      42.86780000
C       47.05070000      49.39160000      43.10680000
C       50.71290000      43.15640000      52.87400000
C       49.27910000      43.19860000      47.02470000
C       50.89810000      56.85020000      47.07650000
C       56.50770000      52.99310000      50.67880000
C       52.91290000      49.32290000      42.92870000
C       49.49560000      56.90070000      47.09490000
C       43.15170000      47.17100000      50.71990000
C       56.80940000      47.21230000      49.23910000
C       43.25960000      53.04140000      49.36680000
C       47.07300000      50.78820000      43.10890000
C       53.01620000      50.61220000      57.10490000
C       47.13730000      49.28840000      56.91970000
C       50.67620000      43.20020000      47.01530000
C       49.31580000      43.15490000      52.88210000
C       50.93530000      56.80580000      53.01400000
C       53.48820000      45.48460000      46.26630000
C       45.42510000      46.38670000      53.53160000
C       46.43460000      53.61690000      45.40860000
C       46.60940000      54.68530000      46.37120000
C       53.57670000      54.46720000      53.96790000
C       46.49900000      45.42520000      53.65150000
C       54.59130000      53.48680000      53.78760000
C       45.51010000      53.75420000      46.51300000
C       54.56360000      46.44030000      46.39710000
C       53.61930000      46.56180000      45.30590000
C       46.37530000      46.49570000      54.61580000
C       53.73190000      53.43160000      54.92190000
C       53.53430000      45.42960000      53.62180000
C       45.38080000      46.43950000      46.47240000
C       46.49280000      53.54750000      54.68930000
C       46.65560000      54.63030000      53.74070000
C       53.52710000      54.52630000      46.05470000
C       46.45300000      45.47990000      46.32480000
C       54.54380000      53.54340000      46.20770000
C       45.55460000      53.70120000      53.59870000
C       54.60800000      46.38720000      53.49180000
C       53.67750000      46.49230000      54.59650000
C       46.31740000      46.56470000      45.37820000
C       53.67020000      53.50510000      45.08360000
C       48.56110000      42.88980000      51.71460000
C       42.95030000      51.88420000      48.61320000
C       51.72480000      48.58740000      42.69650000
C       51.69400000      56.86700000      51.79820000
C       48.78010000      57.14200000      48.29200000
C       51.43290000      42.92100000      48.17830000
C       57.06360000      48.39140000      48.49640000
C       42.89640000      48.34000000      51.47650000
C       57.00540000      51.87850000      51.42100000
C       48.24310000      51.52130000      42.79310000
C       51.84370000      51.36690000      57.40370000
C       48.29080000      48.51770000      57.19690000
C       48.53900000      42.91610000      48.19750000
C       42.96840000      51.86260000      51.50310000
C       51.81610000      48.47860000      57.25940000
C       51.67200000      56.89330000      48.28350000
C       48.80230000      57.11560000      51.82970000
C       51.45500000      42.89470000      51.69770000
C       57.08180000      48.36980000      51.39070000
C       42.87820000      48.36160000      48.58800000
C       56.98720000      51.90020000      48.51950000
C       48.33370000      51.41320000      57.25030000
C       51.75090000      51.47760000      42.59500000
C       48.20060000      48.62520000      42.80380000
C       46.66790000      56.49230000      50.82920000
C       56.41920000      50.84550000      46.33570000
C       50.79060000      46.40550000      56.48710000
C       53.56340000      43.59630000      50.68930000
C       46.42800000      43.59940000      49.21590000
C       52.25180000      53.99670000      49.38610000
C       43.55240000      49.36930000      46.47400000
C       56.44850000      49.28190000      53.56280000
C       43.62430000      50.83360000      53.61000000
C       49.34880000      53.54860000      56.60970000
C       50.77880000      53.63330000      43.37150000
C       49.19130000      46.50290000      43.46390000
C       46.65840000      56.50370000      49.30980000
C       56.46470000      50.79120000      53.59570000
C       50.70890000      46.50290000      43.45050000
C       53.55380000      43.60760000      49.17050000
C       46.43750000      43.58810000      50.73310000
C       52.25970000      53.98730000      50.64530000
C       43.59710000      49.31600000      53.59670000
C       56.40330000      49.33580000      46.34640000
C       43.57960000      50.88680000      46.48310000
C       49.26630000      53.64690000      43.45280000
C       50.86220000      53.53390000      56.67180000
C       49.27300000      46.40560000      56.49270000
C       47.47770000      55.70090000      53.22940000
C       55.45080000      53.08070000      47.18640000
C       53.18020000      47.25580000      55.71670000
C       52.73890000      44.34940000      53.09460000
C       47.25090000      44.39100000      46.82670000
C       52.77470000      55.51650000      46.71850000
C       44.31320000      46.96310000      47.28500000
C       55.67310000      46.92060000      52.67840000
C       44.46360000      53.21260000      52.79210000
C       46.97840000      52.73240000      55.77680000
C       53.14970000      52.74760000      44.00920000
C       46.82320000      47.36140000      44.29020000
C       47.43790000      55.74830000      46.88800000
C       55.48590000      53.03880000      52.79070000
C       53.10800000      47.34180000      44.20350000
C       52.69940000      44.39650000      46.78730000
C       47.29040000      44.34400000      53.12330000
C       52.81610000      55.46710000      53.32850000
C       44.34740000      46.92230000      52.74040000
C       55.63880000      46.96150000      47.20490000
C       44.42930000      53.25340000      47.32580000
C       46.90650000      52.81820000      44.30300000
C       53.22480000      52.65810000      55.99120000
C       46.89480000      47.27600000      55.70910000
C       48.18470000      47.27900000      56.48610000
C       47.50990000      56.48610000      48.20330000
C       56.38900000      48.26130000      47.23410000
C       51.93600000      52.63430000      56.72690000
C       48.17350000      52.77950000      43.48970000
C       51.80860000      47.36220000      43.43560000
C       52.68040000      43.62180000      48.08130000
C       47.31210000      43.58650000      51.82090000
C       52.82950000      55.93200000      51.91130000
C       43.63150000      51.97440000      47.35600000
C       56.37790000      51.87650000      52.71090000
C       43.59490000      48.22830000      52.72210000
C       48.10330000      47.37600000      43.49720000
C       47.53320000      56.45820000      51.92450000
C       56.42300000      48.22080000      52.65930000
C       51.85180000      52.73470000      43.28950000
C       48.25550000      52.68180000      56.57350000
C       51.89050000      47.26460000      56.50110000
C       52.70370000      43.59410000      51.78940000
C       47.28890000      43.61420000      48.11740000
C       52.80590000      55.96020000      48.14220000
C       43.66530000      51.93410000      52.75290000
C       56.34360000      51.91740000      47.23770000
C       43.56120000      48.26860000      47.33220000
C       48.66680000      56.14190000      46.20490000
C       56.03570000      46.31070000      48.44550000
C       46.24920000      48.51940000      56.10990000
C       51.45950000      44.00160000      46.13250000
C       48.52950000      43.94190000      53.77520000
C       51.66150000      56.04160000      53.97280000
C       44.06790000      53.91110000      48.57500000
C       55.55280000      53.69910000      51.47820000
C       43.94340000      46.27510000      51.49930000
C       53.88860000      51.41970000      56.31920000
C       46.22080000      51.58930000      43.92690000
C       53.78150000      48.56070000      43.77160000
C       48.71510000      56.08430000      53.90280000
C       56.05430000      46.28850000      51.42340000
C       46.17270000      48.61050000      43.91610000
C       51.50730000      43.94460000      53.75880000
C       48.48180000      43.99890000      46.15340000
C       51.61210000      56.10050000      46.09740000
C       44.08650000      53.88880000      51.55750000
C       55.53420000      53.72130000      48.50770000
C       43.92470000      46.29740000      48.52120000
C       53.80920000      51.51440000      43.65440000
C       46.29740000      51.49800000      56.14310000
C       53.85920000      48.46820000      56.15830000
C       44.32040000      45.16810000      50.74940000
C       45.10850000      50.86530000      44.33460000
C       50.71200000      44.38850000      45.02830000
C       54.68560000      54.50720000      50.72190000
C       44.48930000      55.00360000      49.32150000
C       55.66760000      45.19050000      49.17890000
C       54.88860000      49.30750000      44.17070000
C       45.15360000      49.28010000      55.72550000
C       54.97500000      50.71150000      55.81700000
C       49.35700000      55.76740000      45.05480000
C       50.90790000      55.69780000      55.09290000
C       49.27360000      44.31280000      54.88690000
C       44.31100000      45.17930000      49.24980000
C       45.18000000      50.78010000      55.73860000
C       50.77370000      44.31490000      54.87800000
C       54.67660000      54.51790000      49.28680000
C       44.49870000      54.99240000      50.82220000
C       55.67700000      45.17930000      50.67810000
C       54.96120000      49.22090000      55.75660000
C       45.08210000      49.36530000      44.32560000
C       54.90180000      50.79880000      44.13240000
C       49.41960000      55.69280000      55.03850000
C       50.84450000      55.77330000      44.98190000
C       49.21190000      44.38640000      45.03810000
C       49.24380000      50.79040000      42.17760000
C       50.73290000      42.33670000      49.21340000
C       42.33530000      49.39240000      50.78230000
C       50.67870000      49.29000000      42.12500000
C       49.32820000      49.19750000      57.79710000
C       50.79130000      50.64870000      57.92280000
C       49.53520000      57.63240000      49.33730000
C       51.01640000      57.49510000      50.77420000
C       49.26370000      42.32240000      50.67190000
C       57.63770000      50.88800000      50.69590000
C       42.35890000      50.85390000      49.31550000
C       57.61430000      49.44150000      49.21130000
C       49.34200000      50.67330000      57.84220000
C       50.74200000      42.32580000      50.66270000
C       42.32600000      49.40350000      49.30480000
C       50.77730000      49.17250000      57.85430000
C       49.23040000      49.31400000      42.20080000
C       50.69200000      50.76700000      42.07850000
C       49.54420000      57.62160000      50.78250000
C       51.00740000      57.50590000      49.32520000
C       49.25460000      42.33320000      49.22270000
C       57.62840000      50.89900000      49.22180000
C       42.36820000      50.84290000      50.79290000
C       57.62350000      49.43050000      50.68480000
C       50.90670000      54.86910000      56.23110000
C       53.36370000      55.15850000      50.82080000
C       56.07920000      50.77860000      54.94890000
C       49.23930000      45.08590000      56.04420000
C       50.74340000      45.17850000      43.88300000
C       49.26830000      54.96680000      43.91090000
C       45.11180000      44.02130000      50.77490000
C       54.87950000      44.04160000      49.13620000
C       45.31730000      56.12280000      49.28580000
C       44.01370000      49.26660000      54.92620000
C       56.00280000      49.28680000      45.01160000
C       43.98020000      50.91950000      45.14820000
C       50.82890000      54.96180000      43.83150000
C       53.35370000      55.17050000      49.21430000
C       56.01680000      50.85300000      44.98750000
C       49.16310000      45.17670000      43.89310000
C       50.81960000      45.08770000      56.03450000
C       49.34520000      54.87520000      56.17140000
C       45.10190000      44.03300000      49.19720000
C       54.88940000      44.02980000      50.71350000
C       45.32720000      56.11100000      50.86430000
C       43.95230000      49.33980000      45.13880000
C       56.06480000      49.21290000      54.90150000
C       44.04160000      50.84630000      54.94010000
