240
Lattice="100.0 0.0 0.0 0.0 100.0 0.0 0.0 0.0 100.0" Properties=species:S:1:pos:R:3 name=C-71174-8496-297 pressure=6.31573165339374 energy=-1728.33668125268 spacegroup=C1 times_found=1 pbc="T T T"
C       53.22930000      45.76360000      44.73070000
C       44.80650000      53.22200000      45.71410000
C       45.87680000      44.73730000      53.26380000
C       46.91430000      45.64770000      55.33440000
C       53.19180000      54.16770000      55.24340000
C       46.83610000      54.23440000      44.65800000
C       55.25080000      53.17360000      54.24620000
C       44.97300000      46.82370000      54.28230000
C       55.27870000      46.77810000      45.73640000
C       54.26760000      44.73370000      46.75330000
C       45.82520000      55.29200000      46.66730000
C       54.23480000      55.22260000      53.23540000
C       44.91660000      45.81540000      53.26990000
C       45.81660000      53.21200000      44.68820000
C       53.23520000      44.74170000      45.74270000
C       55.28600000      45.75070000      46.75120000
C       55.25090000      54.20110000      53.23250000
C       44.82490000      54.25240000      46.71500000
C       54.22250000      53.15730000      55.25190000
C       54.25390000      46.78270000      44.72650000
C       45.91220000      46.68000000      55.37000000
C       46.89780000      44.67500000      54.27890000
C       46.83860000      55.28350000      45.64030000
C       53.20990000      55.21300000      54.25260000
C       51.66630000      44.62860000      50.58480000
C       50.61340000      51.59650000      44.72180000
C       43.32990000      50.43600000      51.12440000
C       48.45830000      44.69270000      49.44600000
C       51.60550000      55.50770000      49.36150000
C       48.54480000      55.89180000      50.44530000
C       49.34120000      51.42300000      55.36530000
C       50.64840000      48.25750000      55.40740000
C       49.44250000      48.41090000      44.74730000
C       55.36600000      50.57580000      48.39560000
C       44.59510000      49.47450000      48.43450000
C       55.38880000      49.37640000      51.58900000
C       50.66220000      44.61230000      51.60440000
C       43.25040000      51.79150000      50.83700000
C       51.62790000      50.58610000      44.73230000
C       49.46040000      44.68390000      48.42200000
C       49.54200000      55.74790000      51.46620000
C       50.62040000      55.54240000      48.30350000
C       55.35450000      51.57990000      49.41770000
C       55.40220000      48.36670000      50.57290000
C       44.65640000      48.49670000      49.48280000
C       48.34590000      50.41360000      55.54420000
C       48.43310000      49.42630000      44.74380000
C       51.61610000      49.30810000      55.35060000
C       55.09970000      54.08690000      46.91700000
C       46.92500000      54.82840000      53.74320000
C       54.16640000      46.83370000      55.07310000
C       44.77060000      54.28880000      52.80950000
C       55.16650000      45.86820000      53.07600000
C       44.93960000      45.96520000      46.97650000
C       53.14670000      55.10110000      45.88880000
C       46.91230000      44.94190000      45.97170000
C       53.20490000      44.83130000      54.07410000
C       45.92490000      46.92200000      44.97360000
C       54.13060000      53.10300000      44.91530000
C       45.77100000      52.84920000      54.66570000
C       46.84270000      53.81920000      54.67410000
C       54.11610000      55.09570000      46.90050000
C       55.15620000      46.85330000      54.06780000
C       53.14850000      54.09240000      44.90190000
C       53.20300000      45.82320000      55.07980000
C       46.90850000      45.93240000      44.96690000
C       45.95520000      55.01840000      52.70940000
C       45.93680000      44.96680000      46.97100000
C       54.18250000      44.85560000      53.07670000
C       44.92840000      46.93410000      45.97470000
C       44.70980000      53.21770000      53.79380000
C       55.11750000      53.10250000      45.92500000
C       53.95610000      51.91970000      55.89370000
C       55.90700000      53.93610000      52.00290000
C       52.00120000      55.90400000      53.99620000
C       46.08350000      51.96970000      44.06490000
C       53.97810000      48.02050000      44.08880000
C       46.17490000      47.80630000      56.19730000
C       44.15660000      54.01030000      47.93720000
C       55.94590000      46.01640000      47.98010000
C       44.24460000      46.12710000      52.06220000
C       48.06220000      55.96440000      45.88300000
C       52.00140000      44.09690000      46.02610000
C       48.11540000      44.00900000      53.98350000
C       55.91270000      51.94850000      53.97130000
C       51.94610000      53.86530000      55.85070000
C       53.97160000      55.89410000      52.01150000
C       44.13550000      52.00770000      46.01940000
C       44.40320000      48.12460000      54.00360000
C       55.92930000      48.01020000      46.01300000
C       48.07010000      53.94520000      44.01920000
C       48.14600000      45.87930000      56.00490000
C       51.98910000      46.04370000      44.09870000
C       46.08320000      55.99650000      47.86700000
C       46.11380000      44.10100000      52.02270000
C       54.00660000      44.07740000      47.98420000
C       55.89850000      46.13840000      50.32620000
C       50.40480000      55.90250000      46.04180000
C       46.22480000      50.19130000      56.31530000
C       44.22510000      46.25340000      49.72670000
C       55.82930000      53.81260000      49.65960000
C       43.88430000      53.98870000      50.24260000
C       49.64650000      55.81170000      53.79920000
C       50.45650000      44.06950000      53.82320000
C       49.65770000      44.18040000      46.19450000
C       53.84240000      50.36500000      44.17760000
C       46.21290000      49.63570000      44.20010000
C       53.84700000      49.57360000      55.81990000
C       50.48650000      46.01990000      55.89610000
C       46.24780000      56.03660000      50.19050000
C       55.85980000      50.35410000      46.16640000
C       49.64500000      46.19400000      44.20140000
C       49.61700000      53.67070000      55.64240000
C       50.41340000      53.80360000      44.12820000
C       53.84410000      55.84660000      49.66800000
C       53.89280000      44.13000000      50.33000000
C       46.22430000      44.22330000      49.68810000
C       44.01200000      50.87090000      53.40150000
C       44.16170000      49.67250000      46.18280000
C       55.86030000      49.60520000      53.82300000
C       48.74240000      54.61820000      52.18170000
C       52.47810000      48.44140000      54.41520000
C       54.42400000      52.43950000      48.54450000
C       51.45970000      54.55500000      47.50510000
C       48.58520000      45.61210000      47.58170000
C       51.54430000      45.51820000      52.46740000
C       47.56980000      48.55540000      45.65740000
C       52.48940000      51.47820000      45.61740000
C       47.39700000      51.19750000      54.63170000
C       43.42690000      52.65630000      51.96760000
C       54.48180000      47.50300000      51.43880000
C       45.59260000      47.64300000      48.60580000
C       52.43210000      54.52420000      48.51870000
C       54.46570000      48.49200000      52.43520000
C       48.39390000      52.18620000      54.46480000
C       47.77330000      54.88550000      51.22790000
C       47.60540000      45.63450000      48.58750000
C       52.52760000      45.53760000      51.46400000
C       45.55790000      48.61810000      47.59600000
C       43.85310000      52.22960000      53.20850000
C       54.44550000      51.45120000      47.54790000
C       51.49940000      52.47510000      45.60960000
C       51.50720000      47.42790000      54.45750000
C       48.55920000      47.55800000      45.65260000
C       55.69140000      50.72350000      54.69580000
C       54.70340000      55.66140000      50.79320000
C       50.72840000      54.57140000      55.57880000
C       44.35640000      50.77990000      45.30480000
C       55.70150000      49.23540000      45.29000000
C       44.70040000      49.18220000      54.90140000
C       45.36280000      55.75730000      49.09670000
C       54.75080000      44.29400000      49.19920000
C       45.37260000      44.37750000      50.82030000
C       49.29090000      54.67990000      44.23500000
C       50.76600000      45.31730000      44.33420000
C       49.35970000      45.16040000      55.72400000
C       54.70300000      50.70910000      55.67050000
C       50.75460000      55.60770000      54.66870000
C       55.67730000      54.67320000      50.78820000
C       45.34670000      50.76140000      44.32870000
C       45.44390000      49.02640000      56.07390000
C       54.71290000      49.24020000      44.31460000
C       49.28710000      55.70360000      45.17220000
C       49.34370000      44.21090000      54.70830000
C       50.77200000      44.33090000      45.31100000
C       44.37260000      54.77290000      49.12780000
C       44.41550000      45.38680000      50.84390000
C       55.73280000      45.27640000      49.19770000
C       47.55460000      56.43050000      49.60850000
C       49.93550000      47.34160000      56.19270000
C       56.09660000      49.79200000      47.49020000
C       52.52280000      56.15030000      50.21470000
C       47.55600000      43.94650000      50.21700000
C       52.55940000      43.90250000      49.78700000
C       50.20530000      47.52060000      43.98150000
C       49.85560000      52.47050000      43.93330000
C       50.18040000      52.37510000      55.96180000
C       43.65920000      49.89720000      52.37220000
C       56.10350000      50.16600000      52.49990000
C       43.86100000      50.24440000      47.51500000
C       49.84610000      56.23230000      47.34610000
C       56.12860000      47.47060000      49.77780000
C       47.57640000      49.65640000      56.43920000
C       50.24490000      56.28260000      52.54150000
C       50.22840000      43.94190000      47.51410000
C       49.88480000      43.86460000      52.49600000
C       43.95760000      47.58020000      50.28440000
C       43.44720000      52.71130000      49.72730000
C       56.08350000      52.48200000      50.20410000
C       52.51110000      49.81230000      43.96850000
C       52.51420000      50.11160000      56.05850000
C       47.54630000      50.17780000      43.96360000
C       56.27040000      47.36880000      48.34400000
C       48.40960000      56.38570000      47.21050000
C       47.51990000      48.18300000      56.51820000
C       43.88070000      47.47460000      51.72810000
C       56.24190000      52.58670000      51.63790000
C       43.62960000      52.70970000      48.30770000
C       51.67030000      56.34570000      52.66900000
C       48.45300000      43.71370000      52.61750000
C       51.65830000      43.77170000      47.38260000
C       52.61980000      48.38290000      43.79260000
C       47.44030000      51.60170000      43.75820000
C       52.60410000      51.54350000      56.20370000
C       48.51170000      47.21730000      56.40770000
C       47.41710000      56.45450000      48.18250000
C       56.25770000      48.36030000      47.36760000
C       51.63320000      47.40240000      43.79780000
C       51.60340000      52.50840000      56.16840000
C       48.42700000      52.58130000      43.74290000
C       52.63720000      56.29160000      51.66150000
C       52.65500000      43.75700000      48.35370000
C       47.45840000      43.75270000      51.64450000
C       43.91600000      48.48820000      52.70010000
C       43.71160000      51.68570000      47.36030000
C       56.24770000      51.59900000      52.61770000
C       53.84180000      54.98650000      48.45400000
C       48.42570000      53.63150000      54.75000000
C       55.00480000      48.39530000      53.82010000
C       46.47670000      55.40520000      51.43440000
C       53.91290000      44.98650000      51.53690000
C       46.21220000      45.10860000      48.50500000
C       51.60220000      53.84200000      45.01030000
C       48.45200000      46.18460000      45.07700000
C       51.65690000      46.04620000      54.99070000
C       45.03940000      48.48110000      46.20840000
C       54.99690000      51.55770000      46.17000000
C       44.79460000      50.51490000      54.48340000
C       48.48750000      54.85470000      53.62690000
C       54.95750000      53.83050000      48.46000000
C       53.87070000      48.37160000      54.95430000
C       51.59220000      55.01410000      46.09910000
C       51.65540000      44.93680000      53.83810000
C       48.46040000      45.05240000      46.20590000
C       43.94220000      53.93210000      51.66220000
C       45.07650000      46.24510000      48.51580000
C       55.03840000      46.12380000      51.53250000
C       46.18920000      48.45940000      45.09070000
C       45.94630000      51.32770000      55.05990000
C       53.86390000      51.56480000      45.04200000
