240
Lattice="100.0 0.0 0.0 0.0 100.0 0.0 0.0 0.0 100.0" Properties=species:S:1:pos:R:3 name=C-71174-8496-699 pressure=7.72425462400001 spacegroup=C2 times_found=1 energy=-1769.41035136489 pbc="T T T"
C       44.81870000      54.25710000      50.30740000
C       50.39560000      45.18090000      54.18770000
C       54.77250000      50.81110000      45.00140000
C       55.18120000      45.74300000      50.30940000
C       54.90330000      54.23720000      48.92120000
C       45.09700000      45.76270000      48.92050000
C       49.60330000      54.81970000      54.18690000
C       49.39590000      44.33010000      45.47090000
C       50.60530000      55.66930000      45.47020000
C       45.22890000      49.18820000      45.00030000
C       45.94240000      51.26580000      55.09500000
C       54.05630000      48.73490000      55.09630000
C       44.77720000      54.21550000      48.84040000
C       50.83500000      44.35590000      45.46190000
C       54.10750000      50.19130000      55.13130000
C       55.22310000      45.78430000      48.84230000
C       54.81450000      54.23150000      50.39440000
C       45.18540000      45.76860000      50.39370000
C       49.16620000      55.64350000      45.46090000
C       48.93170000      45.17930000      54.11380000
C       51.06720000      54.82120000      54.11340000
C       45.89110000      49.80940000      55.13020000
C       45.20870000      50.63690000      45.00250000
C       54.79260000      49.36240000      45.00380000
C       53.07320000      52.21360000      55.87860000
C       55.08710000      52.60040000      52.52110000
C       52.79080000      55.97160000      52.65910000
C       46.92520000      47.78720000      55.87810000
C       47.01360000      52.69390000      44.84880000
C       52.98780000      47.30530000      44.85000000
C       44.91220000      47.39990000      52.52010000
C       43.51160000      52.80200000      47.13170000
C       56.48910000      47.19760000      47.13380000
C       47.20850000      44.02880000      52.65920000
C       47.31570000      56.10530000      46.87530000
C       52.68510000      43.89430000      46.87690000
C       52.87540000      52.80080000      44.87300000
C       56.34110000      52.96090000      47.18980000
C       52.44400000      56.23000000      46.86890000
C       47.12590000      47.19840000      44.87260000
C       47.35730000      52.98090000      56.18570000
C       52.64110000      47.01990000      56.18680000
C       43.65960000      47.03870000      47.18850000
C       44.27020000      53.10990000      52.34740000
C       55.72920000      46.89040000      52.34930000
C       47.55680000      43.76960000      46.86920000
C       47.49650000      55.25070000      52.61540000
C       52.50280000      44.74970000      52.61680000
C       51.25970000      56.63190000      46.21320000
C       46.60150000      51.80260000      56.24150000
C       56.13460000      46.33390000      51.11540000
C       48.74130000      43.36750000      46.21380000
C       48.76250000      55.52950000      53.29400000
C       51.23670000      44.47100000      53.29510000
C       53.39680000      48.19820000      56.24270000
C       53.62530000      51.54930000      44.59310000
C       46.37620000      48.44990000      44.59240000
C       43.86510000      53.66630000      51.11330000
C       43.96130000      46.49580000      48.45900000
C       56.03910000      53.50400000      48.46010000
C       51.57390000      55.90200000      53.35060000
C       46.32160000      51.41210000      44.58050000
C       56.36720000      46.51230000      48.36170000
C       48.42520000      44.09850000      53.35100000
C       48.47460000      56.57250000      46.21290000
C       51.52640000      43.42700000      46.21420000
C       53.67980000      48.58710000      44.58170000
C       53.60170000      50.94090000      56.17420000
C       46.39660000      49.06000000      56.17340000
C       43.63320000      53.48740000      48.35950000
C       44.56550000      46.69880000      51.27010000
C       55.43410000      53.30140000      51.27110000
C       54.04250000      55.13810000      51.06010000
C       51.77900000      53.76580000      54.79880000
C       54.50100000      50.98740000      54.05500000
C       45.95720000      44.86210000      51.05970000
C       45.90160000      54.81920000      48.15690000
C       54.09880000      45.18060000      48.15870000
C       48.21970000      46.23480000      54.79890000
C       48.47880000      54.47010000      45.15320000
C       51.52250000      45.52930000      45.15420000
C       45.49790000      49.01320000      54.05390000
C       44.16300000      51.28790000      45.64070000
C       55.83820000      48.71150000      45.64240000
C       53.88090000      54.98820000      48.19470000
C       51.33750000      54.52030000      45.17440000
C       55.81490000      51.48010000      45.63060000
C       46.11960000      45.01160000      48.19430000
C       45.90930000      54.69170000      51.06080000
C       54.09040000      45.30840000      51.06260000
C       48.66380000      45.47910000      45.17470000
C       48.94480000      54.06650000      55.12130000
C       51.05390000      45.93420000      55.12210000
C       44.18630000      48.51930000      45.62920000
C       45.44130000      51.90860000      53.90580000
C       54.55770000      48.09200000      53.90720000
C       52.86150000      49.35810000      43.71400000
C       42.65400000      52.86800000      49.22880000
C       49.28280000      43.12390000      52.75110000
C       47.14010000      50.64100000      43.71320000
C       47.08020000      49.61950000      57.27220000
C       52.91790000      50.38150000      57.27290000
C       57.34620000      47.13190000      49.23120000
C       56.59620000      52.70230000      50.72770000
C       43.40360000      47.29780000      50.72630000
C       50.71650000      56.87650000      52.75030000
C       50.85160000      42.46270000      47.01080000
C       49.14920000      57.53690000      47.00950000
C       52.81560000      48.99770000      57.28930000
C       42.77980000      52.93240000      50.60390000
C       49.44620000      42.41840000      47.00320000
C       47.18250000      51.00330000      57.28850000
C       47.16620000      49.24710000      43.71970000
C       52.83540000      50.75200000      43.72040000
C       57.22010000      47.06770000      50.60630000
C       56.91140000      52.83450000      49.38660000
C       43.08880000      47.16540000      49.38510000
C       50.55460000      57.58120000      47.00230000
C       50.65590000      43.32350000      52.69670000
C       49.34340000      56.67690000      52.69560000
C       44.39580000      51.04900000      53.26730000
C       53.32570000      44.29900000      50.43840000
C       50.64860000      53.55280000      44.38670000
C       55.60340000      48.95150000      53.26900000
C       56.85540000      50.80490000      46.42940000
C       43.14560000      49.19460000      46.42770000
C       46.67410000      55.70110000      50.43670000
C       46.72440000      43.88470000      48.97390000
C       53.27590000      56.11510000      48.97390000
C       49.35290000      46.44640000      44.38710000
C       49.65580000      53.37900000      56.17630000
C       50.34250000      46.62190000      56.17680000
C       43.12750000      50.59940000      46.42720000
C       53.41000000      44.16420000      49.01330000
C       51.06040000      53.24000000      56.00030000
C       56.87350000      49.40010000      46.42910000
C       55.49670000      50.37740000      53.26090000
C       44.50240000      49.62310000      53.25950000
C       46.59030000      55.83560000      49.01150000
C       46.66860000      43.80400000      50.39140000
C       53.33130000      56.19600000      50.39140000
C       48.93800000      46.76080000      56.00050000
C       49.21210000      53.52850000      44.37490000
C       50.78940000      46.47080000      44.37560000
C       46.23570000      44.96260000      52.44060000
C       52.83160000      46.01480000      45.65630000
C       44.31970000      52.63180000      46.03280000
C       53.76370000      55.03770000      52.44090000
C       53.36690000      45.15990000      46.76950000
C       46.63390000      54.83960000      46.76790000
C       47.16960000      53.98460000      45.65500000
C       46.89350000      47.05760000      54.64070000
C       53.10530000      52.94310000      54.64110000
C       55.68140000      47.36760000      46.03470000
C       54.13350000      52.36940000      53.68780000
C       45.86550000      47.63110000      53.68700000
C       46.85150000      45.02800000      46.80220000
C       52.45060000      46.16170000      55.13750000
C       45.50430000      53.23510000      53.05870000
C       53.14940000      54.97150000      46.80230000
C       53.64990000      45.69490000      52.42940000
C       46.34950000      54.30550000      52.42780000
C       47.54810000      53.83900000      55.13630000
C       47.34310000      45.91230000      45.68800000
C       52.65800000      54.08710000      45.68810000
C       54.49490000      46.76530000      53.06030000
C       55.60730000      52.81570000      46.03580000
C       44.39370000      47.18380000      46.03470000
C       57.66930000      51.77990000      48.72410000
C       48.54160000      57.14110000      51.59930000
C       51.56920000      48.38630000      57.74240000
C       42.33100000      48.21990000      48.72230000
C       42.56070000      51.78880000      51.47280000
C       57.43890000      48.21140000      51.47500000
C       51.45800000      42.85910000      51.60070000
C       51.32270000      57.78370000      48.21860000
C       48.67780000      42.21600000      48.21930000
C       48.42870000      51.61480000      57.74170000
C       48.33050000      48.54850000      43.29210000
C       51.67130000      51.45060000      43.29230000
C       57.01100000      51.57530000      51.50690000
C       48.39810000      57.65770000      48.24400000
C       51.72720000      48.61470000      43.28300000
C       42.98860000      48.42490000      51.50530000
C       42.10120000      51.66120000      48.61710000
C       57.89920000      48.33860000      48.61940000
C       51.60240000      42.34200000      48.24550000
C       51.38310000      57.50640000      51.61860000
C       48.61650000      42.49380000      51.61930000
C       48.27460000      51.38440000      43.28230000
C       48.16800000      48.72420000      57.63560000
C       51.83000000      51.27690000      57.63590000
C       49.29000000      49.25470000      42.58580000
C       41.77400000      49.21270000      49.50990000
C       49.42080000      41.69890000      49.27400000
C       50.71190000      50.74430000      42.58590000
C       50.65340000      49.20910000      58.35690000
C       49.34440000      50.79200000      58.35660000
C       58.22610000      50.78730000      49.51200000
C       58.11350000      49.27580000      50.91050000
C       41.88630000      50.72430000      50.90820000
C       50.57940000      58.30100000      49.27300000
C       50.86120000      41.96550000      50.72530000
C       49.13870000      58.03460000      50.72390000
C       49.21080000      49.33050000      58.32840000
C       42.05670000      49.28340000      50.94130000
C       49.40370000      41.82240000      50.71240000
C       50.78700000      50.67070000      58.32850000
C       50.73940000      49.28440000      42.58320000
C       49.26250000      50.71460000      42.58290000
C       57.94310000      50.71680000      50.94330000
C       58.36150000      49.34040000      49.46690000
C       41.63870000      50.65950000      49.46450000
C       50.59610000      58.17770000      50.71140000
C       50.89230000      41.79090000      49.29170000
C       49.10790000      58.20900000      49.29030000
C       47.39630000      43.17570000      51.44630000
C       51.76470000      47.42520000      44.05010000
C       42.67030000      51.59160000      47.33150000
C       52.60340000      56.82450000      51.44600000
C       52.68590000      43.29690000      48.16500000
C       47.31460000      56.70290000      48.16330000
C       48.23690000      52.57390000      44.04930000
C       48.06910000      47.61310000      56.71060000
C       51.92920000      52.38780000      56.71080000
C       57.33050000      48.40800000      47.33370000
C       56.00010000      51.44690000      52.49960000
C       43.99920000      48.55340000      52.49820000
C       47.52680000      43.09840000      48.11960000
C       51.38150000      47.23220000      56.94590000
C       43.56820000      51.88400000      52.49330000
C       52.47370000      56.90130000      48.11930000
C       52.50070000      43.82080000      51.48040000
C       47.49890000      56.17940000      51.47880000
C       48.61660000      52.76880000      56.94510000
C       48.33990000      47.36270000      44.06800000
C       51.66170000      52.63640000      44.06810000
C       56.43110000      48.11630000      52.49530000
C       57.23750000      51.78270000      47.38340000
C       42.76320000      48.21690000      47.38170000
