240
Lattice="100.0 0.0 0.0 0.0 100.0 0.0 0.0 0.0 100.0" Properties=species:S:1:pos:R:3 name=C-71174-8496-930 pressure=-12.5461292873752 spacegroup=Oh times_found=1 energy=-1780.46938680696 pbc="T T T"
C       56.34830000      52.86090000      47.15730000
C       52.80280000      47.01600000      56.30930000
C       47.09040000      56.30140000      52.89720000
C       43.74850000      47.13780000      46.95150000
C       56.17230000      46.97070000      53.04850000
C       43.73090000      53.03050000      52.84270000
C       46.99140000      52.98670000      56.21250000
C       53.08780000      52.90480000      43.78760000
C       47.11800000      47.09250000      43.69070000
C       52.81270000      43.69990000      52.99400000
C       47.01890000      43.77780000      47.00600000
C       53.07790000      56.22090000      47.10290000
C       56.25150000      52.86220000      53.04850000
C       53.00860000      47.01330000      43.78750000
C       47.18730000      56.30010000      47.00600000
C       43.65170000      47.13910000      52.84270000
C       56.26910000      46.96950000      47.15730000
C       43.82770000      53.02930000      46.95150000
C       47.19720000      52.98400000      43.69070000
C       52.88200000      52.90750000      56.30930000
C       46.91220000      47.09520000      56.21240000
C       52.90960000      43.69860000      47.10280000
C       46.92210000      43.77910000      52.89710000
C       52.98110000      56.22220000      52.99410000
C       51.69760000      53.03660000      43.52440000
C       52.94550000      43.45780000      51.60000000
C       43.47000000      51.63780000      52.95180000
C       48.51610000      46.96060000      43.47340000
C       51.40160000      46.92170000      56.52660000
C       48.38470000      53.08100000      56.47570000
C       47.00350000      56.54290000      51.49950000
C       53.17130000      56.46000000      48.50060000
C       46.87970000      43.53930000      48.39990000
C       56.42950000      48.36350000      53.16550000
C       43.52890000      48.53690000      46.83440000
C       56.57170000      51.46180000      47.04820000
C       51.48390000      53.03940000      56.52660000
C       52.99650000      43.45710000      48.50050000
C       43.57060000      51.63650000      46.83450000
C       48.30240000      46.96340000      56.47560000
C       51.61530000      46.91900000      43.52430000
C       48.59840000      53.07820000      43.47340000
C       47.05450000      56.54220000      48.40000000
C       53.12030000      56.46070000      51.60010000
C       46.82870000      43.54000000      51.49940000
C       56.53000000      48.36220000      47.04820000
C       43.42830000      48.53820000      52.95180000
C       56.47110000      51.46310000      53.16550000
C       54.76430000      45.08090000      51.53600000
C       45.08630000      51.52260000      54.77410000
C       51.60110000      54.83350000      45.17010000
C       45.18780000      54.91970000      51.37650000
C       54.94270000      54.78860000      48.62360000
C       45.10520000      45.21080000      48.46390000
C       54.75410000      48.47950000      54.93370000
C       45.20670000      48.60790000      45.06630000
C       54.95280000      51.39000000      45.22590000
C       48.55840000      45.16440000      45.12210000
C       51.31110000      45.12730000      54.87780000
C       48.52940000      54.87470000      54.83000000
C       54.81220000      45.08030000      48.62350000
C       45.24590000      51.52050000      45.06630000
C       51.44160000      54.83560000      54.87790000
C       45.23570000      54.91910000      48.46400000
C       54.89480000      54.78920000      51.53610000
C       45.05730000      45.21140000      51.37640000
C       54.91370000      48.47740000      45.22590000
C       45.04720000      48.61000000      54.77410000
C       54.79330000      51.39210000      54.93370000
C       48.39890000      45.16650000      54.82990000
C       51.47060000      45.12530000      45.17000000
C       48.68890000      54.87270000      45.12220000
C       48.48750000      56.52290000      53.03330000
C       56.56720000      52.97110000      48.55710000
C       52.93070000      48.41050000      56.55140000
C       51.41190000      43.47840000      53.08410000
C       48.41330000      43.51870000      46.91580000
C       51.68730000      56.48000000      46.96680000
C       43.48380000      47.02820000      48.34340000
C       56.43400000      46.85410000      51.65660000
C       43.51510000      53.14650000      51.44290000
C       46.85560000      51.59230000      56.45090000
C       53.18610000      51.50730000      43.54910000
C       47.02760000      48.48990000      43.44860000
C       48.58810000      56.52160000      46.91590000
C       56.51620000      52.97180000      51.65660000
C       53.14440000      48.40770000      43.54910000
C       51.51250000      43.47710000      46.96680000
C       48.31270000      43.52010000      53.03320000
C       51.58670000      56.48130000      53.08420000
C       43.43280000      47.02890000      51.44290000
C       56.48490000      46.85350000      48.55710000
C       43.56600000      53.14590000      48.34340000
C       47.06930000      51.58950000      43.44860000
C       52.97240000      51.51010000      56.55140000
C       46.81390000      48.49270000      56.45090000
C       50.87980000      55.76010000      46.04430000
C       55.70460000      45.95450000      50.83190000
C       45.94750000      50.79160000      55.70540000
C       49.25070000      44.23820000      46.01990000
C       50.59420000      44.22010000      53.98000000
C       49.27540000      55.78160000      53.95580000
C       44.27120000      54.04580000      50.64220000
C       55.83550000      53.89040000      49.35780000
C       44.18870000      46.10930000      49.16810000
C       53.86280000      49.21080000      55.83580000
C       46.11740000      49.31500000      44.16420000
C       54.07230000      50.68250000      44.29460000
C       50.74930000      55.76180000      53.98010000
C       55.72880000      45.95420000      49.35780000
C       46.13720000      50.78920000      44.16420000
C       49.12020000      44.23990000      53.95570000
C       50.72460000      44.21840000      46.04420000
C       49.40580000      55.77990000      46.02000000
C       44.29540000      54.04550000      49.16810000
C       55.81130000      53.89070000      50.83190000
C       44.16450000      46.10960000      50.64220000
C       54.05250000      49.20840000      44.29460000
C       45.92770000      49.31750000      55.70540000
C       53.88260000      50.68500000      55.83580000
C       53.72080000      55.21200000      46.46770000
C       55.15300000      46.33850000      53.67780000
C       46.37070000      53.64100000      55.20180000
C       46.39720000      44.78650000      46.34950000
C       53.46130000      44.69150000      53.65040000
C       46.42060000      55.31010000      53.53240000
C       44.72890000      53.66300000      53.50500000
C       55.36760000      53.52010000      46.49510000
C       44.75040000      46.47840000      46.32210000
C       53.45630000      46.36130000      55.31980000
C       46.44710000      46.45560000      44.68020000
C       53.72580000      53.54210000      44.79830000
C       53.60280000      55.21350000      53.65050000
C       55.27110000      46.33700000      46.49510000
C       46.54370000      53.63870000      44.68020000
C       46.27920000      44.78800000      53.53230000
C       53.57940000      44.68990000      46.46760000
C       46.53870000      55.30850000      46.34960000
C       44.84700000      53.66150000      46.32220000
C       55.24960000      53.52160000      53.67790000
C       44.63240000      46.47990000      53.50490000
C       53.62920000      46.35900000      44.79820000
C       46.27420000      46.45780000      55.20170000
C       53.55290000      53.54440000      55.31980000
C       48.27440000      43.05090000      48.31330000
C       43.03490000      48.43390000      48.22610000
C       48.43310000      48.36140000      43.00200000
C       51.78020000      56.94840000      48.36800000
C       48.40720000      56.99370000      51.63210000
C       51.53820000      43.00700000      51.68660000
C       57.01970000      51.56540000      48.45520000
C       43.02500000      51.75350000      51.54480000
C       56.92050000      48.24720000      51.77390000
C       51.79610000      51.63560000      43.05660000
C       48.24850000      51.68320000      56.94340000
C       51.52230000      48.31980000      56.99800000
C       48.21980000      43.05170000      51.63200000
C       42.98030000      48.43460000      51.54480000
C       48.20390000      48.36440000      56.94340000
C       51.72560000      56.94910000      51.68670000
C       48.46180000      56.99300000      48.31340000
C       51.59280000      43.00630000      48.36790000
C       56.96510000      51.56610000      51.77390000
C       43.07950000      51.75280000      48.22610000
C       56.97500000      48.24650000      48.45520000
C       51.56690000      51.63860000      56.99800000
C       48.47770000      51.68020000      43.00200000
C       51.75150000      48.31680000      43.05660000
C       44.30500000      50.81380000      45.93720000
C       50.77850000      46.02080000      44.24150000
C       45.94280000      44.28260000      50.67180000
C       55.82540000      49.18450000      46.12690000
C       44.15480000      49.34130000      53.87300000
C       55.71480000      50.66030000      54.06280000
C       49.41120000      53.97680000      44.21730000
C       50.69550000      53.95940000      55.78270000
C       49.11480000      46.04310000      55.75840000
C       54.03300000      55.71770000      50.80230000
C       46.12220000      55.82400000      49.19780000
C       53.90210000      44.17560000      49.32810000
C       44.17460000      50.81550000      53.87310000
C       50.58880000      46.02320000      55.78270000
C       45.96700000      44.28230000      49.19770000
C       55.69500000      49.18620000      54.06270000
C       44.28520000      49.33970000      45.93720000
C       55.84520000      50.65860000      46.12700000
C       49.22150000      53.97920000      55.75850000
C       50.88520000      53.95690000      44.24150000
C       49.30450000      46.04060000      44.21730000
C       54.05720000      55.71740000      49.32820000
C       46.09790000      55.82440000      50.67190000
C       53.87790000      44.17600000      50.80220000
C       42.70550000      50.82600000      50.60790000
C       50.85740000      50.71650000      42.71900000
C       50.61770000      42.69710000      50.73970000
C       57.27060000      49.17430000      50.84770000
C       42.70980000      49.37010000      49.15230000
C       57.31410000      50.62960000      49.39210000
C       49.38240000      49.28040000      42.69500000
C       50.59810000      49.26400000      57.30490000
C       49.16220000      50.73920000      57.28100000
C       49.35840000      57.30330000      50.71590000
C       50.83770000      57.28340000      49.28420000
C       49.18620000      42.71630000      49.26020000
C       42.72940000      50.82570000      49.15230000
C       50.61760000      50.71960000      57.30500000
C       50.64160000      42.69670000      49.28410000
C       57.29450000      49.17400000      49.39210000
C       42.68590000      49.37040000      50.60790000
C       57.29020000      50.62990000      50.84770000
C       49.14260000      49.28350000      57.28100000
C       50.83780000      49.26080000      42.71900000
C       49.40190000      50.73600000      42.69500000
C       49.38230000      57.30300000      49.26030000
C       50.81380000      57.28370000      50.73980000
C       49.16230000      42.71660000      50.71580000
C       54.70120000      47.04180000      45.41280000
C       46.96660000      45.37590000      54.61620000
C       45.44690000      54.72610000      47.02900000
C       45.45220000      52.95620000      45.25950000
C       54.62570000      52.83280000      54.74050000
C       45.22100000      47.16920000      54.58720000
C       52.88010000      54.62610000      54.71140000
C       47.24530000      54.70200000      45.28860000
C       52.90800000      45.29610000      45.38370000
C       54.64830000      45.27260000      47.18230000
C       45.22630000      45.39930000      52.81770000
C       54.67850000      54.60200000      52.97100000
C       54.54780000      47.04380000      54.74050000
C       47.11990000      45.37390000      45.28860000
C       45.35170000      54.72740000      52.81770000
C       45.29880000      52.95820000      54.58720000
C       54.77900000      52.83080000      45.41290000
C       45.37430000      47.16720000      45.25950000
C       53.03340000      54.62410000      45.38380000
C       47.09200000      54.70390000      54.61630000
C       52.75470000      45.29800000      54.71140000
C       54.55310000      45.27390000      52.97100000
C       45.32150000      45.39800000      47.02900000
C       54.77370000      54.60070000      47.18230000
