240
Lattice="100.0 0.0 0.0 0.0 100.0 0.0 0.0 0.0 100.0" Properties=species:S:1:pos:R:3 name=C-71174-8496-786 pressure=21.2982770746095 spacegroup=Th times_found=1 energy=-1736.55027969329 pbc="T T T"
C       47.44800000      50.74730000      57.26590000
C       50.74710000      57.26550000      47.44690000
C       57.26550000      47.44670000      50.74630000
C       47.44600000      49.25280000      42.73480000
C       52.55210000      50.74710000      42.73410000
C       52.55400000      49.25270000      57.26520000
C       50.74740000      42.73450000      52.55290000
C       49.25330000      57.26550000      52.55310000
C       49.25220000      42.73450000      47.44710000
C       57.26550000      52.55280000      49.25180000
C       42.73430000      47.44720000      49.25370000
C       42.73470000      52.55330000      50.74820000
C       52.55400000      50.74720000      57.26520000
C       49.25260000      57.26550000      47.44710000
C       42.73450000      47.44720000      50.74820000
C       52.55200000      49.25270000      42.73420000
C       47.44600000      50.74730000      42.73480000
C       47.44790000      49.25290000      57.26590000
C       49.25290000      42.73450000      52.55310000
C       50.74780000      57.26550000      52.55290000
C       50.74670000      42.73450000      47.44690000
C       42.73450000      52.55330000      49.25370000
C       57.26530000      47.44670000      49.25180000
C       57.26570000      52.55280000      50.74630000
C       48.61490000      53.72090000      56.06980000
C       53.72090000      56.06950000      48.61340000
C       56.07010000      48.61380000      53.72010000
C       48.61300000      46.27920000      43.93050000
C       51.38530000      53.72080000      43.93020000
C       51.38670000      46.27910000      56.06950000
C       53.72090000      43.93020000      51.38560000
C       46.27950000      56.06980000      51.38650000
C       46.27870000      43.93050000      48.61450000
C       56.06920000      51.38580000      46.27830000
C       43.92980000      48.61410000      46.27990000
C       43.93090000      51.38620000      53.72170000
C       51.38700000      53.72080000      56.06950000
C       46.27910000      56.06980000      48.61440000
C       43.93080000      48.61420000      53.72170000
C       51.38510000      46.27910000      43.93020000
C       48.61330000      53.72090000      43.93050000
C       48.61470000      46.27920000      56.06980000
C       46.27910000      43.93050000      51.38660000
C       53.72130000      56.06950000      51.38550000
C       53.72050000      43.93020000      48.61350000
C       43.92990000      51.38620000      46.27990000
C       56.06910000      48.61380000      46.27830000
C       56.07020000      51.38590000      53.72010000
C       53.89730000      44.98470000      54.38850000
C       44.98550000      54.38920000      53.89760000
C       54.38850000      53.89670000      44.98420000
C       53.89650000      55.01500000      45.61050000
C       46.10240000      44.98490000      45.61150000
C       46.10390000      55.01530000      54.38950000
C       44.98420000      45.61110000      46.10380000
C       55.01480000      54.38880000      46.10240000
C       55.01560000      45.61080000      53.89620000
C       54.38960000      46.10300000      55.01460000
C       45.61180000      53.89700000      55.01580000
C       45.61020000      46.10320000      44.98540000
C       46.10350000      44.98500000      54.38950000
C       55.01580000      54.38890000      53.89620000
C       45.61040000      53.89700000      44.98540000
C       46.10270000      55.01530000      45.61150000
C       53.89610000      44.98470000      45.61050000
C       53.89760000      55.01510000      54.38850000
C       55.01450000      45.61080000      46.10240000
C       44.98440000      54.38920000      46.10380000
C       44.98520000      45.61120000      53.89760000
C       45.61150000      46.10330000      55.01580000
C       54.38980000      53.89680000      55.01460000
C       54.38820000      46.10300000      44.98420000
C       43.30950000      53.91570000      50.70120000
C       53.91460000      50.70010000      43.30870000
C       50.70060000      43.30920000      53.91540000
C       43.30910000      46.08470000      49.30060000
C       56.69080000      53.91530000      49.29880000
C       56.69070000      46.08430000      50.69940000
C       53.91640000      49.29960000      56.69020000
C       46.08540000      50.70040000      56.69130000
C       46.08360000      49.29980000      43.30980000
C       50.70000000      56.69070000      46.08440000
C       49.29900000      43.30930000      46.08460000
C       49.30050000      56.69080000      53.91560000
C       56.69090000      53.91530000      50.69940000
C       46.08360000      50.70040000      43.30980000
C       49.30000000      43.30930000      53.91560000
C       56.69050000      46.08430000      49.29880000
C       43.30930000      53.91570000      49.30060000
C       43.30920000      46.08470000      50.70120000
C       46.08530000      49.29990000      56.69130000
C       53.91640000      50.70020000      56.69020000
C       53.91460000      49.29960000      43.30870000
C       49.29940000      56.69080000      46.08460000
C       50.69950000      43.30920000      46.08440000
C       50.70100000      56.69070000      53.91540000
C       51.90990000      48.08420000      57.00260000
C       48.08480000      57.00290000      51.90930000
C       57.00270000      51.90880000      48.08340000
C       51.90810000      51.91560000      42.99690000
C       48.09000000      48.08430000      42.99740000
C       48.09200000      51.91580000      57.00310000
C       48.08380000      42.99720000      48.09120000
C       51.91570000      57.00280000      48.09070000
C       51.91570000      42.99710000      51.90880000
C       57.00310000      48.09080000      51.91480000
C       42.99740000      51.90920000      51.91660000
C       42.99680000      48.09120000      48.08520000
C       48.09180000      48.08440000      57.00310000
C       51.91620000      57.00280000      51.90880000
C       42.99690000      51.90920000      48.08520000
C       48.09010000      51.91580000      42.99740000
C       51.90800000      48.08420000      42.99690000
C       51.91000000      51.91570000      57.00260000
C       51.91520000      42.99710000      48.09070000
C       48.08430000      57.00290000      48.09120000
C       48.08430000      42.99720000      51.90930000
C       42.99730000      48.09120000      51.91660000
C       57.00320000      51.90880000      51.91480000
C       57.00260000      48.09080000      48.08340000
C       47.04830000      56.22890000      47.38140000
C       56.22830000      47.38080000      47.04760000
C       47.38180000      47.04850000      56.22910000
C       47.04860000      43.77130000      52.61940000
C       52.95210000      56.22870000      52.61860000
C       52.95100000      43.77110000      47.38060000
C       56.22930000      52.61880000      52.95070000
C       43.77150000      47.38120000      52.95240000
C       43.77090000      52.61920000      47.04920000
C       47.38030000      52.95170000      43.77160000
C       52.61800000      47.04830000      43.77090000
C       52.61990000      52.95150000      56.22840000
C       52.95140000      56.22870000      47.38060000
C       43.77070000      47.38120000      47.04920000
C       52.61970000      47.04830000      56.22840000
C       52.95170000      43.77110000      52.61860000
C       47.04900000      56.22890000      52.61940000
C       47.04790000      43.77130000      47.38140000
C       43.77170000      52.61920000      52.95240000
C       56.22910000      47.38080000      52.95080000
C       56.22850000      52.61880000      47.04760000
C       52.61820000      52.95150000      43.77090000
C       47.38010000      47.04850000      43.77160000
C       47.38200000      52.95170000      56.22910000
C       52.69670000      56.85600000      50.67430000
C       56.85650000      50.67450000      52.69550000
C       50.67570000      52.69640000      56.85600000
C       52.69610000      43.14380000      49.32500000
C       47.30370000      56.85620000      49.32570000
C       47.30350000      43.14400000      50.67500000
C       56.85570000      49.32510000      47.30270000
C       43.14350000      50.67490000      47.30450000
C       43.14420000      49.32550000      52.69730000
C       50.67370000      47.30360000      43.14380000
C       49.32450000      52.69640000      43.14400000
C       49.32620000      47.30360000      56.85620000
C       47.30390000      56.85620000      50.67500000
C       43.14430000      50.67490000      52.69730000
C       49.32630000      52.69640000      56.85620000
C       47.30330000      43.14400000      49.32570000
C       52.69650000      56.85600000      49.32500000
C       52.69630000      43.14380000      50.67430000
C       43.14350000      49.32550000      47.30450000
C       56.85580000      50.67450000      47.30270000
C       56.85650000      49.32510000      52.69550000
C       49.32430000      47.30360000      43.14400000
C       50.67380000      52.69640000      43.14380000
C       50.67550000      47.30360000      56.85600000
C       44.28330000      45.50280000      48.53160000
C       45.50180000      48.53090000      44.28420000
C       48.53000000      44.28370000      45.50280000
C       44.28400000      54.49760000      51.47000000
C       55.71640000      45.50240000      51.46840000
C       55.71630000      54.49720000      48.53000000
C       45.50340000      51.46940000      55.71700000
C       54.49810000      48.53070000      55.71580000
C       54.49670000      51.46910000      44.28300000
C       48.53160000      55.71640000      54.49760000
C       51.46960000      44.28360000      54.49720000
C       51.46880000      55.71630000      45.50240000
C       55.71600000      45.50240000      48.53000000
C       54.49660000      48.53060000      44.28300000
C       51.46840000      44.28360000      45.50240000
C       55.71670000      54.49720000      51.46840000
C       44.28370000      45.50280000      51.47000000
C       44.28360000      54.49760000      48.53160000
C       54.49820000      51.46910000      55.71580000
C       45.50330000      48.53090000      55.71700000
C       45.50190000      51.46930000      44.28420000
C       51.47000000      55.71630000      54.49720000
C       48.53120000      44.28370000      54.49760000
C       48.53040000      55.71640000      45.50280000
C       54.76660000      44.64050000      49.25010000
C       44.64120000      49.25090000      54.76760000
C       49.25020000      54.76690000      44.64070000
C       54.76710000      55.35930000      50.74860000
C       45.23310000      44.64070000      50.74990000
C       45.23320000      55.35950000      49.25140000
C       44.64000000      50.74940000      45.23390000
C       55.35870000      49.25060000      45.23240000
C       55.36010000      50.74910000      54.76610000
C       49.25130000      45.23320000      55.35950000
C       50.75010000      54.76680000      55.35930000
C       50.74840000      45.23310000      44.64050000
C       45.23290000      44.64070000      49.25140000
C       55.36000000      49.25060000      54.76610000
C       50.74870000      54.76680000      44.64050000
C       45.23340000      55.35950000      50.74990000
C       54.76680000      44.64050000      50.74860000
C       54.76690000      55.35930000      49.25010000
C       55.35880000      50.74910000      45.23240000
C       44.63990000      49.25090000      45.23390000
C       44.64130000      50.74940000      54.76760000
C       50.74980000      45.23310000      55.35930000
C       49.25160000      54.76690000      55.35950000
C       49.24990000      45.23320000      44.64070000
C       53.90080000      47.22080000      44.30210000
C       47.22130000      44.30270000      53.90200000
C       44.30230000      53.90180000      47.22170000
C       53.90250000      52.77890000      55.69690000
C       46.09900000      47.22110000      55.69800000
C       46.09770000      52.77920000      44.30310000
C       47.22060000      55.69750000      46.09870000
C       52.77840000      44.30250000      46.09800000
C       52.77980000      55.69730000      53.90130000
C       44.30280000      46.09850000      52.77980000
C       55.69790000      53.90150000      52.77830000
C       55.69690000      46.09820000      47.22020000
C       46.09750000      47.22110000      44.30310000
C       52.77940000      44.30250000      53.90130000
C       55.69720000      53.90150000      47.22020000
C       46.09920000      52.77920000      55.69790000
C       53.90230000      47.22080000      55.69690000
C       53.90100000      52.77890000      44.30210000
C       52.77870000      55.69730000      46.09800000
C       47.22020000      44.30270000      46.09870000
C       47.22160000      55.69750000      53.90200000
C       55.69770000      46.09820000      52.77830000
C       44.30310000      53.90180000      52.77980000
C       44.30210000      46.09850000      47.22170000
