240
Lattice="100.0 0.0 0.0 0.0 100.0 0.0 0.0 0.0 100.0" Properties=species:S:1:pos:R:3 name=C-71174-8496-704 pressure=-0.0622230346135076 spacegroup=Th times_found=1 energy=-1701.91805048371 pbc="T T T"
C       57.98440000      50.73870000      50.69730000
C       50.74160000      50.69950000      57.98390000
C       50.70040000      57.98410000      50.73910000
C       42.01620000      49.26110000      50.70400000
C       57.98390000      49.26250000      49.29580000
C       42.01550000      50.73770000      49.30290000
C       49.26530000      49.29810000      57.98440000
C       50.73480000      49.30060000      42.01540000
C       49.25830000      50.70180000      42.01630000
C       49.30030000      42.01570000      50.73730000
C       50.70090000      42.01600000      49.26030000
C       49.29840000      57.98420000      49.26330000
C       57.98380000      50.73890000      49.29600000
C       50.73470000      50.70190000      42.01560000
C       50.69970000      57.98430000      49.26270000
C       42.01560000      49.26130000      49.30270000
C       57.98450000      49.26230000      50.69710000
C       42.01610000      50.73750000      50.70420000
C       49.25840000      49.30050000      42.01610000
C       50.74170000      49.29820000      57.98370000
C       49.26520000      50.69940000      57.98460000
C       49.29960000      42.01590000      49.26090000
C       50.70160000      42.01580000      50.73670000
C       49.29910000      57.98400000      50.73970000
C       48.63840000      48.65470000      56.89810000
C       48.65480000      56.89780000      48.63690000
C       56.89730000      48.63600000      48.65270000
C       51.36770000      51.34320000      56.89740000
C       48.63210000      51.34510000      43.10310000
C       51.36180000      48.65710000      43.10150000
C       51.34400000      43.10260000      48.63360000
C       48.65700000      43.10190000      51.36430000
C       51.34420000      56.89760000      51.36520000
C       43.10160000      51.36440000      48.65910000
C       56.89820000      51.36510000      51.34130000
C       43.10300000      48.63450000      51.34690000
C       48.63230000      48.65680000      43.10260000
C       48.65600000      56.89740000      51.36640000
C       56.89840000      48.63560000      51.34090000
C       51.36160000      51.34530000      43.10190000
C       48.63820000      51.34290000      56.89850000
C       51.36790000      48.65490000      56.89690000
C       51.34520000      43.10220000      51.36310000
C       48.65580000      43.10240000      48.63480000
C       51.34300000      56.89810000      48.63570000
C       43.10270000      51.36400000      51.34730000
C       56.89700000      51.36550000      48.65310000
C       43.10180000      48.63490000      48.65870000
C       52.66000000      51.90800000      45.16410000
C       51.90860000      45.16470000      52.66070000
C       45.16560000      52.66160000      51.90960000
C       47.33580000      48.09350000      45.16590000
C       52.66450000      48.09240000      54.83350000
C       47.33970000      51.90610000      54.83640000
C       48.09370000      54.83440000      52.66380000
C       51.90550000      54.83550000      47.33770000
C       48.09220000      45.16530000      47.33790000
C       54.83600000      47.33780000      51.90450000
C       45.16440000      47.33770000      48.09470000
C       54.83400000      52.66290000      48.09130000
C       52.66420000      51.90650000      54.83410000
C       51.90630000      45.16560000      47.33620000
C       45.16400000      52.66220000      48.09550000
C       47.34000000      48.09200000      54.83590000
C       52.66030000      48.09390000      45.16360000
C       47.33550000      51.90760000      45.16650000
C       48.09140000      54.83530000      47.33930000
C       51.90780000      54.83470000      52.66210000
C       48.09450000      45.16450000      52.66230000
C       54.83440000      47.33840000      48.09040000
C       45.16600000      47.33710000      51.90870000
C       54.83560000      52.66230000      51.90530000
C       53.92510000      51.65600000      54.28760000
C       51.65770000      54.28860000      53.92330000
C       54.28950000      53.92340000      51.65500000
C       46.07870000      48.34270000      54.29050000
C       53.92160000      48.34470000      45.70900000
C       46.07470000      51.65670000      45.71290000
C       48.34570000      45.71020000      53.92340000
C       51.65490000      45.71170000      46.07530000
C       48.34160000      54.28950000      46.07810000
C       45.71200000      46.07610000      51.65760000
C       54.28860000      46.07730000      48.34120000
C       45.70990000      53.92330000      48.34620000
C       53.92130000      51.65730000      45.70950000
C       51.65430000      54.28980000      46.07660000
C       54.28800000      53.92390000      48.34240000
C       46.07490000      48.34400000      45.71240000
C       53.92530000      48.34330000      54.28710000
C       46.07840000      51.65530000      54.29100000
C       48.34230000      45.71140000      46.07670000
C       51.65840000      45.71050000      53.92190000
C       48.34510000      54.28830000      53.92470000
C       45.71050000      46.07660000      48.34500000
C       54.29010000      46.07670000      51.65380000
C       45.71140000      53.92270000      51.65880000
C       54.62150000      50.72390000      55.15910000
C       50.72600000      55.16030000      54.61980000
C       55.16090000      54.61960000      50.72280000
C       45.38300000      49.27450000      55.16290000
C       54.61710000      49.27680000      44.83690000
C       45.37840000      50.72480000      44.84120000
C       49.27800000      44.83830000      54.61880000
C       50.72280000      44.83980000      45.37960000
C       49.27320000      55.16160000      45.38180000
C       44.83970000      45.38020000      50.72590000
C       55.16100000      45.38120000      49.27270000
C       44.83840000      54.61900000      49.27860000
C       54.61700000      50.72550000      44.83710000
C       50.72200000      55.16170000      45.38120000
C       55.16030000      54.61980000      49.27410000
C       45.37850000      49.27610000      44.84090000
C       54.62160000      49.27520000      55.15880000
C       45.38290000      50.72320000      55.16310000
C       49.27400000      44.83970000      45.38020000
C       50.72680000      44.83840000      54.61820000
C       49.27720000      55.16020000      54.62040000
C       44.83910000      45.38040000      49.27720000
C       55.16160000      45.38100000      50.72140000
C       44.83900000      54.61880000      50.72730000
C       43.18600000      49.26700000      52.59940000
C       49.26470000      52.59750000      43.18550000
C       52.59670000      43.18510000      49.26570000
C       56.81630000      50.73220000      52.59370000
C       43.18360000      50.73200000      47.40660000
C       56.81410000      49.26880000      47.40040000
C       50.72930000      47.40460000      43.18410000
C       49.27110000      47.40240000      56.81510000
C       50.73490000      52.59550000      56.81530000
C       47.40260000      56.81510000      49.27010000
C       52.59630000      56.81530000      50.73200000
C       47.40430000      43.18450000      50.73220000
C       43.18370000      49.26780000      47.40630000
C       49.27070000      52.59540000      56.81590000
C       52.59740000      43.18490000      50.72990000
C       56.81400000      50.73300000      47.40060000
C       43.18590000      50.73120000      52.59960000
C       56.81640000      49.26800000      52.59340000
C       50.73530000      47.40250000      56.81450000
C       49.26510000      47.40450000      43.18470000
C       50.72890000      52.59760000      43.18490000
C       47.40330000      56.81490000      50.73430000
C       52.59570000      56.81550000      49.26780000
C       47.40370000      43.18470000      49.26800000
C       53.21260000      45.12920000      47.94780000
C       45.13020000      47.94910000      53.21490000
C       47.94760000      53.21370000      45.13000000
C       46.78560000      54.87150000      47.95210000
C       53.21360000      54.87130000      52.04940000
C       46.78810000      45.12800000      52.05070000
C       54.87260000      52.04990000      53.21130000
C       45.12700000      52.05020000      46.78930000
C       54.87020000      47.95080000      46.78440000
C       52.04820000      46.78780000      45.12720000
C       47.95230000      46.78600000      54.87180000
C       52.05190000      53.21250000      54.87100000
C       53.21440000      45.12850000      52.04790000
C       45.12740000      47.95010000      46.78870000
C       47.95180000      53.21220000      54.87280000
C       46.78740000      54.87080000      52.05220000
C       53.21190000      54.87200000      47.94930000
C       46.78640000      45.12870000      47.95060000
C       54.86980000      52.05090000      46.78510000
C       45.12980000      52.04920000      53.21560000
C       54.87300000      47.94980000      53.21070000
C       52.05240000      46.78630000      54.87000000
C       47.94810000      46.78750000      45.12900000
C       52.04770000      53.21400000      45.12820000
C       46.41400000      56.10770000      51.39070000
C       56.10650000      51.38920000      46.41140000
C       51.39110000      46.41300000      56.10700000
C       53.58730000      43.89190000      51.38570000
C       46.41370000      43.89170000      48.61250000
C       53.58510000      56.10870000      48.61120000
C       43.89030000      48.61190000      46.41630000
C       56.10990000      48.61180000      53.58330000
C       43.89330000      51.38710000      53.58910000
C       48.61420000      53.58510000      56.10930000
C       51.38520000      53.58720000      43.89180000
C       48.60940000      46.41470000      43.89190000
C       46.41270000      56.10810000      48.61430000
C       56.10970000      51.38810000      53.58370000
C       51.38580000      46.41490000      43.89070000
C       53.58600000      43.89230000      48.60930000
C       46.41490000      43.89130000      51.38880000
C       53.58630000      56.10830000      51.38750000
C       43.89350000      48.61080000      53.58860000
C       56.10670000      48.61290000      46.41090000
C       43.89010000      51.38820000      46.41670000
C       48.60890000      53.58700000      43.89300000
C       51.39060000      53.58530000      56.10810000
C       48.61480000      46.41280000      56.10820000
C       50.76260000      44.17920000      47.88160000
C       44.17930000      47.88220000      50.76530000
C       47.88020000      50.76380000      44.17990000
C       49.23560000      55.82150000      47.88400000
C       50.76350000      55.82090000      52.11780000
C       49.23830000      44.17840000      52.11660000
C       55.82140000      52.11750000      50.76090000
C       44.17830000      52.11690000      49.23980000
C       55.82100000      47.88340000      49.23410000
C       52.11470000      49.23800000      44.17780000
C       47.88540000      49.23590000      55.82200000
C       52.11970000      50.76230000      55.82040000
C       50.76440000      44.17850000      52.11600000
C       44.17860000      47.88250000      49.23910000
C       47.88530000      50.76200000      55.82220000
C       49.23740000      55.82080000      52.11840000
C       50.76170000      55.82160000      47.88340000
C       49.23650000      44.17910000      47.88220000
C       55.82070000      52.11780000      49.23470000
C       44.17900000      52.11660000      50.76590000
C       55.82170000      47.88310000      50.76020000
C       52.11980000      49.23620000      55.82010000
C       47.88030000      49.23770000      44.17960000
C       52.11460000      50.76410000      44.17800000
C       54.82880000      56.02480000      50.69650000
C       56.02660000      50.69740000      54.82650000
C       50.70000000      54.82810000      56.02500000
C       45.17180000      43.97500000      50.69890000
C       54.82920000      43.97590000      49.29930000
C       45.17020000      56.02430000      49.30530000
C       43.97760000      49.30110000      54.83150000
C       56.02250000      49.30350000      45.16830000
C       43.97330000      50.69800000      45.17370000
C       49.30530000      45.17000000      56.02410000
C       50.69540000      45.17200000      43.97440000
C       49.29930000      54.82990000      43.97650000
C       54.82820000      56.02500000      49.30110000
C       56.02240000      50.69890000      45.16850000
C       50.69470000      54.83000000      43.97590000
C       45.17120000      43.97520000      49.30350000
C       54.82980000      43.97570000      50.69470000
C       45.17080000      56.02410000      50.70070000
C       43.97340000      49.30260000      45.17350000
C       56.02670000      49.30200000      54.82630000
C       43.97750000      50.69650000      54.83170000
C       49.30000000      45.17190000      43.97500000
C       50.70070000      45.17010000      56.02350000
C       49.30460000      54.82800000      56.02560000
