240
Lattice="100.0 0.0 0.0 0.0 100.0 0.0 0.0 0.0 100.0" Properties=species:S:1:pos:R:3 name=C-71174-8496-466 pressure=-0.0300447769121581 energy=-1694.46306738891 spacegroup=C1 times_found=1 pbc="T T T"
C       55.36710000      56.33630000      45.75110000
C       56.25560000      45.64470000      55.29990000
C       45.71330000      55.31230000      56.35160000
C       44.77120000      43.74580000      45.64670000
C       55.29070000      43.64510000      54.19670000
C       44.70070000      56.32190000      54.31820000
C       43.66970000      54.31120000      55.35780000
C       56.36120000      54.31380000      44.70650000
C       43.78080000      45.74830000      44.59630000
C       54.18340000      44.56500000      56.22500000
C       45.85640000      44.78120000      43.68850000
C       54.31850000      55.33860000      43.72420000
C       56.36040000      55.37550000      45.75090000
C       45.73940000      56.29750000      55.37780000
C       55.20860000      45.63940000      56.20030000
C       43.77200000      44.68800000      45.62560000
C       43.70000000      55.36530000      54.31130000
C       56.29170000      44.59110000      54.23850000
C       54.23100000      43.57610000      55.24710000
C       54.31840000      56.32450000      44.69400000
C       45.84310000      43.78540000      44.63510000
C       44.64410000      54.28400000      56.34060000
C       44.79440000      45.79200000      43.67270000
C       55.38710000      54.30040000      43.72520000
C       43.77150000      45.71500000      46.65700000
C       45.81960000      46.82020000      43.77910000
C       46.84850000      43.86960000      45.68020000
C       56.23420000      54.32590000      46.77680000
C       43.74400000      54.32370000      53.28260000
C       56.25600000      45.65950000      53.23660000
C       54.33850000      53.27470000      43.86890000
C       45.66620000      53.23400000      56.28760000
C       54.13230000      46.61140000      56.00050000
C       53.30540000      56.18040000      45.75140000
C       46.77310000      56.22810000      54.33980000
C       53.20660000      43.68500000      54.19940000
C       45.79640000      43.83500000      46.67840000
C       46.86770000      45.82080000      43.79070000
C       43.77960000      46.75550000      45.64460000
C       54.30920000      56.18000000      46.76790000
C       54.21780000      43.81520000      53.20150000
C       45.75190000      56.24950000      53.29840000
C       53.31460000      54.26560000      43.87420000
C       53.12870000      45.58630000      56.07150000
C       46.71780000      54.24560000      56.30120000
C       56.23070000      53.30800000      45.77720000
C       56.22830000      46.66490000      54.24750000
C       43.71340000      53.28730000      54.31130000
C       48.48290000      44.87450000      50.40310000
C       44.27560000      50.53260000      48.37920000
C       50.64180000      48.47950000      44.64510000
C       51.70170000      55.63200000      50.61050000
C       48.57280000      55.38890000      49.50130000
C       51.62810000      44.59300000      49.41400000
C       55.63950000      49.48370000      48.40910000
C       44.25470000      49.45780000      51.53240000
C       55.42090000      50.50530000      51.51590000
C       49.51690000      51.57830000      44.65800000
C       50.49210000      51.41690000      55.50540000
C       49.37630000      48.27560000      55.65870000
C       44.25370000      48.39880000      50.48090000
C       50.60850000      44.52090000      48.33790000
C       48.48260000      50.52710000      44.80310000
C       55.29510000      51.57360000      50.48430000
C       55.59010000      48.42520000      49.46090000
C       44.28680000      51.56770000      49.45090000
C       49.59950000      55.26730000      48.44850000
C       49.48410000      44.82540000      51.45100000
C       50.62480000      55.61350000      51.63790000
C       51.66410000      49.53180000      44.87360000
C       51.53400000      50.39770000      55.36070000
C       48.33370000      49.34330000      55.67480000
C       49.25130000      44.44680000      47.96410000
C       44.26190000      48.06790000      49.08440000
C       48.15450000      49.08210000      44.94510000
C       51.06260000      55.10830000      48.12220000
C       49.23620000      55.61790000      51.89110000
C       50.92030000      44.87310000      51.88350000
C       55.15680000      51.95010000      49.03350000
C       44.25810000      51.85340000      50.83230000
C       55.67060000      48.07340000      50.83940000
C       51.99310000      50.99300000      45.01980000
C       48.09730000      50.73060000      55.70820000
C       51.79060000      48.95350000      55.08690000
C       44.26740000      49.14040000      48.03250000
C       48.12650000      44.92010000      48.96110000
C       49.28920000      48.09790000      44.48210000
C       55.64890000      50.85050000      48.06070000
C       55.62800000      49.12420000      51.87270000
C       44.23380000      50.83820000      51.83270000
C       52.04130000      55.61120000      49.23730000
C       51.94090000      44.54220000      50.78060000
C       48.25670000      55.57820000      50.85980000
C       50.87150000      51.94370000      44.55260000
C       50.73490000      47.94590000      55.63040000
C       49.12880000      51.71800000      55.68070000
C       55.49740000      48.89220000      53.32560000
C       48.76070000      53.11830000      55.15610000
C       53.49910000      55.49930000      49.04250000
C       44.82550000      51.21170000      53.21000000
C       55.55750000      51.04720000      46.60330000
C       44.42220000      48.96660000      46.55510000
C       51.01820000      46.56350000      54.97770000
C       49.13020000      46.63030000      44.45290000
C       51.06290000      53.40870000      44.60450000
C       46.57490000      44.55550000      48.89710000
C       53.38190000      44.62230000      51.00800000
C       46.84890000      55.07060000      51.24240000
C       48.81130000      55.03690000      53.25130000
C       53.33420000      48.82230000      55.29380000
C       55.59490000      53.49060000      49.01910000
C       50.93100000      44.31270000      53.34980000
C       51.07790000      55.51790000      46.57830000
C       49.10900000      44.49300000      46.49690000
C       46.73260000      51.15430000      55.13450000
C       46.60730000      49.00140000      44.56980000
C       53.52410000      51.04260000      44.55130000
C       44.41400000      46.58920000      48.88200000
C       44.88470000      53.21050000      51.23250000
C       55.54340000      46.61260000      51.04210000
C       53.98710000      55.01170000      51.47210000
C       54.94360000      51.31320000      53.86730000
C       51.29830000      53.78990000      54.97990000
C       46.08650000      45.14260000      51.32850000
C       53.98680000      45.03820000      48.55140000
C       46.20200000      54.87040000      48.71490000
C       44.96970000      48.67820000      53.84020000
C       55.14340000      48.61810000      46.07580000
C       45.00840000      51.39600000      46.12510000
C       48.53040000      46.00040000      54.92870000
C       51.55550000      46.11850000      44.97300000
C       48.63360000      53.92880000      45.04260000
C       55.00870000      53.92160000      51.46220000
C       51.32060000      54.88070000      53.94240000
C       53.85670000      51.29590000      54.90450000
C       44.97360000      46.13880000      51.30070000
C       45.08370000      53.85870000      48.71720000
C       55.05340000      46.11040000      48.58960000
C       48.49050000      44.98060000      53.83530000
C       48.63160000      54.98530000      46.10380000
C       51.54350000      45.00460000      46.01350000
C       46.03140000      48.64030000      54.91090000
C       46.11030000      51.43210000      45.11530000
C       54.04700000      48.60780000      45.05960000
C       45.64310000      55.41870000      52.17920000
C       55.46660000      52.15390000      45.68320000
C       51.98270000      45.43670000      55.30190000
C       54.29670000      44.69940000      52.13240000
C       45.65250000      44.61730000      47.81920000
C       54.42460000      55.42850000      47.93080000
C       44.56130000      47.89400000      45.60240000
C       55.37470000      47.76500000      54.24390000
C       44.52170000      52.15070000      54.42010000
C       47.83760000      54.33290000      55.47130000
C       52.16560000      54.35120000      44.64930000
C       48.03560000      45.68100000      44.53730000
C       55.41970000      45.65170000      52.12590000
C       52.15040000      55.41580000      45.64430000
C       45.54140000      52.12120000      55.45160000
C       44.59160000      54.41740000      52.17370000
C       44.54990000      45.64640000      47.79600000
C       55.48880000      54.43030000      47.94600000
C       48.02120000      44.61960000      45.55930000
C       47.86500000      55.36590000      54.45160000
C       51.99430000      44.36660000      54.31110000
C       54.24060000      47.72570000      55.17690000
C       54.45290000      52.12540000      44.63720000
C       45.67470000      47.93290000      44.59320000
C       51.51850000      52.47070000      55.17200000
C       52.68150000      55.30540000      51.70230000
C       55.11960000      51.52680000      52.54290000
C       48.29190000      47.29510000      55.26700000
C       51.71130000      47.45940000      44.88060000
C       48.44100000      52.59850000      44.87700000
C       47.43550000      45.10530000      51.44290000
C       52.66240000      44.83840000      48.36760000
C       47.52290000      55.05540000      48.47840000
C       44.63450000      48.42770000      52.54860000
C       55.38090000      48.41920000      47.39480000
C       44.66440000      51.59570000      47.41710000
C       52.53070000      51.47110000      55.11920000
C       55.08680000      52.56430000      51.55830000
C       51.63650000      55.24800000      52.67330000
C       47.31020000      48.33340000      55.25990000
C       47.45390000      51.57670000      44.97530000
C       52.69310000      48.48310000      45.00630000
C       44.61810000      47.42090000      51.53610000
C       44.70040000      52.58800000      48.44060000
C       55.31300000      47.42470000      48.41210000
C       48.42140000      45.02380000      52.47400000
C       48.52140000      55.05910000      47.45660000
C       51.68330000      44.79620000      47.34410000
C       45.93270000      55.10080000      50.11880000
C       55.42220000      49.98100000      45.70970000
C       49.89630000      45.59290000      55.13210000
C       54.26810000      44.78400000      49.94500000
C       45.74220000      44.76520000      49.96900000
C       54.36950000      55.32980000      50.12110000
C       44.71990000      50.04680000      45.74520000
C       55.22500000      49.94220000      54.18280000
C       44.80190000      50.08700000      54.13070000
C       49.88790000      54.04070000      55.17870000
C       49.99110000      54.29070000      44.73510000
C       50.19560000      45.78200000      44.66910000
C       55.27710000      45.79430000      49.96500000
C       49.99040000      55.33940000      45.73550000
C       45.78950000      50.05160000      55.12020000
C       44.90480000      54.14970000      50.12150000
C       44.69900000      45.75950000      49.95140000
C       55.40010000      54.31460000      50.11610000
C       50.18330000      44.73760000      45.65890000
C       49.90980000      55.04340000      54.19900000
C       49.83240000      44.52580000      54.17930000
C       54.18190000      49.91010000      55.16260000
C       54.38870000      49.96960000      44.69650000
C       45.76370000      50.07060000      44.75660000
C       52.79700000      53.21260000      48.68460000
C       52.21840000      49.02750000      52.43360000
C       48.17190000      52.69720000      53.79960000
C       47.95560000      46.37550000      48.36490000
C       51.88440000      47.04380000      51.20450000
C       47.24410000      53.70870000      51.83250000
C       46.19480000      51.76690000      52.78730000
C       53.26840000      51.38990000      47.35130000
C       46.86850000      47.62340000      46.62870000
C       51.34140000      47.07180000      53.53840000
C       49.04550000      48.19630000      47.35320000
C       51.45280000      52.73600000      46.89040000
C       53.67390000      52.17080000      48.40800000
C       48.21230000      53.68660000      52.80900000
C       51.73520000      48.41170000      53.59190000
C       46.84760000      46.64530000      47.51660000
C       46.22850000      52.73870000      51.81510000
C       52.43220000      48.22200000      51.38880000
C       51.36690000      46.34500000      52.29390000
C       51.72560000      53.62150000      47.92140000
C       49.04020000      47.29590000      48.28120000
C       47.18000000      51.74440000      53.78590000
C       48.00270000      48.43330000      46.41650000
C       52.22020000      51.66260000      46.49080000
