240
Lattice="100.0 0.0 0.0 0.0 100.0 0.0 0.0 0.0 100.0" Properties=species:S:1:pos:R:3 name=C-71174-8496-933 pressure=0.00577602409222918 spacegroup=C1 times_found=1 energy=-1751.05861158087 pbc="T T T"
C       46.92330000      46.40140000      54.63560000
C       54.35670000      47.20100000      45.75980000
C       46.37720000      54.55420000      46.98650000
C       52.98840000      54.30780000      54.52470000
C       53.08570000      46.37840000      45.19690000
C       47.23040000      53.99510000      45.71940000
C       44.81880000      52.49060000      45.75470000
C       45.61550000      47.22920000      54.09400000
C       55.40110000      52.81070000      54.33620000
C       54.17750000      44.80020000      47.33840000
C       53.72520000      54.85180000      53.20320000
C       45.59140000      44.72820000      52.67880000
C       47.36360000      45.69420000      44.74270000
C       55.26980000      47.21180000      54.26020000
C       45.91530000      54.38840000      52.79820000
C       53.05110000      53.71000000      45.32700000
C       52.75840000      45.87230000      54.31230000
C       47.37210000      54.41640000      55.28100000
C       45.37720000      53.08810000      53.63020000
C       45.24360000      46.76830000      46.31630000
C       54.34160000      52.89810000      45.83840000
C       53.55920000      45.25800000      53.04860000
C       54.25190000      55.30110000      47.44500000
C       45.77070000      45.45340000      47.08730000
C       48.99100000      43.51160000      52.79220000
C       52.94910000      49.34370000      43.07710000
C       43.50350000      52.72060000      49.08720000
C       50.61060000      56.73300000      53.05290000
C       50.74710000      43.71860000      47.11270000
C       49.43010000      56.54080000      47.24640000
C       47.20070000      50.60320000      43.80940000
C       47.27690000      49.53710000      56.46290000
C       53.06900000      50.78560000      56.19730000
C       56.03940000      47.18830000      49.29220000
C       56.21300000      52.89030000      50.81950000
C       43.45880000      47.01160000      50.85210000
C       49.27290000      43.76080000      47.10910000
C       53.02230000      49.30400000      56.15840000
C       43.46710000      52.75710000      50.54070000
C       50.88420000      56.52140000      47.26250000
C       50.43770000      43.39890000      52.84170000
C       49.15700000      56.56640000      52.98960000
C       47.30950000      50.98710000      56.40380000
C       47.17510000      49.13230000      43.70360000
C       52.91500000      50.79170000      43.12800000
C       56.15810000      47.13760000      50.75970000
C       56.06800000      52.85120000      49.35290000
C       43.30410000      46.93670000      49.39850000
C       45.70620000      43.34270000      49.08510000
C       49.51280000      45.72420000      43.29690000
C       43.39950000      48.92740000      45.82470000
C       54.27110000      56.73940000      49.59930000
C       54.03430000      43.37990000      50.90000000
C       45.83400000      56.30430000      50.64290000
C       50.74810000      54.15820000      43.61950000
C       50.65040000      45.92530000      56.26970000
C       49.55620000      54.38130000      56.74950000
C       56.33040000      50.77440000      45.87340000
C       56.90840000      49.25280000      54.25930000
C       43.62760000      50.80950000      54.10430000
C       45.61260000      43.22200000      50.51920000
C       49.22710000      45.97430000      56.36990000
C       43.69570000      49.38320000      54.15640000
C       54.16910000      56.68700000      51.02580000
C       54.14730000      43.33330000      49.47360000
C       45.87940000      56.35820000      49.21640000
C       50.98960000      54.31250000      56.62470000
C       50.93790000      45.83220000      43.34410000
C       49.32650000      54.11650000      43.73810000
C       56.94090000      50.69390000      54.27520000
C       56.33290000      49.33490000      45.85630000
C       43.34970000      50.35300000      45.71420000
C       49.18250000      57.08880000      51.63810000
C       51.68200000      49.34690000      56.70740000
C       56.63780000      51.52280000      49.32480000
C       50.48960000      42.82880000      51.49530000
C       50.82550000      57.16140000      48.59400000
C       49.22890000      43.10430000      48.39720000
C       48.67830000      50.93330000      56.96330000
C       48.47510000      49.19540000      43.01110000
C       51.51030000      50.77180000      42.70390000
C       42.79890000      48.31050000      49.35930000
C       42.90360000      51.41130000      50.60610000
C       56.79690000      48.46610000      50.73020000
C       49.36940000      57.11290000      48.58780000
C       51.54950000      49.31960000      42.63120000
C       56.82620000      51.54970000      50.76370000
C       50.68520000      43.03440000      48.41710000
C       50.63410000      57.23790000      51.67800000
C       49.04190000      42.89760000      51.44740000
C       48.48320000      50.65060000      43.14800000
C       48.64960000      49.48490000      56.96510000
C       51.72740000      50.80320000      56.75150000
C       42.93620000      48.36340000      50.81140000
C       42.87090000      51.38730000      49.14920000
C       56.62940000      48.50940000      49.28950000
C       53.12220000      56.84530000      48.81630000
C       48.82050000      53.21410000      56.71430000
C       56.79600000      48.56330000      53.05840000
C       46.88840000      43.57470000      48.40480000
C       46.95180000      56.29310000      51.46330000
C       52.81030000      43.30090000      51.49720000
C       51.47200000      47.04050000      56.15370000
C       51.42000000      52.99700000      43.42700000
C       48.71440000      46.86880000      43.20860000
C       43.50260000      51.42730000      52.89850000
C       43.28910000      48.32440000      47.04310000
C       56.09270000      51.49380000      47.02230000
C       52.95630000      56.78230000      51.64400000
C       48.57510000      52.95150000      43.81670000
C       56.09480000      48.58660000      46.98680000
C       46.77150000      43.23430000      51.26850000
C       47.08300000      56.48570000      48.59640000
C       53.00070000      43.26130000      48.67870000
C       51.54120000      47.04440000      43.21520000
C       51.69530000      53.14790000      56.37570000
C       48.62000000      47.18630000      56.45230000
C       43.22820000      51.14370000      46.85600000
C       43.71420000      48.55580000      53.04470000
C       56.85040000      51.41420000      53.08920000
C       45.56160000      47.76750000      45.22810000
C       44.80140000      45.31370000      48.16910000
C       48.37340000      44.92780000      45.24580000
C       54.48880000      51.82940000      44.83070000
C       54.91750000      48.19430000      55.14380000
C       45.69100000      52.13470000      54.75150000
C       55.00530000      54.77200000      48.45210000
C       54.66030000      45.51990000      52.07580000
C       45.05470000      54.35230000      51.61740000
C       52.07120000      54.81780000      45.68470000
C       51.56910000      45.02500000      54.34840000
C       48.31010000      55.32270000      54.87560000
C       45.65220000      48.42280000      54.93870000
C       44.69500000      45.13080000      51.73020000
C       47.86820000      45.25620000      54.35050000
C       55.01350000      51.82550000      55.20210000
C       54.50540000      48.29110000      44.78070000
C       45.33130000      51.48740000      44.98490000
C       54.78880000      54.54340000      52.19170000
C       54.93840000      45.30030000      48.35390000
C       45.23520000      54.26300000      47.92670000
C       51.88200000      55.25520000      54.67020000
C       52.09550000      45.26950000      45.51230000
C       48.37680000      54.89060000      45.71080000
C       56.05890000      52.62300000      53.15820000
C       52.88870000      55.97560000      52.79830000
C       52.87720000      53.15440000      55.47910000
C       44.54450000      47.31890000      53.03980000
C       44.01340000      52.35610000      46.83980000
C       55.25440000      47.37290000      46.94830000
C       46.73380000      44.01080000      52.49030000
C       47.18300000      55.68210000      47.44090000
C       53.05140000      44.04780000      47.47230000
C       47.42420000      47.25670000      55.70140000
C       47.38940000      52.89960000      44.70350000
C       52.69670000      47.15150000      44.02490000
C       55.25590000      52.70880000      47.01360000
C       53.14450000      56.07060000      47.59470000
C       52.63080000      52.93890000      44.15860000
C       44.10410000      47.17790000      47.13030000
C       44.27860000      52.60410000      52.80360000
C       55.95760000      47.38660000      53.09740000
C       46.91790000      44.50370000      47.24950000
C       46.96990000      55.46410000      52.69980000
C       52.72190000      44.14210000      52.62770000
C       47.50740000      46.81840000      43.98900000
C       47.58170000      53.25940000      55.96560000
C       52.68800000      46.99500000      55.30780000
C       55.42260000      46.62150000      48.18630000
C       48.38240000      55.80010000      46.75320000
C       46.73920000      48.46200000      55.79600000
C       44.23270000      53.18420000      47.97680000
C       44.19700000      46.46780000      51.89680000
C       55.70100000      53.40760000      52.02450000
C       51.93150000      44.33280000      46.64270000
C       51.73300000      56.10270000      53.56890000
C       47.89590000      44.25230000      53.27710000
C       53.66650000      51.92730000      55.66110000
C       53.45840000      48.31130000      43.84750000
C       46.64130000      51.67870000      44.48070000
C       55.60410000      46.62790000      51.94610000
C       48.12080000      55.82130000      53.54140000
C       46.68830000      47.93990000      44.28760000
C       44.17410000      53.28240000      51.59700000
C       43.95410000      46.41690000      48.29030000
C       55.44960000      53.44130000      48.26070000
C       51.52290000      44.09120000      53.32660000
C       52.00530000      55.81450000      46.77870000
C       48.17390000      44.38110000      46.53580000
C       53.41860000      51.80790000      43.92190000
C       53.55550000      48.15480000      55.57380000
C       46.79520000      52.09890000      55.71620000
C       48.20370000      56.98990000      49.34910000
C       49.40460000      48.32380000      56.85620000
C       56.55120000      49.29480000      48.16400000
C       51.75840000      42.87980000      49.28110000
C       51.80170000      57.25300000      50.91910000
C       47.97280000      42.90340000      50.57650000
C       50.99680000      51.96820000      56.84210000
C       50.78040000      48.17300000      42.72590000
C       49.23030000      51.81390000      43.17790000
C       42.80420000      50.52110000      48.07600000
C       43.09400000      49.19830000      51.88910000
C       57.07730000      50.73440000      51.85310000
C       48.10040000      56.92000000      50.81190000
C       49.31670000      48.10720000      42.82070000
C       57.05500000      49.25760000      51.83660000
C       51.66190000      42.83490000      50.74840000
C       51.90240000      57.24820000      49.45290000
C       48.04720000      43.05520000      49.11170000
C       50.68050000      51.85400000      42.95070000
C       50.86220000      48.24140000      56.70190000
C       49.53220000      52.01370000      56.99160000
C       43.01810000      50.66100000      51.77870000
C       42.79940000      49.05790000      48.18530000
C       56.55110000      50.76030000      48.18320000
C       49.45270000      54.96950000      44.86570000
C       44.82670000      49.52150000      55.00290000
C       54.99410000      44.50240000      49.53630000
C       51.04660000      45.08140000      44.56440000
C       50.94030000      55.35180000      55.65890000
C       48.99460000      45.13820000      55.23090000
C       55.91470000      50.72720000      55.29680000
C       55.43400000      49.31320000      44.76380000
C       44.53930000      50.30410000      44.89870000
C       45.10100000      55.17110000      49.02690000
C       44.59560000      44.23350000      50.60510000
C       54.93110000      55.47430000      51.12210000
C       49.44640000      55.41840000      55.76090000
C       44.62200000      48.82570000      45.07490000
C       54.81240000      44.58220000      51.01060000
C       50.48470000      45.01810000      55.18980000
C       50.94400000      54.93180000      44.81050000
C       49.56970000      44.89310000      44.47390000
C       55.42990000      50.81930000      44.78200000
C       55.87750000      49.24090000      55.27760000
C       44.80850000      51.01330000      54.88620000
C       44.98660000      55.17190000      50.51710000
C       44.68550000      44.32950000      49.11350000
C       55.09800000      55.55630000      49.64240000
