240
Lattice="100.0 0.0 0.0 0.0 100.0 0.0 0.0 0.0 100.0" Properties=species:S:1:pos:R:3 name=C-71174-8496-455 pressure=-0.0271756257323372 energy=-1796.22672387428 spacegroup=Td times_found=1 pbc="T T T"
C       43.88520000      48.78200000      47.78990000
C       48.78200000      47.78990000      43.88520000
C       47.78990000      43.88520000      48.78200000
C       56.11480000      48.78200000      52.21010000
C       56.11480000      51.21800000      47.78990000
C       43.88520000      51.21800000      52.21010000
C       51.21800000      47.78990000      56.11480000
C       51.21800000      52.21020000      43.88520000
C       48.78200000      52.21010000      56.11480000
C       52.21010000      43.88520000      51.21800000
C       52.21010000      56.11480000      48.78200000
C       47.78990000      56.11480000      51.21800000
C       47.78990000      48.78200000      43.88520000
C       43.88520000      47.78990000      48.78200000
C       48.78200000      43.88520000      47.78980000
C       52.21010000      48.78200000      56.11480000
C       47.78990000      51.21800000      56.11480000
C       52.21010000      51.21800000      43.88520000
C       56.11480000      47.78990000      51.21800000
C       43.88520000      52.21010000      51.21800000
C       56.11480000      52.21010000      48.78200000
C       51.21800000      43.88520000      52.21010000
C       48.78200000      56.11480000      52.21010000
C       51.21800000      56.11480000      47.78990000
C       54.72190000      52.69440000      46.28100000
C       52.69440000      46.28100000      54.72190000
C       46.28100000      54.72190000      52.69440000
C       45.27810000      52.69440000      53.71900000
C       45.27810000      47.30560000      46.28100000
C       54.72190000      47.30560000      53.71900000
C       47.30560000      46.28100000      45.27800000
C       47.30560000      53.71890000      54.72200000
C       52.69440000      53.71900000      45.27810000
C       53.71900000      54.72200000      47.30560000
C       53.71900000      45.27810000      52.69440000
C       46.28100000      45.27810000      47.30560000
C       46.28100000      52.69440000      54.72200000
C       54.72190000      46.28100000      52.69440000
C       52.69440000      54.72200000      46.28110000
C       53.71900000      52.69440000      45.27810000
C       46.28100000      47.30560000      45.27800000
C       53.71900000      47.30560000      54.72190000
C       45.27810000      46.28100000      47.30560000
C       54.72190000      53.71900000      47.30560000
C       45.27810000      53.71890000      52.69440000
C       47.30560000      54.72190000      53.71900000
C       52.69440000      45.27800000      53.71890000
C       47.30560000      45.27810000      46.28100000
C       53.12150000      45.02810000      51.28880000
C       45.02810000      51.28880000      53.12150000
C       51.28880000      53.12160000      45.02810000
C       46.87850000      45.02810000      48.71110000
C       46.87850000      54.97190000      51.28890000
C       53.12150000      54.97190000      48.71120000
C       54.97190000      51.28890000      46.87850000
C       54.97190000      48.71110000      53.12150000
C       45.02810000      48.71120000      46.87850000
C       48.71110000      53.12150000      54.97190000
C       48.71120000      46.87850000      45.02810000
C       51.28890000      46.87840000      54.97190000
C       51.28890000      45.02810000      53.12150000
C       53.12150000      51.28890000      45.02810000
C       45.02810000      53.12150000      51.28890000
C       48.71120000      45.02810000      46.87840000
C       51.28880000      54.97190000      46.87850000
C       48.71110000      54.97190000      53.12160000
C       46.87850000      51.28880000      54.97190000
C       53.12150000      48.71110000      54.97190000
C       46.87850000      48.71120000      45.02810000
C       54.97190000      53.12150000      48.71120000
C       45.02810000      46.87850000      48.71110000
C       54.97190000      46.87850000      51.28880000
C       49.98540000      56.87270000      51.99160000
C       56.87270000      51.99160000      49.98550000
C       51.99160000      49.98540000      56.87270000
C       50.01460000      56.87270000      48.00850000
C       50.01460000      43.12730000      51.99150000
C       49.98550000      43.12730000      48.00840000
C       43.12730000      51.99160000      50.01460000
C       43.12730000      48.00840000      49.98540000
C       56.87270000      48.00840000      50.01460000
C       48.00840000      49.98550000      43.12730000
C       48.00840000      50.01450000      56.87270000
C       51.99160000      50.01460000      43.12730000
C       51.99160000      56.87270000      49.98550000
C       49.98540000      51.99150000      56.87270000
C       56.87270000      49.98540000      51.99160000
C       48.00840000      56.87270000      50.01460000
C       51.99160000      43.12730000      50.01450000
C       48.00840000      43.12730000      49.98540000
C       50.01460000      51.99160000      43.12730000
C       49.98540000      48.00850000      43.12730000
C       50.01460000      48.00840000      56.87270000
C       43.12730000      49.98540000      48.00840000
C       56.87270000      50.01460000      48.00840000
C       43.12730000      50.01450000      51.99160000
C       47.55890000      53.46210000      51.45360000
C       53.46210000      51.45360000      47.55890000
C       51.45350000      47.55890000      53.46210000
C       52.44110000      53.46210000      48.54650000
C       52.44110000      46.53790000      51.45350000
C       47.55890000      46.53790000      48.54640000
C       46.53790000      51.45350000      52.44110000
C       46.53790000      48.54650000      47.55890000
C       53.46210000      48.54650000      52.44110000
C       48.54650000      47.55890000      46.53790000
C       48.54650000      52.44110000      53.46210000
C       51.45350000      52.44110000      46.53790000
C       51.45350000      53.46210000      47.55890000
C       47.55890000      51.45350000      53.46210000
C       53.46210000      47.55890000      51.45350000
C       48.54650000      53.46210000      52.44110000
C       51.45350000      46.53790000      52.44110000
C       48.54650000      46.53790000      47.55890000
C       52.44110000      51.45360000      46.53790000
C       47.55890000      48.54650000      46.53790000
C       52.44110000      48.54640000      53.46210000
C       46.53790000      47.55890000      48.54640000
C       53.46210000      52.44110000      48.54650000
C       46.53790000      52.44110000      51.45360000
C       51.02960000      57.88160000      49.99380000
C       57.88160000      49.99380000      51.02970000
C       49.99370000      51.02960000      57.88160000
C       48.97030000      57.88160000      50.00630000
C       48.97040000      42.11840000      49.99370000
C       51.02970000      42.11840000      50.00620000
C       42.11840000      49.99370000      48.97030000
C       42.11840000      50.00620000      51.02970000
C       57.88160000      50.00630000      48.97030000
C       50.00630000      51.02970000      42.11840000
C       50.00630000      48.97030000      57.88160000
C       49.99380000      48.97040000      42.11840000
C       49.99370000      57.88160000      51.02970000
C       51.02970000      49.99370000      57.88160000
C       57.88160000      51.02970000      49.99380000
C       50.00620000      57.88160000      48.97040000
C       49.99380000      42.11840000      48.97030000
C       50.00630000      42.11840000      51.02960000
C       48.97030000      49.99380000      42.11840000
C       51.02970000      50.00630000      42.11840000
C       48.97030000      50.00620000      57.88160000
C       42.11840000      51.02960000      50.00630000
C       57.88160000      48.97040000      50.00630000
C       42.11840000      48.97030000      49.99370000
C       51.22550000      55.21200000      53.23410000
C       55.21200000      53.23400000      51.22550000
C       53.23400000      51.22550000      55.21200000
C       48.77450000      55.21210000      46.76600000
C       48.77450000      44.78790000      53.23400000
C       51.22550000      44.78800000      46.76590000
C       44.78800000      53.23400000      48.77450000
C       44.78800000      46.76600000      51.22550000
C       55.21200000      46.76600000      48.77450000
C       46.76600000      51.22550000      44.78800000
C       46.76600000      48.77440000      55.21200000
C       53.23400000      48.77450000      44.78800000
C       53.23400000      55.21200000      51.22560000
C       51.22550000      53.23400000      55.21210000
C       55.21200000      51.22550000      53.23400000
C       46.76600000      55.21200000      48.77450000
C       53.23400000      44.78800000      48.77440000
C       46.76600000      44.78790000      51.22550000
C       48.77450000      53.23410000      44.78800000
C       51.22550000      46.76600000      44.78790000
C       48.77450000      46.76590000      55.21200000
C       44.78800000      51.22550000      46.76600000
C       55.21200000      48.77450000      46.76600000
C       44.78800000      48.77440000      53.23400000
C       46.60100000      52.38970000      45.59810000
C       52.38970000      45.59810000      46.60100000
C       45.59810000      46.60100000      52.38970000
C       53.39900000      52.38970000      54.40200000
C       53.39900000      47.61030000      45.59800000
C       46.60100000      47.61020000      54.40190000
C       47.61030000      45.59800000      53.39890000
C       47.61030000      54.40200000      46.60100000
C       52.38970000      54.40190000      53.39900000
C       54.40200000      46.60100000      47.61030000
C       54.40190000      53.39900000      52.38970000
C       45.59810000      53.39900000      47.61030000
C       45.59810000      52.38970000      46.60100000
C       46.60100000      45.59800000      52.38970000
C       52.38970000      46.60110000      45.59800000
C       54.40190000      52.38970000      53.39900000
C       45.59810000      47.61020000      53.39900000
C       54.40200000      47.61030000      46.60100000
C       53.39900000      45.59810000      47.61020000
C       46.60100000      54.40200000      47.61030000
C       53.39900000      54.40190000      52.38980000
C       47.61030000      46.60100000      54.40190000
C       52.38970000      53.39900000      54.40200000
C       47.61030000      53.39900000      45.59810000
C       49.99030000      54.83180000      53.85960000
C       54.83180000      53.85950000      49.99030000
C       53.85950000      49.99020000      54.83190000
C       50.00970000      54.83190000      46.14050000
C       50.00970000      45.16810000      53.85950000
C       49.99030000      45.16820000      46.14040000
C       45.16810000      53.85950000      50.00980000
C       45.16820000      46.14050000      49.99020000
C       54.83190000      46.14050000      50.00970000
C       46.14050000      49.99030000      45.16810000
C       46.14050000      50.00970000      54.83190000
C       53.85950000      50.00980000      45.16810000
C       53.85950000      54.83190000      49.99030000
C       49.99030000      53.85950000      54.83190000
C       54.83190000      49.99030000      53.85950000
C       46.14050000      54.83180000      50.00980000
C       53.85950000      45.16820000      50.00970000
C       46.14050000      45.16810000      49.99020000
C       50.00970000      53.85960000      45.16820000
C       49.99030000      46.14050000      45.16810000
C       50.00970000      46.14040000      54.83180000
C       45.16810000      49.99030000      46.14050000
C       54.83190000      50.00980000      46.14050000
C       45.16810000      50.00970000      53.85950000
C       47.76130000      48.77430000      56.20360000
C       48.77430000      56.20370000      47.76130000
C       56.20370000      47.76130000      48.77430000
C       52.23870000      48.77440000      43.79630000
C       52.23870000      51.22560000      56.20370000
C       47.76130000      51.22570000      43.79640000
C       51.22560000      56.20360000      52.23880000
C       51.22570000      43.79640000      47.76120000
C       48.77440000      43.79630000      52.23870000
C       43.79640000      47.76120000      51.22560000
C       43.79630000      52.23870000      48.77440000
C       56.20360000      52.23870000      51.22570000
C       56.20370000      48.77440000      47.76130000
C       47.76130000      56.20370000      48.77440000
C       48.77430000      47.76120000      56.20360000
C       43.79630000      48.77430000      52.23870000
C       56.20360000      51.22560000      52.23870000
C       43.79630000      51.22570000      47.76130000
C       52.23870000      56.20360000      51.22570000
C       47.76130000      43.79630000      51.22560000
C       52.23880000      43.79640000      48.77430000
C       51.22570000      47.76130000      43.79630000
C       48.77430000      52.23880000      43.79640000
C       51.22560000      52.23870000      56.20370000
