240
Lattice="100.0 0.0 0.0 0.0 100.0 0.0 0.0 0.0 100.0" Properties=species:S:1:pos:R:3 name=C-71174-8496-762 pressure=0.00897191778457522 spacegroup=C1 times_found=1 energy=-1764.83478452261 pbc="T T T"
C       44.75360000      50.73550000      54.42720000
C       50.80790000      54.81600000      44.26260000
C       54.55770000      44.72030000      50.53270000
C       56.08020000      50.78400000      45.08760000
C       55.41250000      49.02360000      54.54630000
C       44.77940000      49.26850000      45.63940000
C       49.56470000      54.59300000      55.56920000
C       49.41800000      45.17500000      44.19600000
C       50.67180000      45.07120000      56.00310000
C       45.10790000      44.52390000      49.32180000
C       45.12180000      55.47480000      50.73570000
C       54.48390000      55.51780000      48.97670000
C       44.73330000      49.27520000      54.43860000
C       50.86610000      45.23700000      44.33810000
C       54.61500000      55.57980000      50.41440000
C       56.09770000      49.34270000      45.08120000
C       55.34390000      50.47080000      54.57000000
C       44.77280000      50.73150000      45.62910000
C       49.23080000      45.11030000      56.00590000
C       49.36000000      54.86070000      44.11710000
C       50.99650000      54.45750000      55.46400000
C       45.08730000      55.50010000      49.27260000
C       45.10580000      44.53430000      50.78600000
C       54.52450000      44.66790000      49.08030000
C       46.61540000      51.80570000      44.48730000
C       51.63250000      44.21110000      46.36930000
C       43.96390000      46.45990000      51.70630000
C       53.56830000      51.46080000      55.78950000
C       53.86190000      48.27800000      44.44450000
C       46.53460000      48.18590000      55.63680000
C       48.17160000      44.56750000      53.75600000
C       48.14650000      55.58970000      46.27460000
C       51.86430000      55.51740000      53.45090000
C       55.79270000      46.48920000      48.05120000
C       55.43160000      53.52280000      51.61930000
C       43.98420000      53.56250000      48.34470000
C       46.63350000      48.19900000      44.51290000
C       51.56710000      55.88900000      46.27690000
C       44.00640000      53.54260000      51.66820000
C       53.56120000      47.99790000      55.76660000
C       53.83850000      51.81190000      44.42040000
C       46.61580000      51.77820000      55.57920000
C       48.31420000      55.33220000      53.52670000
C       48.20030000      44.46390000      46.35880000
C       51.69860000      44.51410000      53.71890000
C       55.65120000      53.60120000      48.05800000
C       55.79460000      46.46990000      51.54350000
C       43.99510000      46.45060000      48.37690000
C       48.27090000      47.18270000      56.88210000
C       47.10810000      56.25560000      48.21440000
C       56.98140000      48.32250000      47.12670000
C       51.93830000      47.27550000      43.67840000
C       51.89540000      52.61770000      56.76390000
C       48.41410000      52.75830000      43.30930000
C       52.71230000      56.66750000      51.55950000
C       52.64960000      43.40060000      48.22640000
C       47.16840000      43.87160000      51.81720000
C       43.18150000      48.30260000      52.80350000
C       43.21330000      51.71650000      47.24410000
C       56.23390000      51.65050000      52.66870000
C       48.45210000      52.72330000      56.73280000
C       47.15770000      43.80260000      48.29850000
C       56.89860000      51.80200000      47.15930000
C       51.90340000      52.77850000      43.63480000
C       51.73940000      47.06080000      56.95580000
C       48.44680000      47.25120000      43.35280000
C       52.65530000      43.83410000      51.73110000
C       52.60310000      56.76920000      48.09580000
C       47.20780000      56.13400000      51.70730000
C       43.21580000      51.71860000      52.78380000
C       43.22360000      48.28820000      47.26170000
C       56.70730000      48.18850000      52.68000000
C       50.73010000      56.19470000      52.78460000
C       56.20540000      52.82440000      50.62710000
C       52.91210000      50.49300000      56.59570000
C       49.09750000      56.38800000      47.02290000
C       49.20020000      43.88620000      52.98390000
C       50.58770000      43.54420000      47.09430000
C       43.15460000      52.88070000      49.29510000
C       43.13890000      47.13620000      50.75070000
C       56.54840000      47.16470000      49.12900000
C       47.31980000      50.71960000      43.79500000
C       47.22850000      49.25540000      56.36610000
C       53.10780000      49.31030000      43.75400000
C       50.64860000      43.86070000      52.96070000
C       56.56910000      47.15550000      50.56300000
C       52.90730000      49.06090000      56.55990000
C       49.15850000      43.69460000      47.12310000
C       49.28940000      56.08240000      52.77950000
C       50.52480000      56.56320000      46.99240000
C       43.15320000      47.13170000      49.31740000
C       43.15790000      52.87660000      50.72800000
C       56.32330000      52.90020000      49.18390000
C       47.32720000      49.28350000      43.80590000
C       47.26390000      50.69730000      56.34040000
C       53.09930000      50.75990000      43.74220000
C       49.06250000      57.49510000      49.22740000
C       57.81090000      49.33610000      49.25050000
C       49.30510000      49.22040000      57.80320000
C       50.54680000      57.54760000      50.67560000
C       50.57710000      42.50410000      49.33360000
C       49.15470000      42.71840000      50.81140000
C       41.96920000      49.27820000      50.75100000
C       41.98360000      50.73870000      49.28520000
C       57.59690000      50.77510000      50.72510000
C       50.95390000      49.28830000      42.53290000
C       50.80390000      50.62860000      57.87680000
C       49.47310000      50.72400000      42.45760000
C       49.12340000      42.61440000      49.34790000
C       57.69620000      50.80330000      49.28350000
C       49.33230000      50.65980000      57.78900000
C       50.60310000      42.65810000      50.80000000
C       50.50990000      57.66330000      49.20390000
C       49.10800000      57.40040000      50.69050000
C       41.97410000      50.74310000      50.74680000
C       41.98120000      49.27430000      49.28970000
C       57.76660000      49.31140000      50.70290000
C       50.94560000      50.73670000      42.52020000
C       50.77380000      49.17560000      57.86930000
C       49.48140000      49.28370000      42.46980000
C       44.95130000      54.56030000      48.26960000
C       55.16890000      48.28150000      44.96260000
C       48.17160000      45.03520000      55.07740000
C       54.84010000      54.78460000      51.55420000
C       54.71940000      45.51800000      47.94850000
C       44.94550000      45.47670000      51.77970000
C       45.54360000      48.11090000      54.60280000
C       45.58920000      51.89640000      45.47890000
C       54.49230000      51.52540000      54.77070000
C       51.81100000      45.11250000      45.33030000
C       52.04390000      54.53220000      54.49510000
C       48.24940000      55.01160000      44.99360000
C       44.97190000      45.46070000      48.31660000
C       55.14090000      51.83100000      44.95120000
C       48.40560000      54.78090000      54.79820000
C       54.78880000      45.53280000      51.61220000
C       54.62740000      54.61000000      47.88910000
C       44.99480000      54.51810000      51.72160000
C       45.60490000      51.87630000      54.56030000
C       45.60620000      48.10940000      45.50420000
C       54.52940000      47.90990000      54.69110000
C       51.74760000      54.96590000      45.25550000
C       51.71800000      44.97130000      55.05060000
C       48.30490000      45.02360000      45.07010000
C       53.56500000      56.64620000      49.05400000
C       56.52530000      49.16180000      53.61890000
C       49.49520000      53.64930000      56.67490000
C       46.26470000      56.34550000      50.72830000
C       46.25980000      43.66590000      49.32560000
C       53.52940000      43.72680000      50.67010000
C       43.51340000      49.27460000      46.35810000
C       43.49100000      50.73800000      53.69750000
C       57.01510000      50.80610000      46.20000000
C       50.88740000      53.67420000      43.39290000
C       50.71090000      46.13680000      56.99130000
C       49.46440000      46.31170000      43.29980000
C       53.56250000      43.58790000      49.21890000
C       56.36810000      50.61440000      53.57120000
C       49.24080000      46.19060000      56.97730000
C       46.26500000      43.68500000      50.79870000
C       46.22250000      56.37990000      49.25440000
C       53.62570000      56.64460000      50.50920000
C       43.50710000      50.72360000      46.34850000
C       43.47390000      49.29060000      53.70600000
C       57.04220000      49.33520000      46.18500000
C       50.93190000      46.36510000      43.45030000
C       50.95160000      53.59470000      56.64060000
C       49.41970000      53.70970000      43.23970000
C       48.43840000      48.63070000      43.08900000
C       48.46580000      43.24340000      48.30030000
C       42.60840000      48.26630000      48.58530000
C       51.78530000      48.44060000      57.26880000
C       51.94340000      51.42900000      43.17890000
C       48.36990000      51.34730000      57.08020000
C       51.31250000      43.32830000      51.78110000
C       51.21840000      57.17570000      48.12990000
C       48.53130000      56.65080000      51.69130000
C       57.19280000      48.23410000      51.32770000
C       57.09860000      51.81450000      48.56200000
C       42.60220000      51.74540000      51.45770000
C       48.42260000      51.37470000      43.06690000
C       48.40460000      56.84110000      48.19670000
C       42.60630000      51.74260000      48.57150000
C       51.85480000      51.26200000      57.25760000
C       51.96000000      48.61850000      43.20260000
C       48.28600000      48.57200000      57.14020000
C       51.31430000      56.93580000      51.64680000
C       51.27720000      42.97190000      48.24880000
C       48.50130000      43.37740000      51.82810000
C       56.79780000      51.71370000      51.35130000
C       57.25100000      48.29850000      48.51570000
C       42.58410000      48.27460000      51.47050000
C       53.01660000      53.01040000      44.57430000
C       52.88370000      44.72170000      52.88610000
C       44.13210000      52.78850000      52.84360000
C       47.31400000      52.98130000      55.89830000
C       47.29600000      46.98150000      44.16220000
C       52.85710000      46.79530000      56.07870000
C       46.99020000      44.71320000      47.15110000
C       47.05960000      55.18220000      52.80890000
C       52.76110000      55.88610000      47.01040000
C       56.04500000      52.92300000      46.86410000
C       55.80390000      47.11910000      52.78230000
C       44.12120000      47.20060000      47.19950000
C       53.05740000      47.07010000      44.61770000
C       53.03040000      55.84320000      52.69430000
C       44.07480000      47.21470000      52.88180000
C       47.14470000      46.95200000      56.02020000
C       47.26250000      53.02630000      44.11840000
C       52.91530000      52.69360000      55.80060000
C       46.94620000      55.33030000      47.07810000
C       46.96710000      44.77930000      52.95170000
C       52.82380000      44.24200000      47.11100000
C       56.13360000      47.18500000      46.84920000
C       55.27480000      52.75170000      52.84020000
C       44.10420000      52.80900000      47.16970000
C       45.87780000      45.65690000      47.13510000
C       45.28040000      46.93870000      46.43670000
C       47.16700000      45.77470000      44.73410000
C       54.01290000      45.63490000      52.88470000
C       53.64080000      54.81450000      46.73850000
C       45.91690000      54.28800000      52.87550000
C       54.71250000      46.82450000      53.63320000
C       55.44910000      53.01070000      45.65890000
C       45.30280000      53.03200000      53.59730000
C       52.90850000      45.63850000      55.39630000
C       52.98460000      54.15040000      45.47320000
C       47.23110000      54.15000000      55.24430000
C       45.84750000      54.36870000      47.08080000
C       45.25660000      53.07450000      46.39780000
C       47.12070000      54.23930000      44.67430000
C       54.20880000      55.19830000      52.73950000
C       53.70890000      45.30300000      46.81200000
C       45.83460000      45.68950000      52.96680000
C       54.35720000      52.76730000      53.96780000
C       55.49790000      47.10810000      45.66780000
C       45.22640000      46.95460000      53.65900000
C       53.16350000      53.51470000      54.67790000
C       53.04430000      45.94130000      45.53300000
C       47.00590000      45.75660000      55.41940000
