240
Lattice="100.0 0.0 0.0 0.0 100.0 0.0 0.0 0.0 100.0" Properties=species:S:1:pos:R:3 name=C-71174-8496-247 pressure=2.57398967471994 energy=-1733.65620202034 spacegroup=Th times_found=1 pbc="T T T"
C       52.67370000      50.75390000      44.07120000
C       44.07420000      52.67830000      50.76090000
C       50.76130000      44.07630000      52.68280000
C       47.32180000      49.23140000      44.07510000
C       47.32680000      50.77000000      55.92690000
C       52.67770000      49.24470000      55.92680000
C       55.92640000      47.32360000      50.76300000
C       55.92730000      52.67310000      49.23250000
C       44.07210000      47.32500000      49.24360000
C       49.24070000      55.93040000      52.66860000
C       49.23540000      44.07000000      47.33190000
C       50.76260000      55.92330000      47.31670000
C       52.67820000      50.76860000      55.92490000
C       44.07360000      52.67640000      49.23700000
C       50.75930000      44.06960000      47.33140000
C       47.32630000      49.24610000      55.92880000
C       47.32230000      50.75530000      44.07320000
C       52.67320000      49.22990000      44.07310000
C       55.92580000      47.32170000      49.23910000
C       55.92790000      52.67500000      50.75640000
C       44.07270000      47.32690000      50.76750000
C       49.23870000      55.92370000      47.31720000
C       49.23740000      44.07670000      52.68330000
C       50.76460000      55.93000000      52.66810000
C       56.48820000      48.50560000      48.54910000
C       48.55100000      56.48780000      48.50170000
C       48.51130000      48.55820000      56.49160000
C       43.51060000      51.49080000      48.55030000
C       43.51090000      48.51280000      51.45460000
C       56.49020000      51.49080000      51.44600000
C       51.44790000      43.50850000      48.51670000
C       51.45270000      56.49070000      51.48220000
C       48.54850000      43.51300000      51.49940000
C       51.49370000      51.45790000      56.48680000
C       51.48790000      48.54120000      43.51200000
C       48.50710000      51.44260000      43.50960000
C       56.48940000      48.50920000      51.44970000
C       48.55210000      56.49150000      51.48330000
C       48.50630000      48.54210000      43.51320000
C       43.51180000      51.49440000      51.45090000
C       43.50980000      48.50920000      48.55400000
C       56.48910000      51.48720000      48.54540000
C       51.44900000      43.51220000      51.49830000
C       51.45150000      56.48700000      48.50060000
C       48.54730000      43.50930000      48.51780000
C       51.48870000      51.44180000      43.50840000
C       51.49290000      48.55740000      56.49040000
C       48.51210000      51.45880000      56.48800000
C       49.31500000      54.69060000      45.20380000
C       45.21090000      49.32270000      54.69900000
C       54.69470000      45.20720000      49.31970000
C       50.68140000      45.29750000      45.21490000
C       50.68760000      54.70210000      54.78460000
C       49.31600000      45.30980000      54.79670000
C       54.79260000      50.68900000      54.69370000
C       54.78870000      49.30830000      45.30270000
C       45.20780000      50.68000000      45.30460000
C       45.30470000      54.79110000      49.31130000
C       45.30260000      45.21150000      50.69220000
C       54.69790000      54.79020000      50.67680000
C       49.31860000      54.70250000      54.78510000
C       45.20740000      49.31100000      45.30630000
C       54.69530000      45.20890000      50.68870000
C       50.68500000      45.30940000      54.79620000
C       50.68400000      54.69020000      45.20330000
C       49.31240000      45.29790000      45.21540000
C       54.78910000      50.67730000      45.30100000
C       54.79220000      49.32000000      54.69540000
C       45.21130000      50.69170000      54.69730000
C       45.30520000      54.79280000      50.68030000
C       45.30210000      45.20980000      49.32320000
C       54.69740000      54.78850000      49.30780000
C       45.08500000      53.97180000      47.11490000
C       47.11820000      45.09070000      53.98120000
C       53.97130000      47.11080000      45.08700000
C       54.91280000      46.02110000      47.12110000
C       54.91720000      53.97620000      52.87520000
C       45.08500000      46.03100000      52.88880000
C       52.88490000      54.91920000      53.96680000
C       52.87910000      45.07920000      46.03100000
C       47.11790000      54.91090000      46.02100000
C       46.02490000      52.87700000      45.08290000
C       46.02710000      47.12520000      54.92010000
C       53.97670000      52.88700000      54.90990000
C       45.08720000      53.97890000      52.87890000
C       47.11510000      45.08080000      46.03320000
C       53.97510000      47.12300000      54.91710000
C       54.91500000      46.02820000      52.88500000
C       54.91500000      53.96900000      47.11120000
C       45.08280000      46.02380000      47.12480000
C       52.88180000      54.90930000      46.01880000
C       52.88210000      45.08910000      53.97900000
C       47.12090000      54.92080000      53.96900000
C       46.02870000      52.88920000      54.91300000
C       46.02330000      47.11300000      45.09010000
C       53.97290000      52.87480000      45.07990000
C       55.11530000      53.13380000      45.95390000
C       45.96230000      55.12100000      53.13540000
C       53.14100000      45.96520000      55.11980000
C       44.88160000      46.85620000      45.96550000
C       44.88640000      53.14670000      54.03830000
C       55.11660000      46.86340000      54.04230000
C       54.04010000      44.88680000      53.14500000
C       54.04050000      55.11100000      46.85190000
C       45.95710000      44.88130000      46.86770000
C       46.86280000      54.04750000      55.11210000
C       46.85670000      45.95420000      44.89020000
C       53.13940000      54.03310000      44.87780000
C       55.11840000      53.14380000      54.03450000
C       45.95990000      55.11320000      46.85500000
C       53.13720000      45.95250000      44.88780000
C       44.88470000      46.86620000      54.04610000
C       44.88340000      53.13660000      45.95770000
C       55.11360000      46.85330000      45.96170000
C       54.03770000      44.87900000      46.86460000
C       54.04290000      55.11870000      53.13230000
C       45.95950000      44.88900000      53.14810000
C       46.85890000      54.03480000      44.88020000
C       46.86060000      45.96690000      55.12220000
C       53.14330000      54.04580000      55.10980000
C       56.36300000      47.43860000      45.67550000
C       45.67550000      56.36340000      47.43950000
C       47.44700000      45.68340000      56.37170000
C       43.63370000      52.55060000      45.67400000
C       43.63550000      47.45290000      54.33080000
C       56.36770000      52.55780000      54.31970000
C       54.32250000      43.63030000      47.45200000
C       54.32800000      56.36730000      52.54470000
C       45.67390000      43.63900000      52.56380000
C       52.55780000      54.33240000      56.35900000
C       52.55060000      45.66610000      43.63900000
C       47.44460000      54.31810000      43.63020000
C       56.36630000      47.44940000      54.32600000
C       45.67750000      56.36970000      52.54800000
C       47.44210000      45.66760000      43.64100000
C       43.63700000      52.56140000      54.32450000
C       43.63230000      47.44220000      45.68030000
C       56.36440000      52.54710000      45.66920000
C       54.32450000      43.63660000      52.56050000
C       54.32610000      56.36100000      47.43620000
C       45.67200000      43.63270000      47.45530000
C       52.55300000      54.31670000      43.62830000
C       52.55540000      45.68190000      56.36980000
C       47.44940000      54.33390000      56.36100000
C       43.82460000      49.28480000      47.34430000
C       47.33900000      43.82560000      49.29510000
C       49.28330000      47.33360000      43.82930000
C       56.17340000      50.70860000      47.33780000
C       56.17500000      49.28800000      52.65750000
C       43.82700000      50.71860000      52.66040000
C       52.66040000      56.17260000      49.27770000
C       52.65750000      43.82590000      50.72020000
C       47.34300000      56.17580000      50.70690000
C       50.71200000      52.65110000      43.82220000
C       50.71520000      47.34850000      56.17720000
C       49.28950000      52.66680000      56.17120000
C       43.82660000      49.29140000      52.66220000
C       47.33960000      43.82740000      50.72220000
C       49.28800000      47.34890000      56.17780000
C       56.17540000      50.71520000      52.65570000
C       56.17300000      49.28140000      47.33960000
C       43.82500000      50.71200000      47.34250000
C       52.66100000      56.17440000      50.70490000
C       52.65700000      43.82420000      49.29310000
C       47.34250000      56.17410000      49.27980000
C       50.71670000      52.66640000      56.17060000
C       50.71050000      47.33320000      43.82880000
C       49.28480000      52.65150000      43.82280000
C       49.29240000      42.63300000      50.73810000
C       50.72570000      49.28480000      42.63250000
C       42.63180000      50.72990000      49.29610000
C       50.70810000      57.36880000      50.71930000
C       50.70350000      42.63080000      49.28020000
C       49.29600000      57.36740000      49.26240000
C       49.26870000      50.69690000      42.63130000
C       49.27390000      49.30350000      57.36930000
C       50.73170000      50.71480000      57.36700000
C       57.36770000      49.26840000      49.29230000
C       57.36860000      50.72750000      50.70210000
C       42.63190000      49.27420000      50.70950000
C       49.29190000      42.63120000      49.28070000
C       50.73130000      49.30310000      57.36870000
C       42.63230000      50.73160000      50.70770000
C       50.70760000      57.36700000      49.26190000
C       50.70400000      42.63260000      50.73760000
C       49.29650000      57.36920000      50.71980000
C       49.27430000      50.71520000      57.36750000
C       49.26830000      49.28520000      42.63300000
C       50.72610000      50.69650000      42.63070000
C       57.36820000      49.27010000      50.70390000
C       57.36810000      50.72580000      49.29050000
C       42.63140000      49.27250000      49.29790000
C       51.48670000      44.72880000      53.77540000
C       53.76780000      51.47910000      44.72120000
C       44.72610000      53.77270000      51.48410000
C       48.51620000      55.28060000      53.76350000
C       48.51040000      44.72020000      46.23770000
C       51.48680000      55.27040000      46.22350000
C       46.22810000      48.50780000      44.72780000
C       46.23300000      51.49430000      55.27510000
C       53.77100000      48.51880000      55.27590000
C       55.27500000      46.23090000      51.48940000
C       55.27600000      53.76610000      48.50660000
C       44.72290000      46.23020000      48.51990000
C       51.48380000      44.71940000      46.23650000
C       53.77190000      51.49220000      55.27220000
C       44.72500000      53.76910000      48.51060000
C       48.51330000      55.27120000      46.22460000
C       48.51320000      44.72960000      53.77650000
C       51.48960000      55.27980000      53.76230000
C       46.23220000      48.52090000      55.27880000
C       46.22900000      51.48120000      44.72410000
C       53.76700000      48.50570000      44.72490000
C       55.27390000      46.22720000      48.51590000
C       55.27710000      53.76980000      51.48010000
C       44.72400000      46.23390000      51.49340000
C       46.09100000      55.82920000      48.65980000
C       48.66670000      46.09750000      55.83510000
C       55.82790000      48.65910000      46.08930000
C       53.90800000      44.16750000      48.67130000
C       53.91230000      55.83030000      51.32570000
C       46.08870000      44.17300000      51.34310000
C       51.33770000      53.91700000      55.82440000
C       51.33110000      46.08220000      44.17460000
C       48.66440000      53.90330000      44.16590000
C       44.16920000      51.33120000      46.09040000
C       44.17140000      48.67210000      53.91400000
C       55.83160000      51.33760000      53.90630000
C       46.09200000      55.83250000      51.32870000
C       48.66230000      46.08300000      44.17560000
C       55.83080000      48.66880000      53.90960000
C       53.90900000      44.17080000      51.34020000
C       53.91130000      55.82700000      48.65690000
C       46.08770000      44.16970000      48.67430000
C       51.33330000      53.90250000      44.16490000
C       51.33560000      46.09670000      55.83410000
C       48.66890000      53.91780000      55.82540000
C       44.17210000      51.34090000      53.91070000
C       44.16840000      48.66230000      46.09370000
C       55.82860000      51.32790000      46.08600000
