240
Lattice="100.0 0.0 0.0 0.0 100.0 0.0 0.0 0.0 100.0" Properties=species:S:1:pos:R:3 name=C-71174-8496-355 pressure=-2.29719112367593 spacegroup=C1 times_found=1 energy=-1769.02612230563 pbc="T T T"
C       53.80160000      47.90960000      44.31090000
C       43.84690000      53.26620000      48.30560000
C       47.48070000      43.71290000      53.18590000
C       53.81480000      52.60090000      56.55220000
C       46.31220000      52.40510000      44.08590000
C       46.54370000      48.25930000      55.16920000
C       43.45060000      46.26770000      52.57790000
C       56.57530000      46.18880000      47.29350000
C       55.79890000      53.44050000      52.13110000
C       47.97950000      55.29610000      46.54280000
C       52.04070000      55.81100000      54.11950000
C       52.71370000      43.35110000      46.28380000
C       46.64240000      46.95010000      44.09620000
C       56.01880000      53.35350000      47.58630000
C       51.85360000      44.44840000      53.31190000
C       46.79610000      52.88140000      55.70710000
C       53.32090000      52.34790000      43.57200000
C       53.85580000      48.12930000      55.46930000
C       56.30100000      46.37910000      52.60180000
C       43.80610000      46.02700000      48.04380000
C       43.69480000      53.39370000      51.75350000
C       52.62470000      55.89590000      46.92920000
C       47.46690000      55.99650000      53.70650000
C       47.34780000      43.73780000      45.87150000
C       44.97450000      50.33420000      46.31540000
C       45.48260000      44.41620000      50.22570000
C       51.02780000      45.58580000      44.74030000
C       44.29090000      49.22010000      54.19940000
C       55.78580000      49.01180000      45.50360000
C       55.48420000      50.50900000      54.15280000
C       45.81500000      56.28990000      49.25130000
C       54.38780000      55.46960000      51.30790000
C       54.12610000      44.99690000      49.16830000
C       51.08240000      54.67140000      56.22100000
C       49.05210000      54.02790000      44.57280000
C       49.50540000      45.94470000      54.99820000
C       55.50650000      50.35960000      45.47480000
C       53.97210000      45.11960000      50.51630000
C       49.67270000      45.51500000      44.53790000
C       55.76550000      49.17370000      54.14300000
C       44.92960000      48.94860000      46.23070000
C       44.45230000      50.60380000      54.06830000
C       54.46500000      55.70880000      49.92750000
C       45.74650000      56.35010000      50.66400000
C       45.51280000      44.28430000      48.84470000
C       49.71140000      54.76980000      56.09800000
C       50.40780000      54.01480000      44.76710000
C       50.89730000      46.09340000      55.06650000
C       53.22770000      49.27170000      55.98790000
C       56.62330000      52.62170000      48.52680000
C       48.68920000      56.43100000      53.16810000
C       52.81150000      51.10960000      43.19290000
C       47.33070000      51.61930000      55.98440000
C       46.94340000      48.31640000      44.45270000
C       56.03030000      46.75290000      51.22080000
C       43.32860000      46.57910000      49.19940000
C       43.03830000      52.70110000      50.75320000
C       48.69560000      43.86960000      46.37760000
C       50.75760000      43.94600000      52.69130000
C       51.37890000      56.20200000      47.43960000
C       47.15720000      49.42700000      55.58910000
C       43.13590000      52.63470000      49.30060000
C       50.90420000      56.24710000      53.46270000
C       46.75020000      51.03130000      44.36030000
C       53.19650000      51.36620000      56.83050000
C       53.11680000      48.99510000      43.82670000
C       42.88750000      46.73750000      51.38010000
C       56.24040000      46.63260000      48.63440000
C       56.32740000      52.92880000      50.89060000
C       51.36390000      43.72620000      46.54090000
C       48.67070000      43.39810000      52.55170000
C       49.18170000      55.73470000      47.17340000
C       48.91960000      53.62820000      56.40990000
C       56.42760000      48.63760000      53.04410000
C       53.36700000      56.14210000      49.17890000
C       48.91670000      46.56200000      43.98840000
C       51.55970000      47.27340000      55.49770000
C       51.12890000      52.97860000      44.14540000
C       55.77180000      51.14860000      46.63920000
C       43.79940000      51.26780000      53.01110000
C       44.08610000      48.24080000      47.13860000
C       52.86690000      44.52280000      51.14540000
C       46.71020000      43.92080000      48.15910000
C       46.83890000      56.17920000      51.46580000
C       51.63100000      53.49400000      56.78540000
C       43.44860000      48.53560000      53.28980000
C       46.99130000      55.98460000      48.60170000
C       51.73210000      46.76330000      44.53530000
C       48.64430000      47.09670000      55.20350000
C       48.50830000      52.96150000      43.85020000
C       44.19940000      51.03150000      47.26860000
C       55.74980000      51.27920000      52.99160000
C       56.39450000      48.43790000      46.63890000
C       46.67180000      44.08670000      50.93360000
C       53.13780000      44.32370000      48.40270000
C       53.17310000      55.66300000      52.01000000
C       56.66220000      47.28370000      53.52060000
C       53.69040000      56.04070000      47.76360000
C       47.50500000      53.94230000      56.21520000
C       55.44430000      52.59710000      46.52660000
C       44.11230000      52.64790000      52.88370000
C       44.09010000      46.84790000      46.94930000
C       52.97950000      44.62920000      52.54980000
C       46.36710000      44.04430000      46.75290000
C       46.49300000      55.59750000      52.78460000
C       47.57820000      46.08740000      43.64320000
C       52.99630000      47.07870000      55.23700000
C       52.51220000      53.23710000      44.21580000
C       43.68830000      47.15600000      53.56160000
C       46.80530000      55.26560000      47.34310000
C       53.04000000      53.69420000      56.59460000
C       44.33690000      52.44590000      47.27780000
C       55.43100000      52.67880000      53.18630000
C       56.45600000      47.05510000      46.27620000
C       46.55520000      44.27710000      52.36330000
C       53.55450000      44.08490000      47.07690000
C       53.17920000      55.34870000      53.41400000
C       53.18400000      46.71150000      44.74370000
C       47.20540000      47.03660000      54.86000000
C       47.14080000      53.38960000      43.70110000
C       46.44980000      50.64490000      55.56010000
C       55.35790000      45.42520000      48.65100000
C       50.42250000      55.73730000      46.53730000
C       45.73670000      51.06590000      45.42080000
C       54.91700000      51.07820000      55.31430000
C       53.80950000      50.19580000      43.56870000
C       56.21960000      54.29700000      50.36920000
C       44.62700000      55.46890000      49.21530000
C       44.37040000      44.98840000      50.92490000
C       49.01790000      44.65010000      54.52840000
C       51.50410000      44.28510000      45.11920000
C       49.68070000      56.34680000      54.14110000
C       54.00020000      50.42380000      56.18900000
C       43.35000000      45.84640000      50.39310000
C       51.07660000      54.95600000      45.56370000
C       54.84160000      50.87570000      44.33400000
C       45.41690000      51.28040000      54.82510000
C       45.71790000      48.27490000      45.28440000
C       44.56580000      55.51770000      50.69690000
C       55.57710000      55.00100000      49.35030000
C       54.99210000      45.72560000      51.25590000
C       49.61860000      43.85130000      53.45480000
C       49.01490000      44.36500000      45.05040000
C       49.12890000      55.80260000      55.30890000
C       53.27440000      53.94070000      45.26930000
C       45.11270000      53.40070000      53.64370000
C       53.94650000      45.34570000      53.36280000
C       53.19640000      45.86340000      54.52250000
C       47.19580000      44.72350000      43.40410000
C       46.99230000      55.25900000      56.13440000
C       44.89130000      46.09530000      45.98950000
C       56.06540000      47.01070000      54.82620000
C       54.57920000      53.10050000      45.44490000
C       54.82290000      55.46990000      47.23100000
C       45.37500000      54.64310000      52.84860000
C       45.16330000      44.81280000      46.62090000
C       46.86600000      54.66930000      44.35170000
C       54.78210000      53.30090000      54.32650000
C       45.68640000      45.22200000      53.01990000
C       45.98530000      46.16800000      54.14320000
C       54.31140000      45.91500000      45.37580000
C       53.30350000      54.70890000      55.64060000
C       55.50660000      46.75190000      45.23960000
C       44.85230000      46.99610000      54.35480000
C       45.23540000      53.22110000      46.44160000
C       45.57890000      54.46970000      47.18820000
C       53.98570000      54.52870000      54.38620000
C       54.50160000      44.95590000      46.43430000
C       50.95640000      52.20460000      56.75470000
C       56.16200000      50.63450000      51.68440000
C       51.92700000      56.10580000      51.24440000
C       50.88960000      48.03100000      44.13140000
C       49.35750000      48.43670000      55.72310000
C       49.05720000      51.62010000      43.86350000
C       56.34070000      49.00530000      47.96590000
C       43.08460000      49.06310000      52.01250000
C       43.51530000      50.33130000      48.33720000
C       51.77040000      44.03440000      48.91070000
C       47.96520000      43.74670000      50.24150000
C       48.24930000      56.20920000      49.36040000
C       49.52390000      52.25940000      56.51360000
C       43.18200000      50.50510000      51.93710000
C       48.17100000      56.33550000      50.85750000
C       49.36790000      47.94170000      44.07880000
C       50.87700000      48.46770000      55.88680000
C       50.52070000      51.67240000      43.77390000
C       43.52050000      48.86750000      48.35020000
C       56.32790000      49.15220000      51.70500000
C       56.20110000      50.46730000      47.93550000
C       48.01850000      43.79180000      48.74580000
C       51.64430000      44.07870000      50.39940000
C       52.01830000      56.23720000      49.76270000
C       56.24170000      48.05950000      50.61830000
C       50.92210000      56.31570000      48.76340000
C       48.62850000      51.14660000      56.25620000
C       56.45060000      51.39800000      49.05910000
C       42.88640000      51.25010000      50.79880000
C       43.14010000      48.00040000      49.44210000
C       50.52540000      43.77700000      51.26160000
C       49.18140000      43.83760000      47.73900000
C       49.21300000      56.41060000      51.84350000
C       48.21210000      48.98360000      44.21450000
C       51.81190000      49.55390000      56.25470000
C       51.48220000      50.63050000      43.47570000
C       42.87710000      48.09510000      50.93620000
C       49.41360000      56.12790000      48.57510000
C       51.81880000      51.02190000      56.73930000
C       43.01680000      51.17800000      49.34680000
C       56.35450000      51.54670000      50.54380000
C       56.27470000      47.99120000      49.12950000
C       49.04900000      43.53020000      51.17270000
C       50.71900000      43.86780000      47.80480000
C       50.72330000      56.29990000      52.02830000
C       51.67860000      49.17510000      43.78920000
C       48.53770000      49.61360000      55.92390000
C       48.08470000      50.48810000      44.11880000
C       45.55550000      52.48510000      45.32320000
C       44.47190000      45.31430000      52.30700000
C       52.69150000      43.58640000      44.85960000
C       45.16110000      48.27080000      54.83330000
C       55.17540000      47.99030000      44.69760000
C       54.72520000      52.46020000      55.45400000
C       44.57550000      54.50800000      48.24190000
C       55.56910000      54.73880000      51.61380000
C       55.61020000      45.13740000      47.28690000
C       52.07620000      55.37990000      55.47660000
C       48.00420000      54.84690000      45.17030000
C       47.69650000      44.19670000      54.54760000
C       54.52240000      52.23230000      44.32700000
C       55.11550000      45.55240000      52.66990000
C       47.67520000      44.20890000      44.53900000
C       55.25170000      48.13320000      55.02950000
C       45.54100000      46.86380000      45.03490000
C       45.69960000      52.69850000      54.73680000
C       55.61730000      54.68560000      47.97300000
C       44.44930000      54.61370000      51.73520000
C       44.57630000      44.83010000      47.91550000
C       47.70930000      55.79440000      55.12510000
C       52.49440000      54.95290000      45.84430000
C       51.90970000      45.25860000      54.47490000
