240
Lattice="100.0 0.0 0.0 0.0 100.0 0.0 0.0 0.0 100.0" Properties=species:S:1:pos:R:3 name=C-71174-8496-176 pressure=5.53947867638128 spacegroup=Th times_found=1 energy=-1740.03513471806 pbc="T T T"
C       54.86320000      46.89080000      53.02350000
C       46.89090000      53.02420000      54.86280000
C       53.02320000      54.86250000      46.88940000
C       45.13740000      46.88960000      46.97680000
C       45.13790000      53.10950000      53.02500000
C       54.86150000      53.11010000      46.97460000
C       53.10850000      53.02430000      45.13690000
C       53.11100000      46.97630000      54.86190000
C       46.88960000      46.97520000      45.13840000
C       46.97590000      54.86220000      53.11010000
C       46.97560000      45.13720000      46.89100000
C       53.02530000      45.13810000      53.10940000
C       54.86260000      53.11040000      53.02320000
C       46.89150000      46.97570000      54.86310000
C       53.02410000      45.13780000      46.88990000
C       45.13680000      53.10910000      46.97650000
C       45.13850000      46.88990000      53.02540000
C       54.86210000      46.89050000      46.97500000
C       53.10910000      46.97580000      45.13720000
C       53.11040000      53.02480000      54.86160000
C       46.88900000      53.02370000      45.13810000
C       46.97680000      45.13750000      53.11060000
C       46.97470000      54.86190000      46.89060000
C       53.02440000      54.86280000      53.10900000
C       48.62110000      45.74160000      43.00270000
C       45.74250000      43.00170000      48.62320000
C       43.00150000      48.62110000      45.74350000
C       51.37980000      45.74250000      56.99770000
C       51.37630000      54.25770000      43.00170000
C       48.62290000      54.25820000      56.99780000
C       54.25890000      43.00270000      51.37750000
C       54.25700000      56.99810000      48.62080000
C       45.74160000      56.99740000      51.37850000
C       56.99870000      48.62290000      54.25670000
C       56.99680000      51.37850000      45.74060000
C       43.00290000      51.37750000      54.25920000
C       48.62020000      54.25750000      43.00230000
C       45.74110000      56.99730000      48.62250000
C       43.00130000      51.37710000      45.74330000
C       51.37890000      54.25840000      56.99730000
C       51.37710000      45.74180000      43.00220000
C       48.62370000      45.74230000      56.99830000
C       54.25750000      56.99830000      51.37680000
C       54.25840000      43.00260000      48.62150000
C       45.74300000      43.00190000      51.37920000
C       56.99850000      51.37890000      54.25650000
C       56.99710000      48.62250000      45.74080000
C       43.00320000      48.62150000      54.25940000
C       51.90740000      44.25650000      47.37570000
C       44.25700000      47.37530000      51.90860000
C       47.37450000      51.90680000      44.25680000
C       48.09370000      44.25630000      52.62480000
C       48.09160000      55.74330000      47.37590000
C       51.90730000      55.74390000      52.62350000
C       55.74350000      47.37630000      48.09170000
C       55.74370000      52.62490000      51.90610000
C       44.25580000      52.62350000      48.09360000
C       52.62510000      51.90790000      55.74300000
C       52.62330000      48.09260000      44.25600000
C       47.37710000      48.09270000      55.74420000
C       51.90630000      55.74370000      47.37520000
C       44.25650000      52.62370000      51.90830000
C       47.37490000      48.09210000      44.25700000
C       48.09260000      55.74350000      52.62430000
C       48.09270000      44.25610000      47.37650000
C       51.90840000      44.25670000      52.62410000
C       55.74300000      52.62470000      48.09140000
C       55.74420000      47.37650000      51.90640000
C       44.25630000      47.37510000      48.09390000
C       52.62550000      48.09320000      55.74320000
C       52.62290000      51.90730000      44.25580000
C       47.37670000      51.90740000      55.74400000
C       52.55700000      54.24990000      54.36330000
C       54.24950000      54.36450000      52.55560000
C       54.36450000      52.55730000      54.24840000
C       47.44210000      54.24890000      45.63630000
C       47.44460000      45.75060000      54.36470000
C       52.55620000      45.75060000      45.63570000
C       45.74970000      54.36340000      47.44400000
C       45.75150000      45.63570000      52.55770000
C       54.24930000      45.63630000      47.44280000
C       45.63500000      52.55600000      45.75130000
C       45.63710000      47.44320000      54.25040000
C       54.36340000      47.44360000      45.74990000
C       52.55790000      45.75110000      54.36370000
C       54.25030000      45.63660000      52.55600000
C       54.36500000      47.44400000      54.24870000
C       47.44300000      45.75010000      45.63670000
C       47.44380000      54.24940000      54.36430000
C       52.55540000      54.24940000      45.63530000
C       45.75050000      45.63550000      47.44440000
C       45.75070000      54.36370000      52.55720000
C       54.24850000      54.36430000      47.44230000
C       45.63550000      47.44270000      45.75160000
C       45.63660000      52.55640000      54.25010000
C       54.36290000      52.55680000      45.74960000
C       57.01880000      50.73560000      46.97920000
C       50.73670000      46.98100000      57.01940000
C       46.98010000      57.01910000      50.73530000
C       42.98110000      50.73450000      53.02070000
C       42.98010000      49.26410000      46.98200000
C       57.02010000      49.26580000      53.01810000
C       49.26390000      46.98020000      42.98090000
C       49.26600000      53.01970000      57.01940000
C       50.73340000      53.01910000      42.98030000
C       53.01860000      57.01970000      49.26400000
C       53.02020000      42.98090000      50.73480000
C       46.98120000      42.98030000      49.26590000
C       57.01890000      49.26550000      46.97930000
C       50.73610000      53.01980000      57.01910000
C       46.98140000      42.98030000      50.73600000
C       42.98120000      49.26440000      53.02080000
C       42.97990000      50.73420000      46.98190000
C       57.01990000      50.73590000      53.01800000
C       49.26330000      53.01900000      42.98060000
C       49.26660000      46.98090000      57.01970000
C       50.73400000      46.98030000      42.98060000
C       53.01990000      42.98090000      49.26470000
C       53.01880000      57.01970000      50.73410000
C       46.97980000      57.01910000      49.26520000
C       50.71050000      43.20070000      49.26050000
C       43.20090000      49.25960000      50.71130000
C       49.25890000      50.70950000      43.20080000
C       49.29090000      43.20070000      50.74020000
C       49.28920000      56.79920000      49.26010000
C       50.70940000      56.79940000      50.73930000
C       56.79920000      49.26090000      49.28880000
C       56.79940000      50.74040000      50.70860000
C       43.20050000      50.73900000      49.29130000
C       50.74100000      50.71040000      56.79910000
C       50.73850000      49.28980000      43.20060000
C       49.26160000      49.29030000      56.79950000
C       50.70910000      56.79930000      49.25980000
C       43.20070000      50.73910000      50.71120000
C       49.25900000      49.28960000      43.20090000
C       49.28950000      56.79930000      50.73950000
C       49.29060000      43.20060000      49.26070000
C       50.71080000      43.20080000      50.73990000
C       56.79910000      50.74040000      49.28870000
C       56.79950000      49.26100000      50.70870000
C       43.20060000      49.25960000      49.29140000
C       50.74110000      49.29050000      56.79920000
C       50.73840000      50.70970000      43.20050000
C       49.26150000      50.71020000      56.79940000
C       56.55020000      51.46120000      51.86380000
C       51.46160000      51.86560000      56.54960000
C       51.86470000      56.55020000      51.45980000
C       43.44950000      51.45980000      48.13610000
C       43.45050000      48.53890000      51.86640000
C       56.54980000      48.54010000      48.13370000
C       48.53810000      51.86460000      43.45020000
C       48.54090000      48.13510000      56.55040000
C       51.45940000      48.13470000      43.44980000
C       48.13400000      56.54970000      48.53950000
C       48.13580000      43.44990000      51.46120000
C       51.86550000      43.45010000      48.53950000
C       56.55050000      48.54020000      51.86390000
C       51.46190000      48.13540000      56.54980000
C       51.86600000      43.45030000      51.46050000
C       43.44980000      48.53880000      48.13620000
C       43.45020000      51.45990000      51.86630000
C       56.54950000      51.46100000      48.13360000
C       48.53840000      48.13440000      43.45040000
C       48.54060000      51.86530000      56.55020000
C       51.45910000      51.86490000      43.44960000
C       48.13530000      43.44980000      48.54020000
C       48.13450000      56.54990000      51.46050000
C       51.86420000      56.55010000      48.53880000
C       55.94700000      50.72470000      45.06180000
C       50.72600000      45.06330000      55.94810000
C       45.06250000      55.94750000      50.72500000
C       44.05290000      50.72400000      54.93810000
C       44.05110000      49.27480000      45.06410000
C       55.94900000      49.27640000      54.93590000
C       49.27500000      45.06260000      44.05240000
C       49.27630000      54.93730000      55.94790000
C       50.72280000      54.93680000      44.05160000
C       54.93630000      55.94840000      49.27440000
C       54.93780000      44.05250000      50.72370000
C       45.06340000      44.05150000      49.27690000
C       55.94710000      49.27600000      45.06190000
C       50.72500000      54.93740000      55.94760000
C       45.06370000      44.05160000      50.72560000
C       44.05300000      49.27530000      54.93820000
C       44.05100000      50.72360000      45.06410000
C       55.94890000      50.72520000      54.93590000
C       49.27400000      54.93670000      44.05190000
C       49.27720000      45.06320000      55.94840000
C       50.72370000      45.06270000      44.05210000
C       54.93750000      44.05250000      49.27500000
C       54.93660000      55.94850000      50.72310000
C       45.06220000      55.94750000      49.27630000
C       45.29510000      48.65220000      45.02570000
C       48.65250000      45.02430000      45.29650000
C       45.02490000      45.29540000      48.65410000
C       54.70510000      48.65360000      54.97450000
C       54.70300000      51.34730000      45.02370000
C       45.29680000      51.34690000      54.97620000
C       51.34850000      45.02510000      54.70400000
C       51.34570000      54.97520000      45.29540000
C       48.65330000      54.97540000      54.70410000
C       54.97600000      45.29650000      51.34640000
C       54.97460000      54.70450000      48.65170000
C       45.02450000      54.70360000      51.34790000
C       45.29490000      51.34640000      45.02550000
C       48.65150000      54.97490000      45.29600000
C       45.02400000      54.70350000      48.65360000
C       54.70490000      51.34780000      54.97430000
C       54.70320000      48.65310000      45.02390000
C       45.29700000      48.65270000      54.97630000
C       51.34750000      54.97570000      54.70350000
C       51.34670000      45.02460000      45.29590000
C       48.65430000      45.02480000      54.70460000
C       54.97510000      54.70460000      51.34590000
C       54.97550000      45.29640000      48.65210000
C       45.02540000      45.29550000      51.34830000
C       55.54770000      46.46770000      49.25770000
C       46.46830000      49.25850000      55.54820000
C       49.25740000      55.54720000      46.46710000
C       44.45300000      46.46670000      50.74270000
C       44.45200000      53.53220000      49.25950000
C       55.54730000      53.53340000      50.74020000
C       53.53180000      49.25870000      44.45190000
C       53.53380000      50.74200000      55.54670000
C       46.46610000      50.74080000      44.45320000
C       50.74150000      55.54770000      53.53240000
C       50.74130000      44.45240000      46.46730000
C       49.25980000      44.45260000      53.53320000
C       55.54700000      53.53330000      49.25730000
C       46.46820000      50.74130000      55.54810000
C       49.25850000      44.45230000      46.46760000
C       44.45230000      53.53230000      50.74230000
C       44.45270000      46.46660000      49.25980000
C       55.54790000      46.46780000      50.74050000
C       53.53170000      50.74150000      44.45180000
C       53.53390000      49.25920000      55.54680000
C       46.46620000      49.25800000      44.45330000
C       50.74260000      44.45280000      53.53290000
C       50.74020000      55.54740000      46.46680000
C       49.25870000      55.54760000      53.53270000
