240
Lattice="100.0 0.0 0.0 0.0 100.0 0.0 0.0 0.0 100.0" Properties=species:S:1:pos:R:3 name=C-71174-8496-149 pressure=-0.00602668182660485 energy=-1766.6214560221 spacegroup=C1 times_found=1 pbc="T T T"
C       48.13630000      50.73650000      56.39530000
C       50.74890000      56.06790000      48.11980000
C       56.39550000      48.10810000      50.78640000
C       51.79920000      50.79510000      43.51190000
C       51.79170000      49.19540000      56.45460000
C       48.11870000      49.27650000      43.56670000
C       49.25040000      56.23580000      51.91990000
C       49.33350000      43.86430000      48.13270000
C       50.83740000      43.83880000      51.93420000
C       43.66390000      48.11520000      49.29110000
C       43.67480000      51.83970000      50.77520000
C       56.43030000      51.93480000      49.30770000
C       48.12070000      49.20760000      56.41510000
C       50.83400000      43.87060000      48.09280000
C       56.38260000      51.93660000      50.77980000
C       51.78440000      49.26430000      43.53060000
C       51.81080000      50.72190000      56.38320000
C       48.13660000      50.80960000      43.49550000
C       49.33790000      43.83090000      51.89370000
C       49.24610000      56.06730000      48.11960000
C       50.74980000      56.23400000      51.91980000
C       43.62630000      51.84170000      49.29270000
C       43.66640000      48.12290000      50.81030000
C       56.40070000      48.10670000      49.34250000
C       49.32500000      54.53780000      43.55680000
C       54.33960000      43.77970000      49.31190000
C       43.75590000      49.32050000      54.46340000
C       50.67470000      54.40120000      56.30340000
C       50.58820000      45.55190000      43.59520000
C       49.24410000      45.51390000      56.34610000
C       45.67310000      43.81320000      50.69290000
C       45.69700000      56.17810000      49.26190000
C       54.33190000      56.18140000      50.63980000
C       56.01870000      49.29120000      45.87750000
C       56.13030000      50.57270000      54.34890000
C       43.86360000      50.82260000      45.75860000
C       49.24310000      45.58210000      43.67940000
C       54.29830000      56.21300000      49.26120000
C       43.76710000      50.67370000      54.45120000
C       50.58830000      45.48450000      56.43060000
C       50.66570000      54.53280000      43.55790000
C       49.32070000      54.40520000      56.30390000
C       45.66710000      56.14270000      50.63910000
C       45.67010000      43.81390000      49.34190000
C       54.34040000      43.77220000      50.72160000
C       56.03170000      50.72580000      45.86530000
C       56.09830000      49.17880000      54.28360000
C       43.83050000      49.43030000      45.69020000
C       52.50770000      53.58100000      44.23530000
C       54.01560000      45.25130000      53.42080000
C       44.62460000      52.52870000      53.50650000
C       47.45970000      53.47160000      55.45430000
C       47.42950000      46.55710000      44.56120000
C       52.47650000      46.39380000      55.79460000
C       46.56520000      44.70500000      47.48270000
C       46.52180000      55.34820000      52.58230000
C       53.98100000      54.67910000      46.65480000
C       54.71970000      53.41260000      46.26170000
C       54.74490000      46.51960000      53.82890000
C       44.60780000      47.46970000      46.54080000
C       52.47150000      46.46780000      44.24570000
C       53.48880000      55.36690000      52.58400000
C       44.59940000      47.44950000      53.53720000
C       47.42380000      46.48410000      55.46840000
C       47.47270000      53.60180000      44.22260000
C       52.52830000      53.45590000      55.45460000
C       46.01810000      54.66580000      46.65620000
C       46.57790000      44.68250000      52.55280000
C       54.00090000      45.30800000      46.63660000
C       54.71930000      46.58890000      46.25820000
C       55.39280000      52.56010000      53.49970000
C       45.28360000      53.39960000      46.25200000
C       46.50360000      52.51460000      55.42070000
C       52.72620000      55.19480000      46.30740000
C       55.71640000      46.38490000      52.76100000
C       53.40120000      52.60150000      44.36900000
C       53.38580000      47.35660000      55.67690000
C       46.47880000      47.52320000      44.60380000
C       47.45440000      55.35270000      53.56520000
C       47.50830000      44.74310000      46.51470000
C       52.76410000      44.72620000      53.77630000
C       44.60220000      46.49860000      47.48430000
C       44.62160000      53.48600000      52.54450000
C       55.72150000      53.58820000      47.29640000
C       46.46800000      47.44490000      55.44960000
C       52.75360000      44.78680000      46.26220000
C       55.42970000      53.54640000      52.56300000
C       53.37100000      47.43920000      44.38980000
C       53.47340000      52.48590000      55.40050000
C       46.56350000      52.63680000      44.32910000
C       47.51590000      44.68190000      53.52210000
C       47.26630000      55.19770000      46.30670000
C       52.54930000      55.34300000      53.56270000
C       44.28530000      53.54480000      47.29290000
C       44.62080000      46.48980000      52.58090000
C       55.69200000      46.43700000      47.32850000
C       48.67710000      53.25820000      43.53620000
C       53.06950000      43.69360000      48.78610000
C       43.85730000      48.65930000      53.19730000
C       51.32210000      53.12590000      56.20060000
C       51.24880000      46.82100000      43.58340000
C       48.61060000      46.80080000      56.24650000
C       46.94270000      43.96640000      51.33580000
C       46.98520000      56.28390000      48.77600000
C       53.10050000      56.06080000      51.35110000
C       56.32130000      48.79410000      47.11440000
C       56.10800000      51.32410000      53.13260000
C       43.62310000      51.24260000      47.03620000
C       48.60660000      46.86920000      43.76910000
C       53.00850000      56.29960000      48.77610000
C       43.87530000      51.31980000      53.17510000
C       51.24620000      46.75370000      56.43640000
C       51.30270000      53.24710000      43.54250000
C       48.66390000      53.13510000      56.20250000
C       46.90100000      56.04340000      51.34890000
C       46.93740000      43.97740000      48.69150000
C       53.07010000      43.68140000      51.24120000
C       56.34900000      51.23050000      47.09130000
C       56.35990000      48.75270000      53.01110000
C       43.88580000      48.69280000      46.91310000
C       55.23650000      51.39360000      44.90030000
C       51.29320000      44.51730000      55.60690000
C       44.65780000      55.38620000      51.29640000
C       44.57240000      51.33430000      55.43340000
C       44.58690000      48.76780000      44.69270000
C       55.26780000      48.51180000      55.23710000
C       48.64550000      44.63170000      44.56490000
C       48.65800000      55.39190000      55.49910000
C       51.30460000      55.45890000      44.46790000
C       55.40690000      55.51700000      48.62340000
C       55.40490000      44.50160000      51.36530000
C       44.64520000      44.57070000      48.68500000
C       55.21560000      48.62880000      44.91830000
C       51.34340000      55.38330000      55.49740000
C       44.65750000      44.57380000      51.36290000
C       44.54950000      48.65610000      55.45590000
C       44.68150000      51.48440000      44.78660000
C       55.36130000      51.23660000      55.33260000
C       48.68960000      55.46730000      44.46660000
C       48.64780000      44.55730000      55.46840000
C       51.29130000      44.58750000      44.42410000
C       55.39970000      44.52110000      48.68040000
C       55.35680000      55.44860000      51.30070000
C       44.59160000      55.46820000      48.62960000
C       45.37640000      52.64820000      45.10810000
C       52.43410000      45.19720000      44.89730000
C       45.23590000      45.19160000      52.47880000
C       54.78660000      52.40590000      54.79770000
C       54.56020000      47.41960000      45.17740000
C       45.15660000      47.54240000      54.86080000
C       47.54580000      45.18070000      54.86580000
C       47.54620000      54.84780000      44.92320000
C       52.45580000      54.77920000      54.89290000
C       55.13430000      45.07250000      47.46800000
C       54.82080000      54.85140000      52.45600000
C       44.84940000      54.91490000      47.42780000
C       45.17970000      47.60900000      45.22640000
C       52.44330000      54.83300000      44.92750000
C       45.20520000      54.79860000      52.44830000
C       54.59440000      47.33090000      54.92630000
C       54.58380000      52.60450000      45.16230000
C       45.19020000      52.43670000      54.82950000
C       47.54310000      54.79300000      54.89420000
C       47.54700000      45.25590000      45.17150000
C       52.44120000      45.12440000      55.14250000
C       55.14630000      54.94790000      47.42610000
C       55.15160000      45.02420000      52.59160000
C       45.21680000      45.19850000      47.57080000
C       50.74100000      51.90110000      43.41830000
C       51.78980000      43.74100000      50.79060000
C       43.67240000      50.75220000      51.86000000
C       49.21930000      51.80770000      56.39970000
C       49.17540000      48.18790000      43.53090000
C       50.70410000      48.10610000      56.51780000
C       48.26930000      43.82870000      49.24540000
C       48.22850000      56.21600000      50.82740000
C       51.74200000      56.22950000      49.27620000
C       56.47720000      50.78460000      48.36900000
C       56.44100000      49.28300000      51.76990000
C       43.65290000      49.18630000      48.25370000
C       50.70350000      48.17080000      43.47570000
C       51.77050000      56.22030000      50.82860000
C       43.66650000      49.21710000      51.87160000
C       49.18130000      48.12280000      56.46090000
C       49.21880000      51.90610000      43.41200000
C       50.74950000      51.80360000      56.39530000
C       48.25330000      56.22400000      49.27590000
C       48.27190000      43.81730000      50.77930000
C       51.78890000      43.75220000      49.23500000
C       56.46390000      49.25280000      48.38270000
C       56.36650000      50.83310000      51.80840000
C       43.57230000      50.71340000      48.28990000
C       56.12450000      45.56680000      50.71310000
C       45.53820000      50.66780000      56.25720000
C       50.68820000      56.06220000      45.60660000
C       43.81180000      45.52770000      49.35560000
C       43.83260000      54.41400000      50.65070000
C       56.17130000      54.48890000      49.29600000
C       54.37680000      50.68390000      43.99390000
C       54.38660000      49.24290000      56.11850000
C       45.52990000      49.41130000      43.84280000
C       49.32490000      56.18450000      54.51060000
C       49.37470000      43.89650000      45.56900000
C       50.74460000      43.84470000      54.48250000
C       56.19740000      54.49210000      50.65360000
C       45.52610000      49.31550000      56.27020000
C       50.73960000      43.90890000      45.54380000
C       43.85060000      54.41770000      49.29750000
C       43.81710000      45.53110000      50.70910000
C       56.12060000      45.57420000      49.35530000
C       54.36430000      49.34300000      44.00700000
C       54.40240000      50.58950000      56.15900000
C       45.54460000      50.75830000      43.87950000
C       49.37940000      43.82830000      54.45890000
C       49.30740000      56.06490000      45.60680000
C       50.67920000      56.17860000      54.50940000
C       56.23770000      53.22080000      48.59680000
C       53.10590000      48.62490000      56.25100000
C       48.67270000      56.07810000      53.24180000
C       43.89250000      53.15750000      51.33400000
C       43.86880000      46.80010000      48.70640000
C       56.20450000      46.80710000      51.46710000
C       46.79670000      48.73540000      43.85500000
C       46.81760000      51.30510000      56.17070000
C       53.11690000      51.33780000      43.78380000
C       51.43670000      55.89340000      46.82760000
C       51.50300000      44.00160000      53.25080000
C       48.74270000      44.03770000      46.83300000
C       56.19590000      46.82330000      48.63020000
C       53.13840000      51.26430000      56.12510000
C       48.74760000      43.98040000      53.19620000
C       43.87950000      46.80370000      51.36860000
C       43.79740000      53.14920000      48.59780000
C       56.16560000      53.24280000      51.35130000
C       46.82620000      51.37830000      43.72670000
C       46.79510000      48.65320000      56.19690000
C       53.09570000      48.70710000      43.80780000
C       51.49700000      44.05290000      46.77770000
C       51.32890000      56.06840000      53.24060000
C       48.55790000      55.89450000      46.82760000
