240
Lattice="100.0 0.0 0.0 0.0 100.0 0.0 0.0 0.0 100.0" Properties=species:S:1:pos:R:3 name=C-71174-8496-767 pressure=-1.12552425923489 energy=-1793.58485577418 spacegroup=C1 times_found=1 pbc="T T T"
C       43.81550000      52.67900000      49.31710000
C       52.60020000      49.21140000      43.76900000
C       49.28150000      43.73570000      52.65310000
C       56.17080000      47.36670000      49.29640000
C       44.03550000      47.37960000      50.70510000
C       56.03210000      52.65060000      50.54980000
C       47.40530000      50.78080000      43.79250000
C       52.58020000      50.63310000      56.13660000
C       47.27500000      49.34990000      56.07790000
C       50.84080000      56.06460000      52.68240000
C       49.16130000      56.07130000      47.44180000
C       50.88640000      43.91450000      47.43390000
C       43.74750000      52.65770000      50.76450000
C       52.55020000      49.17660000      56.05410000
C       49.42850000      43.83620000      47.41510000
C       56.20330000      47.41540000      50.74730000
C       44.07810000      47.39670000      49.21460000
C       56.00160000      52.62380000      49.07210000
C       47.30800000      50.82650000      56.08540000
C       52.61690000      50.66250000      43.79760000
C       47.38890000      49.32940000      43.82880000
C       50.61830000      56.15030000      47.40250000
C       49.36500000      56.07510000      52.72470000
C       50.72980000      43.79590000      52.69530000
C       51.34500000      48.48370000      56.58190000
C       48.57070000      56.57820000      51.58180000
C       56.55630000      51.42670000      48.40830000
C       48.50190000      51.47070000      56.66040000
C       51.47050000      51.43640000      43.29200000
C       48.52900000      48.55250000      43.31390000
C       51.52410000      43.31730000      51.54940000
C       48.68360000      43.26200000      48.55600000
C       51.37520000      56.69660000      48.55120000
C       43.52350000      48.58680000      48.51000000
C       56.69470000      48.61930000      51.43620000
C       43.23100000      51.46920000      51.45230000
C       51.42070000      48.49690000      43.25820000
C       48.47850000      56.59210000      48.65700000
C       56.56660000      51.51590000      51.33210000
C       48.57910000      51.49240000      43.26620000
C       51.43500000      51.38140000      56.69970000
C       48.42110000      48.55770000      56.57570000
C       51.58510000      43.37770000      48.63170000
C       48.60130000      43.19640000      51.47120000
C       51.48170000      56.63800000      51.48600000
C       43.42010000      48.53860000      51.40160000
C       56.64560000      48.51480000      48.50260000
C       43.36560000      51.51200000      48.53540000
C       47.03820000      55.32690000      46.28670000
C       55.59200000      46.01570000      47.25790000
C       45.97950000      47.25050000      55.52390000
C       52.99670000      44.67370000      46.27120000
C       47.18070000      44.24970000      53.78110000
C       53.01510000      55.29940000      53.77750000
C       44.43320000      54.00630000      47.27680000
C       55.54020000      53.92130000      52.67220000
C       44.69560000      46.22720000      52.89110000
C       53.81120000      52.70710000      55.67500000
C       46.21780000      52.84460000      44.29000000
C       53.79490000      47.15280000      44.26680000
C       47.26370000      55.56350000      54.03000000
C       55.72840000      46.24870000      52.83270000
C       46.10860000      47.26700000      44.44600000
C       52.76190000      44.44140000      54.02090000
C       47.34040000      44.31050000      46.22920000
C       52.68660000      55.70180000      46.15790000
C       44.23500000      53.84810000      52.84800000
C       55.25770000      53.76670000      46.92580000
C       44.80230000      46.25570000      47.05270000
C       53.90150000      52.73050000      44.38180000
C       46.19290000      53.00450000      55.37200000
C       53.72270000      47.06490000      55.31130000
C       46.06320000      55.57550000      47.32190000
C       55.33250000      46.96900000      46.20670000
C       46.94640000      46.21150000      55.27970000
C       53.97910000      44.43250000      47.30140000
C       46.18930000      44.26210000      52.71910000
C       53.96990000      55.54990000      52.72560000
C       44.69120000      53.04040000      46.23740000
C       55.29020000      52.94320000      53.70370000
C       44.42930000      47.24600000      53.87790000
C       52.81330000      53.75670000      55.71250000
C       47.25970000      53.85310000      44.31230000
C       52.75480000      46.14290000      44.29750000
C       46.21800000      55.32450000      53.06910000
C       55.68800000      47.30410000      53.82460000
C       47.09630000      46.23990000      44.69770000
C       53.80470000      44.69520000      53.05650000
C       46.30980000      44.31120000      47.25420000
C       53.73650000      55.71250000      47.15630000
C       44.22870000      52.81430000      53.86120000
C       55.51580000      52.72790000      45.96320000
C       44.54000000      47.28260000      46.07790000
C       52.91630000      53.75850000      44.63870000
C       47.24120000      53.96380000      55.62400000
C       52.69830000      46.08210000      55.57280000
C       44.36660000      53.73730000      51.47070000
C       53.71700000      51.30010000      44.41160000
C       51.33620000      44.43920000      53.79890000
C       55.60420000      46.32900000      51.45320000
C       44.75100000      46.33330000      48.51320000
C       55.32740000      53.69040000      48.37820000
C       46.29740000      48.69660000      44.46350000
C       53.62850000      48.51360000      55.35560000
C       46.25510000      51.54830000      55.41470000
C       48.69870000      55.49660000      53.82430000
C       51.31000000      55.54460000      46.30430000
C       48.72180000      44.45670000      46.33810000
C       44.44350000      53.78840000      48.70080000
C       53.66490000      51.33180000      55.51550000
C       51.54520000      44.61300000      46.35620000
C       55.56750000      46.24310000      48.68290000
C       44.68880000      46.31500000      51.42750000
C       55.46360000      53.74320000      51.23410000
C       46.18230000      48.68610000      55.48140000
C       53.69090000      48.53120000      44.38450000
C       46.32240000      51.46630000      44.41560000
C       48.48930000      55.38160000      46.36310000
C       51.55950000      55.37550000      53.72700000
C       48.56240000      44.36950000      53.71130000
C       55.51960000      48.67720000      53.67050000
C       48.66620000      53.74270000      55.58320000
C       53.64970000      55.57840000      48.53330000
C       44.36580000      51.43860000      53.71940000
C       55.47400000      51.29070000      46.16610000
C       44.58550000      48.71950000      46.25810000
C       51.25750000      46.24680000      55.49910000
C       48.54890000      46.31550000      44.61670000
C       51.46380000      53.67940000      44.58400000
C       46.40850000      44.42780000      48.62700000
C       53.74400000      44.61340000      51.60090000
C       46.29120000      55.38250000      51.61580000
C       55.39180000      48.42600000      46.25840000
C       48.63810000      53.71930000      44.45270000
C       53.73820000      55.53070000      51.30150000
C       44.64050000      51.58280000      46.30740000
C       55.34380000      51.49410000      53.61790000
C       44.45510000      48.67270000      53.69910000
C       51.37620000      46.27370000      44.44930000
C       48.39960000      46.28540000      55.36040000
C       51.43420000      53.66800000      55.59730000
C       46.34630000      44.39270000      51.34910000
C       53.80420000      44.49610000      48.74000000
C       46.24240000      55.50270000      48.75970000
C       56.04390000      50.82810000      52.54220000
C       50.73870000      52.58010000      56.20610000
C       52.62210000      56.15090000      50.69060000
C       43.85480000      49.30600000      52.59030000
C       56.06890000      49.15200000      47.30540000
C       43.97400000      50.86240000      47.36430000
C       49.08940000      47.35960000      56.02710000
C       50.67450000      47.34590000      43.81450000
C       49.33120000      52.64470000      43.81190000
C       47.45390000      43.73390000      50.71420000
C       52.72170000      43.90550000      49.41810000
C       47.34020000      56.06550000      49.44060000
C       56.06240000      50.62910000      47.26420000
C       50.78750000      52.62300000      43.86280000
C       52.57200000      56.18900000      49.24020000
C       44.00970000      49.38290000      47.35540000
C       56.13290000      49.37220000      52.57950000
C       43.76600000      50.75460000      52.61450000
C       49.21780000      47.36780000      43.88180000
C       50.56740000      47.34050000      56.05720000
C       49.28840000      52.62180000      56.18130000
C       47.49400000      43.76210000      49.28360000
C       52.70100000      43.91240000      50.89480000
C       47.36690000      56.03740000      50.91850000
C       53.47260000      54.83260000      45.33830000
C       54.85260000      45.43690000      53.61800000
C       45.12540000      53.58010000      54.67330000
C       46.54530000      45.17790000      45.42070000
C       53.09810000      44.75970000      55.34380000
C       46.89770000      55.29650000      55.35630000
C       45.13540000      54.63720000      53.63280000
C       54.54160000      54.83490000      46.36640000
C       45.49630000      45.18440000      46.47380000
C       54.81680000      46.51290000      54.63770000
C       44.79170000      46.89920000      44.75310000
C       55.22790000      53.09790000      44.64220000
C       53.58840000      54.56800000      54.82710000
C       55.30140000      44.68650000      46.91710000
C       45.40980000      53.61500000      45.17980000
C       46.38810000      45.14440000      54.56230000
C       53.55040000      45.34940000      45.18020000
C       46.47370000      54.65100000      45.19960000
C       44.73810000      55.33250000      46.93440000
C       55.29710000      55.24490000      53.06030000
C       45.36950000      45.15050000      53.47800000
C       54.61080000      46.38750000      45.15450000
C       44.66310000      46.87750000      55.21150000
C       54.61530000      53.49810000      54.79530000
C       42.47350000      50.70630000      49.22330000
C       50.69660000      49.26520000      42.37040000
C       49.40160000      42.33620000      50.73610000
C       57.53470000      49.31180000      49.20390000
C       42.49860000      49.24020000      50.64720000
C       57.49750000      50.79030000      50.61350000
C       49.29350000      50.71970000      42.37430000
C       50.65240000      50.64080000      57.56600000
C       49.18210000      49.24060000      57.50080000
C       50.69340000      57.53680000      50.78640000
C       49.21230000      57.51590000      49.37690000
C       50.86870000      42.42760000      49.32870000
C       42.41090000      50.68150000      50.66080000
C       50.62500000      49.20840000      57.51170000
C       49.43260000      42.36610000      49.29860000
C       57.55580000      49.35820000      50.64690000
C       42.55630000      49.26490000      49.21560000
C       57.48370000      50.74980000      49.17110000
C       49.20910000      50.67870000      57.54870000
C       50.72620000      50.71190000      42.37390000
C       49.26380000      49.27280000      42.38480000
C       50.64500000      57.56150000      49.34360000
C       49.25520000      57.49940000      50.81920000
C       50.84360000      42.39870000      50.77110000
C       45.27570000      54.70230000      49.45500000
C       54.62790000      49.16390000      45.27110000
C       49.16520000      45.28890000      54.63770000
C       54.75030000      45.31610000      49.43810000
C       45.45800000      45.33200000      50.68660000
C       54.65050000      54.70060000      50.54340000
C       45.39920000      50.83950000      45.32020000
C       54.57810000      50.71170000      54.59390000
C       45.25090000      49.40480000      54.66200000
C       50.81370000      54.61770000      54.71410000
C       49.26730000      54.62540000      45.37440000
C       50.75580000      45.36840000      45.37730000
C       45.29240000      54.65250000      50.85980000
C       54.59750000      49.29740000      54.58290000
C       49.33860000      45.35630000      45.40010000
C       54.72010000      45.37400000      50.84340000
C       45.48750000      45.34400000      49.27210000
C       54.58820000      54.67630000      49.13950000
C       45.27260000      50.80990000      54.64250000
C       54.66170000      50.56980000      45.23090000
C       45.37080000      49.43390000      45.29540000
C       50.68380000      54.63990000      45.37760000
C       49.40900000      54.67370000      54.75920000
C       50.57090000      45.27280000      54.70170000
