240
Lattice="100.0 0.0 0.0 0.0 100.0 0.0 0.0 0.0 100.0" Properties=species:S:1:pos:R:3 name=C-71174-8496-589 pressure=0.0510189315331921 spacegroup=C1 times_found=1 energy=-1771.62928327686 pbc="T T T"
C       55.72420000      50.74190000      45.21520000
C       45.13770000      55.21480000      50.77500000
C       50.74310000      45.14930000      55.24620000
C       44.14200000      50.80670000      54.99300000
C       55.86700000      49.28070000      54.76880000
C       44.73020000      49.30400000      45.05090000
C       54.70190000      55.76930000      49.27160000
C       45.23050000      45.17310000      49.43620000
C       54.88970000      44.20790000      50.72200000
C       49.37330000      45.04960000      44.17950000
C       50.73650000      54.74880000      44.20460000
C       49.30630000      54.72440000      55.87070000
C       55.75090000      49.28140000      45.21100000
C       45.07400000      44.80820000      50.78630000
C       50.76520000      54.71720000      55.83100000
C       44.08160000      49.35530000      55.01250000
C       55.83320000      50.74060000      54.76710000
C       45.08630000      50.65970000      45.07030000
C       54.83820000      44.22440000      49.26490000
C       45.18920000      54.96220000      49.37860000
C       54.71340000      55.76620000      50.73220000
C       49.30250000      54.85920000      44.09940000
C       50.82750000      45.10560000      44.23450000
C       49.34310000      45.20930000      54.99350000
C       50.77780000      47.33050000      43.61950000
C       44.14360000      50.85220000      47.38200000
C       47.37950000      44.04160000      51.02920000
C       49.26120000      47.34950000      56.11640000
C       50.78400000      52.48850000      56.36050000
C       49.04720000      52.54330000      43.61690000
C       56.36610000      50.76560000      52.54570000
C       43.57230000      49.32340000      52.73380000
C       56.31770000      49.26850000      47.41760000
C       52.59410000      43.72230000      49.33070000
C       47.33150000      56.09490000      49.27110000
C       52.48820000      56.26590000      50.76440000
C       50.58280000      52.49090000      43.74570000
C       44.11700000      49.23130000      47.42000000
C       47.36490000      56.04970000      50.76580000
C       49.28810000      52.49520000      56.40760000
C       50.75490000      47.37010000      56.07520000
C       49.28330000      47.27080000      43.53780000
C       56.40460000      49.26900000      52.54620000
C       43.63860000      50.81320000      52.71840000
C       56.29120000      50.76270000      47.42100000
C       52.48060000      56.27940000      49.27180000
C       47.40850000      44.09470000      49.47680000
C       52.64260000      43.70490000      50.82110000
C       47.43620000      50.70010000      56.44210000
C       56.41710000      47.44620000      50.72270000
C       50.68770000      56.31550000      47.43520000
C       52.46990000      50.70610000      43.75760000
C       47.33230000      48.99450000      43.39370000
C       52.61300000      49.18720000      56.22990000
C       43.73160000      47.33960000      49.51340000
C       56.28510000      52.57740000      49.23680000
C       43.77180000      52.66740000      50.91800000
C       49.20010000      56.18950000      52.61350000
C       50.91040000      43.71660000      52.74710000
C       49.25380000      43.82440000      47.55810000
C       47.40370000      49.20550000      56.40290000
C       56.30420000      52.57740000      50.73040000
C       50.74370000      43.77430000      47.55780000
C       52.51750000      49.21690000      43.71720000
C       47.20190000      50.43460000      43.43300000
C       52.60330000      50.68020000      56.27910000
C       43.82400000      52.77420000      49.49010000
C       56.38030000      47.45100000      49.22830000
C       43.58670000      47.43370000      50.94320000
C       49.47350000      43.73810000      52.88110000
C       50.69340000      56.22320000      52.59550000
C       49.19370000      56.34560000      47.39490000
C       52.59740000      54.62490000      53.65320000
C       53.65800000      52.57680000      54.67390000
C       54.66650000      53.62130000      52.60770000
C       47.35720000      54.96800000      46.17370000
C       52.63670000      45.32700000      46.41070000
C       46.80120000      45.28040000      54.02940000
C       46.16790000      53.18230000      44.92410000
C       53.64170000      47.37040000      45.33470000
C       46.17070000      47.43380000      54.91300000
C       45.24030000      53.97110000      46.86530000
C       54.70770000      46.37100000      47.39900000
C       44.99530000      46.41590000      52.90620000
C       52.82870000      45.31370000      53.64850000
C       53.76060000      47.38690000      54.64300000
C       54.84320000      46.35870000      52.60090000
C       47.48650000      45.25020000      46.29680000
C       52.53460000      54.63450000      46.38770000
C       47.40130000      54.61310000      53.77200000
C       46.42070000      47.18500000      45.03280000
C       53.54890000      52.57060000      45.36500000
C       46.35930000      52.59000000      54.87110000
C       45.39270000      46.19780000      46.94710000
C       54.61130000      53.62170000      47.39890000
C       45.32880000      53.61460000      52.84380000
C       55.76160000      46.38110000      51.44250000
C       51.41630000      55.61380000      46.38970000
C       46.36900000      51.45160000      55.81300000
C       44.22350000      46.09530000      47.59130000
C       55.57040000      53.61620000      48.53250000
C       44.32190000      53.73370000      51.75970000
C       48.53340000      55.54360000      53.70990000
C       51.75450000      44.29660000      53.78740000
C       48.61620000      44.35370000      46.40150000
C       53.52580000      51.42670000      44.42190000
C       46.27850000      48.19130000      43.97170000
C       53.70330000      48.51640000      55.57850000
C       55.60130000      53.61420000      51.45240000
C       51.49040000      44.38630000      46.47320000
C       46.26460000      48.57190000      55.81210000
C       44.09450000      54.03120000      47.54850000
C       55.67590000      46.39760000      48.52670000
C       44.05220000      46.34250000      51.77700000
C       47.49040000      44.12570000      54.11190000
C       51.43980000      55.55630000      53.64160000
C       48.54140000      55.79900000      46.25460000
C       53.58810000      48.51650000      44.39190000
C       46.04500000      52.41490000      43.81300000
C       53.64920000      51.42320000      55.60970000
C       45.17170000      50.77880000      55.97760000
C       55.88730000      45.21580000      50.70310000
C       50.75690000      55.77830000      45.18980000
C       54.70630000      50.72730000      44.23230000
C       44.95560000      48.61570000      43.84000000
C       54.85880000      49.26010000      55.76270000
C       44.26450000      46.15040000      48.93180000
C       55.71690000      54.78350000      49.26140000
C       43.93770000      55.05360000      51.48390000
C       49.28430000      55.71910000      54.86180000
C       51.45050000      43.94850000      55.10940000
C       49.35980000      44.11720000      45.25060000
C       45.11540000      49.32680000      55.99220000
C       55.73010000      54.78190000      50.72200000
C       50.81200000      44.15820000      45.29410000
C       54.73630000      49.26810000      44.22460000
C       46.03540000      51.07730000      44.00370000
C       54.82850000      50.71840000      55.76570000
C       44.24070000      53.98510000      48.89390000
C       55.84120000      45.22750000      49.24440000
C       43.81100000      45.02770000      51.37390000
C       48.84500000      44.23280000      54.05600000
C       50.74200000      55.71540000      54.82460000
C       49.31320000      55.88490000      45.10080000
C       51.31760000      56.78740000      48.62010000
C       48.63250000      51.32350000      56.90240000
C       56.90850000      48.61620000      51.37950000
C       48.50840000      56.62900000      51.44240000
C       51.47500000      43.25540000      51.52000000
C       48.54260000      43.50220000      48.78100000
C       51.27730000      51.34030000      43.27500000
C       48.58350000      48.40620000      43.00470000
C       51.44010000      48.50050000      56.66530000
C       43.51190000      48.55950000      48.62550000
C       56.80470000      51.42950000      48.57070000
C       43.26780000      51.46830000      51.49820000
C       51.38260000      43.27620000      48.72030000
C       48.59670000      48.47800000      56.75330000
C       56.84710000      51.43160000      51.38120000
C       48.58400000      43.43160000      51.70090000
C       51.32160000      56.74370000      51.42970000
C       48.46720000      56.71090000      48.59070000
C       51.39740000      48.53410000      43.16310000
C       48.38700000      51.31380000      43.07520000
C       51.44690000      51.31110000      56.81920000
C       43.57250000      51.55430000      48.58230000
C       56.85920000      48.61830000      48.56450000
C       43.15500000      48.66870000      51.52290000
C       44.79340000      51.49370000      46.18680000
C       46.20200000      44.62930000      51.65070000
C       51.50740000      46.30750000      44.35650000
C       55.66320000      51.46670000      53.60060000
C       44.17340000      48.61180000      53.84990000
C       55.62150000      48.54520000      46.37680000
C       53.64710000      44.38970000      48.58040000
C       46.29660000      55.36110000      48.57680000
C       53.55650000      55.58920000      51.47070000
C       48.55170000      46.33060000      55.37620000
C       51.48800000      53.54920000      55.66220000
C       48.44110000      53.78010000      44.16290000
C       44.67180000      48.54340000      46.25630000
C       46.36730000      55.34790000      51.49430000
C       51.34680000      53.53480000      44.42760000
C       55.74190000      48.54510000      53.60410000
C       44.30010000      51.50970000      53.81310000
C       55.57300000      51.46620000      46.38420000
C       53.53500000      55.60010000      48.54850000
C       46.40130000      44.82870000      48.71650000
C       53.75110000      44.34940000      51.49230000
C       48.56480000      53.56330000      55.75250000
C       51.47690000      46.36890000      55.37390000
C       48.59980000      46.19420000      44.22090000
C       50.71170000      49.23880000      42.18320000
C       42.62480000      50.79240000      49.21290000
C       49.21580000      42.50640000      50.90480000
C       49.33730000      49.12640000      57.73110000
C       50.77560000      50.56770000      57.78380000
C       49.21240000      50.63680000      42.19710000
C       57.83980000      50.76080000      50.67680000
C       42.34950000      49.38530000      50.65800000
C       57.84620000      49.32640000      49.24010000
C       50.61870000      42.36060000      49.43200000
C       49.14040000      57.67220000      49.32590000
C       50.58810000      57.71090000      50.75400000
C       50.64050000      50.66880000      42.25000000
C       42.58330000      49.36980000      49.22690000
C       49.15200000      57.64270000      50.75600000
C       49.34650000      50.56560000      57.82250000
C       50.76640000      49.13270000      57.69300000
C       49.28420000      49.19880000      42.11720000
C       57.86940000      49.32730000      50.67400000
C       42.39850000      50.80420000      50.64700000
C       57.81790000      50.75970000      49.24350000
C       50.58190000      57.73610000      49.32450000
C       49.18280000      42.49900000      49.48040000
C       50.65460000      42.35800000      50.85510000
C       45.95430000      45.37160000      52.90440000
C       52.63440000      46.33400000      45.33740000
C       45.32350000      52.86020000      46.00760000
C       53.66460000      45.33760000      47.42620000
C       46.33990000      54.86060000      47.19160000
C       53.60910000      54.64140000      52.61740000
C       47.16460000      46.39720000      54.85810000
C       52.62100000      53.58600000      54.69220000
C       47.28800000      54.05250000      45.04410000
C       54.69330000      52.59630000      53.62990000
C       45.06940000      47.44620000      53.90690000
C       54.68850000      47.38790000      46.36780000
C       46.38900000      54.58200000      52.74960000
C       52.51050000      53.57070000      45.36920000
C       45.44870000      47.28770000      46.05840000
C       53.56170000      54.64670000      47.40510000
C       46.49170000      45.35020000      47.32040000
C       53.81770000      45.31020000      52.61930000
C       47.39710000      53.59580000      54.83330000
C       52.73570000      46.37750000      54.61280000
C       47.45800000      46.19030000      45.14100000
C       54.82030000      47.38290000      53.62390000
C       45.30450000      52.60690000      53.84860000
C       54.60910000      52.59570000      46.37940000
