240
Lattice="100.0 0.0 0.0 0.0 100.0 0.0 0.0 0.0 100.0" Properties=species:S:1:pos:R:3 name=C-71174-8496-56 pressure=29.2432492024562 energy=-1773.62131845121 spacegroup=Td times_found=1 pbc="T T T"
C       50.75170000      56.12150000      51.79340000
C       51.79330000      50.75150000      56.12150000
C       56.12150000      51.79310000      50.75170000
C       49.24750000      43.87920000      51.79530000
C       49.25090000      56.12120000      48.20440000
C       50.74980000      43.87820000      48.20690000
C       48.20430000      49.25070000      56.12110000
C       48.20710000      50.75010000      43.87820000
C       51.79540000      49.24780000      43.87920000
C       43.87820000      48.20710000      50.74980000
C       43.87920000      51.79550000      49.24770000
C       56.12110000      48.20420000      49.25080000
C       56.12110000      50.74980000      51.79540000
C       50.74990000      51.79530000      56.12110000
C       51.79550000      56.12110000      50.75000000
C       43.87820000      49.25090000      51.79320000
C       56.12150000      49.24760000      48.20700000
C       43.87920000      50.75180000      48.20430000
C       49.24760000      48.20690000      56.12150000
C       50.75160000      48.20440000      43.87920000
C       49.25090000      51.79340000      43.87820000
C       48.20420000      43.87920000      50.75150000
C       51.79320000      43.87820000      49.25070000
C       48.20710000      56.12160000      49.24780000
C       46.02110000      52.98680000      52.01030000
C       52.01010000      46.02090000      52.98670000
C       52.98680000      52.01030000      46.02110000
C       53.97810000      47.01390000      52.01290000
C       53.98020000      52.98440000      47.98870000
C       46.02060000      47.01490000      47.98810000
C       47.98860000      53.98010000      52.98450000
C       47.98810000      46.02070000      47.01470000
C       52.01310000      53.97820000      47.01410000
C       47.01480000      47.98830000      46.02060000
C       47.01400000      52.01300000      53.97820000
C       52.98440000      47.98840000      53.98010000
C       52.98430000      46.02050000      52.01290000
C       46.02070000      52.01300000      52.98440000
C       52.01310000      52.98440000      46.02070000
C       47.01490000      53.98020000      52.01030000
C       52.98690000      53.97820000      47.98830000
C       47.01400000      46.02110000      47.98850000
C       53.97810000      47.98810000      52.98680000
C       46.02100000      47.98870000      47.01400000
C       53.98020000      52.01020000      47.01490000
C       47.98860000      47.01410000      46.02100000
C       52.01020000      47.01470000      53.98010000
C       47.98820000      52.98670000      53.97820000
C       49.55510000      43.72140000      54.30410000
C       54.30430000      49.55530000      43.72150000
C       43.72160000      54.30440000      49.55530000
C       50.44310000      56.28010000      54.30210000
C       50.44220000      43.71970000      45.69810000
C       49.55960000      56.27880000      45.69570000
C       45.69820000      50.44250000      43.71960000
C       45.69550000      49.55940000      56.27870000
C       54.30200000      50.44280000      56.28020000
C       56.27860000      45.69540000      49.55940000
C       56.28030000      54.30180000      50.44320000
C       43.71950000      45.69830000      50.44210000
C       43.71960000      49.55950000      54.30190000
C       49.55960000      54.30210000      43.71970000
C       54.30190000      43.71950000      49.55930000
C       56.27870000      50.44200000      54.30430000
C       43.72150000      50.44320000      45.69550000
C       56.28020000      49.55520000      45.69820000
C       50.44300000      45.69570000      43.72140000
C       49.55520000      45.69810000      56.28010000
C       50.44230000      54.30410000      56.27880000
C       45.69830000      56.28030000      49.55540000
C       54.30440000      56.27860000      50.44240000
C       45.69540000      43.72160000      50.44290000
C       44.32780000      49.32090000      48.26760000
C       48.26750000      44.32790000      49.32060000
C       49.32080000      48.26770000      44.32780000
C       55.67290000      50.67850000      48.26960000
C       55.67190000      49.31910000      51.73270000
C       44.32740000      50.68150000      51.73010000
C       51.73280000      55.67190000      49.31930000
C       51.73000000      44.32740000      50.68140000
C       48.26970000      55.67290000      50.67870000
C       50.68150000      51.73020000      44.32750000
C       50.67850000      48.26950000      55.67280000
C       49.31920000      51.73250000      55.67190000
C       49.31910000      44.32750000      48.26950000
C       44.32740000      48.26970000      49.31910000
C       48.26960000      49.31940000      44.32740000
C       50.68160000      55.67190000      48.26770000
C       49.32090000      55.67280000      51.73030000
C       50.67840000      44.32780000      51.73250000
C       55.67290000      51.73000000      49.32080000
C       44.32790000      51.73270000      50.67860000
C       55.67190000      48.26750000      50.68150000
C       51.73270000      50.67860000      44.32790000
C       48.26760000      50.68140000      55.67190000
C       51.73010000      49.32060000      55.67280000
C       56.24610000      53.60660000      52.62810000
C       52.62810000      56.24590000      53.60690000
C       53.60680000      52.62780000      56.24610000
C       43.75290000      46.39430000      52.62680000
C       43.75550000      53.60840000      47.37060000
C       56.24560000      46.39070000      47.37440000
C       47.37050000      43.75540000      53.60810000
C       47.37460000      56.24570000      46.39090000
C       52.62680000      43.75300000      46.39410000
C       46.39070000      47.37440000      56.24560000
C       46.39430000      52.62710000      43.75300000
C       53.60820000      47.37070000      43.75540000
C       53.60830000      56.24550000      52.62710000
C       56.24570000      52.62680000      53.60830000
C       52.62700000      53.60800000      56.24570000
C       46.39060000      43.75540000      52.62780000
C       53.60670000      43.75290000      47.37440000
C       46.39440000      56.24610000      47.37070000
C       43.75290000      47.37450000      53.60670000
C       56.24600000      47.37050000      46.39420000
C       43.75550000      52.62820000      46.39080000
C       47.37050000      46.39420000      56.24590000
C       52.62800000      46.39080000      43.75530000
C       47.37460000      53.60700000      43.75300000
C       44.72450000      45.75130000      49.47090000
C       49.47090000      44.72470000      45.75100000
C       45.75120000      49.47120000      44.72460000
C       55.27570000      54.24850000      49.47150000
C       55.27360000      45.74920000      50.53060000
C       44.72620000      54.25100000      50.52700000
C       50.53080000      55.27380000      45.74940000
C       50.52680000      44.72600000      54.25080000
C       49.47150000      55.27550000      54.24870000
C       54.25100000      50.52690000      44.72610000
C       54.24860000      49.47120000      55.27560000
C       45.74930000      50.53070000      55.27370000
C       45.74920000      44.72620000      49.47130000
C       44.72610000      49.47160000      45.74920000
C       49.47140000      45.74940000      44.72600000
C       54.25100000      55.27360000      49.47110000
C       45.75120000      55.27570000      50.52700000
C       54.24850000      44.72450000      50.53060000
C       55.27560000      50.52690000      45.75120000
C       44.72460000      50.53070000      54.24860000
C       55.27370000      49.47080000      54.25090000
C       50.53080000      54.24870000      44.72470000
C       49.47100000      54.25080000      55.27380000
C       50.52680000      45.75100000      55.27550000
C       55.04960000      56.09480000      52.63270000
C       52.63260000      55.04930000      56.09500000
C       56.09490000      52.63230000      55.04960000
C       44.94930000      43.90620000      52.63280000
C       44.95300000      56.09600000      47.36520000
C       55.04800000      43.90300000      47.36940000
C       47.36500000      44.95280000      56.09580000
C       47.36960000      55.04830000      43.90320000
C       52.63290000      44.94950000      43.90600000
C       43.90300000      47.36950000      55.04810000
C       43.90620000      52.63310000      44.94950000
C       56.09590000      47.36510000      44.95290000
C       56.09600000      55.04800000      52.63310000
C       55.04820000      52.63270000      56.09600000
C       52.63300000      56.09570000      55.04830000
C       43.90300000      44.95300000      52.63240000
C       56.09480000      44.94940000      47.36940000
C       43.90620000      55.04970000      47.36520000
C       44.94940000      47.36940000      56.09480000
C       55.04950000      47.36510000      43.90610000
C       44.95300000      52.63270000      43.90310000
C       47.36490000      43.90610000      55.04940000
C       52.63240000      43.90310000      44.95280000
C       47.36960000      56.09510000      44.94960000
C       48.92250000      44.96910000      47.02050000
C       47.02060000      48.92270000      44.96900000
C       44.96900000      47.02070000      48.92250000
C       51.07870000      55.02990000      47.01910000
C       51.07540000      44.96970000      52.98130000
C       48.92340000      55.03140000      52.97910000
C       52.98150000      51.07550000      44.96980000
C       52.97900000      48.92320000      55.03140000
C       47.01900000      51.07860000      55.02980000
C       55.03150000      52.97890000      48.92340000
C       55.02980000      47.01890000      51.07860000
C       44.96980000      52.98150000      51.07550000
C       44.96980000      48.92350000      47.01900000
C       48.92330000      47.01910000      44.96970000
C       47.01890000      44.96980000      48.92320000
C       55.03150000      51.07540000      47.02060000
C       44.96900000      51.07870000      52.97900000
C       55.02980000      48.92240000      52.98140000
C       51.07870000      52.97910000      44.96910000
C       48.92260000      52.98130000      55.02990000
C       51.07540000      47.02040000      55.03140000
C       52.98150000      55.02980000      48.92270000
C       47.02070000      55.03150000      51.07560000
C       52.97890000      44.96890000      51.07850000
C       46.87120000      51.24720000      43.65810000
C       43.65800000      46.87120000      51.24690000
C       51.24690000      43.65810000      46.87100000
C       53.13140000      48.75050000      43.65980000
C       53.12940000      51.24810000      56.34140000
C       46.86810000      48.75410000      56.34060000
C       56.34150000      53.12920000      51.24840000
C       56.34060000      46.86800000      48.75420000
C       43.65990000      53.13150000      48.75050000
C       48.75430000      56.34070000      46.86820000
C       48.75030000      43.65980000      53.13130000
C       51.24840000      56.34130000      53.12950000
C       51.24830000      46.86820000      43.65980000
C       46.86800000      43.65990000      51.24820000
C       43.65990000      51.24850000      46.86810000
C       48.75430000      53.12950000      43.65820000
C       51.24710000      53.13120000      56.34070000
C       48.75040000      46.87100000      56.34130000
C       53.13150000      56.34060000      51.24720000
C       46.87120000      56.34150000      48.75060000
C       53.12930000      43.65810000      48.75410000
C       56.34140000      48.75040000      46.87110000
C       43.65810000      48.75420000      53.12930000
C       56.34070000      51.24690000      53.13150000
C       55.45760000      48.74070000      43.55630000
C       43.55640000      55.45780000      48.74080000
C       48.74060000      43.55620000      55.45750000
C       44.54500000      51.25700000      43.55370000
C       44.54180000      48.74540000      56.44410000
C       55.45560000      51.25690000      56.44590000
C       56.44410000      44.54180000      48.74530000
C       56.44590000      55.45540000      51.25730000
C       43.55360000      44.54500000      51.25660000
C       51.25720000      56.44570000      55.45570000
C       51.25660000      43.55380000      44.54480000
C       48.74560000      56.44430000      44.54200000
C       48.74560000      55.45570000      43.55380000
C       55.45550000      43.55360000      48.74530000
C       43.55360000      48.74540000      55.45550000
C       51.25710000      44.54200000      43.55620000
C       48.74060000      44.54480000      56.44570000
C       51.25680000      55.45750000      56.44430000
C       44.54510000      56.44590000      48.74080000
C       55.45770000      56.44400000      51.25690000
C       44.54180000      43.55640000      51.25700000
C       56.44420000      51.25650000      55.45770000
C       43.55640000      51.25740000      44.54190000
C       56.44580000      48.74070000      44.54490000
