240
Lattice="100.0 0.0 0.0 0.0 100.0 0.0 0.0 0.0 100.0" Properties=species:S:1:pos:R:3 name=C-71174-8496-69 pressure=-37.9454313156434 energy=-1774.82739885443 spacegroup=Td times_found=1 pbc="T T T"
C       50.00010000      42.00390000      48.96990000
C       48.97030000      50.00010000      42.00380000
C       42.00390000      48.97000000      49.99970000
C       50.00050000      42.00380000      51.02940000
C       49.99950000      57.99610000      51.03010000
C       49.99990000      57.99620000      48.97060000
C       51.02970000      49.99950000      57.99620000
C       48.97020000      49.99980000      57.99620000
C       51.02980000      50.00060000      42.00380000
C       57.99620000      48.97050000      50.00020000
C       42.00380000      51.02950000      50.00020000
C       57.99610000      51.03000000      49.99990000
C       48.97050000      42.00380000      49.99940000
C       42.00380000      49.99960000      48.97020000
C       49.99980000      48.97060000      42.00380000
C       51.03000000      42.00390000      49.99980000
C       51.02950000      57.99620000      50.00020000
C       48.97000000      57.99610000      50.00060000
C       57.99620000      50.00000000      51.02980000
C       57.99620000      50.00050000      48.97030000
C       42.00380000      49.99990000      51.02970000
C       50.00020000      48.96990000      57.99610000
C       50.00020000      51.03010000      42.00390000
C       49.99970000      51.02940000      57.99620000
C       47.68990000      51.28780000      56.33380000
C       56.33390000      47.69010000      51.28810000
C       51.28800000      56.33390000      47.69020000
C       52.31000000      51.28860000      43.66630000
C       47.69000000      48.71200000      43.66620000
C       52.31010000      48.71160000      56.33370000
C       43.66630000      47.68980000      48.71170000
C       56.33370000      52.31030000      48.71190000
C       43.66610000      52.30980000      51.28830000
C       48.71160000      56.33360000      52.31030000
C       51.28840000      43.66620000      52.30980000
C       48.71200000      43.66630000      47.68960000
C       56.33370000      51.28850000      47.69000000
C       51.28830000      47.68970000      56.33370000
C       47.68970000      56.33360000      51.28850000
C       43.66620000      51.28790000      52.31010000
C       43.66630000      48.71170000      47.68990000
C       56.33380000      48.71190000      52.31000000
C       48.71190000      47.69020000      43.66610000
C       48.71170000      52.30970000      56.33390000
C       51.28810000      52.31040000      43.66630000
C       52.30980000      56.33390000      48.71210000
C       52.31030000      43.66620000      51.28790000
C       47.69020000      43.66620000      48.71150000
C       56.26410000      48.82170000      47.80810000
C       47.80790000      56.26410000      48.82170000
C       48.82150000      47.80780000      56.26400000
C       43.73590000      48.82110000      52.19180000
C       56.26410000      51.17870000      52.19190000
C       43.73590000      51.17850000      47.80820000
C       52.19160000      56.26410000      51.17890000
C       47.80840000      43.73580000      51.17830000
C       52.19210000      43.73600000      48.82110000
C       51.17870000      47.80850000      43.73580000
C       48.82130000      52.19210000      43.73600000
C       51.17850000      52.19160000      56.26420000
C       47.80820000      48.82100000      56.26400000
C       48.82120000      56.26420000      47.80840000
C       56.26420000      47.80840000      48.82130000
C       52.19190000      48.82180000      43.73580000
C       52.19180000      51.17840000      56.26420000
C       47.80810000      51.17880000      43.73590000
C       51.17840000      56.26400000      52.19220000
C       51.17880000      43.73600000      47.80780000
C       48.82160000      43.73580000      52.19160000
C       43.73600000      47.80790000      51.17850000
C       43.73580000      52.19170000      48.82150000
C       56.26400000      52.19200000      51.17870000
C       49.90250000      54.82040000      53.84170000
C       53.84140000      49.90260000      54.82060000
C       54.82040000      53.84160000      49.90290000
C       50.09710000      54.82080000      46.15880000
C       49.90290000      45.17960000      46.15830000
C       50.09750000      45.17920000      53.84120000
C       46.15860000      49.90280000      45.17940000
C       53.84140000      50.09770000      45.17940000
C       46.15860000      50.09700000      54.82060000
C       45.17930000      53.84130000      50.09750000
C       54.82070000      46.15870000      50.09710000
C       45.17960000      46.15840000      49.90250000
C       53.84130000      54.82070000      49.90290000
C       54.82060000      49.90270000      53.84140000
C       49.90260000      53.84120000      54.82080000
C       46.15840000      54.82040000      50.09750000
C       46.15870000      45.17930000      49.90250000
C       53.84160000      45.17950000      50.09710000
C       45.17940000      49.90270000      46.15860000
C       45.17940000      50.09700000      53.84140000
C       54.82060000      50.09770000      46.15860000
C       50.09720000      53.84170000      45.17960000
C       50.09740000      46.15830000      54.82040000
C       49.90280000      46.15880000      45.17920000
C       55.32160000      48.67230000      53.30790000
C       53.30780000      55.32180000      48.67250000
C       48.67220000      53.30770000      55.32180000
C       44.67840000      48.67220000      46.69200000
C       55.32160000      51.32810000      46.69210000
C       44.67830000      51.32740000      53.30800000
C       46.69180000      55.32140000      51.32800000
C       53.30810000      44.67850000      51.32750000
C       46.69220000      44.67830000      48.67200000
C       51.32760000      53.30830000      44.67860000
C       48.67240000      46.69220000      44.67820000
C       51.32780000      46.69180000      55.32150000
C       53.30800000      48.67210000      55.32150000
C       48.67210000      55.32140000      53.30820000
C       55.32150000      53.30820000      48.67240000
C       46.69210000      48.67240000      44.67830000
C       46.69200000      51.32740000      55.32170000
C       53.30790000      51.32810000      44.67850000
C       51.32750000      55.32180000      46.69230000
C       51.32790000      44.67830000      53.30770000
C       48.67250000      44.67850000      46.69180000
C       44.67830000      53.30770000      51.32790000
C       44.67850000      46.69190000      48.67210000
C       55.32170000      46.69220000      51.32760000
C       52.40100000      45.61640000      46.59830000
C       46.59840000      52.40100000      45.61620000
C       45.61620000      46.59820000      52.40070000
C       47.59930000      45.61590000      53.40130000
C       52.40070000      54.38380000      53.40170000
C       47.59900000      54.38390000      46.59870000
C       53.40140000      52.40080000      54.38400000
C       46.59860000      47.59880000      54.38380000
C       53.40160000      47.59940000      45.61600000
C       54.38400000      46.59870000      47.59900000
C       45.61600000      53.40150000      47.59930000
C       54.38380000      53.40160000      52.40100000
C       46.59860000      45.61590000      52.40070000
C       45.61600000      52.40090000      46.59860000
C       52.40100000      46.59880000      45.61600000
C       53.40170000      45.61640000      47.59890000
C       53.40140000      54.38390000      52.40110000
C       46.59830000      54.38390000      47.59930000
C       54.38380000      52.40090000      53.40160000
C       54.38400000      47.59940000      46.59840000
C       45.61620000      47.59880000      53.40140000
C       47.59920000      46.59820000      54.38370000
C       47.59900000      53.40160000      45.61630000
C       52.40080000      53.40140000      54.38400000
C       48.89390000      47.03580000      54.99400000
C       54.99420000      48.89410000      47.03600000
C       47.03590000      54.99410000      48.89410000
C       51.10630000      47.03630000      45.00570000
C       48.89370000      52.96410000      45.00600000
C       51.10610000      52.96380000      54.99430000
C       45.00590000      48.89350000      52.96390000
C       54.99410000      51.10620000      52.96400000
C       45.00580000      51.10610000      47.03610000
C       52.96380000      54.99420000      51.10640000
C       47.03620000      45.00570000      51.10590000
C       52.96410000      45.00600000      48.89360000
C       54.99420000      47.03630000      48.89370000
C       47.03610000      48.89350000      54.99410000
C       48.89370000      54.99420000      47.03630000
C       45.00600000      47.03580000      51.10600000
C       45.00580000      52.96380000      48.89400000
C       54.99400000      52.96410000      51.10630000
C       52.96400000      48.89420000      45.00580000
C       52.96390000      51.10600000      54.99420000
C       47.03600000      51.10630000      45.00590000
C       51.10600000      54.99400000      52.96420000
C       51.10630000      45.00600000      47.03580000
C       48.89400000      45.00570000      52.96370000
C       49.98130000      56.99150000      52.00890000
C       52.00860000      49.98130000      56.99160000
C       56.99150000      52.00880000      49.98170000
C       50.01820000      56.99170000      47.99180000
C       49.98180000      43.00850000      47.99110000
C       50.01870000      43.00830000      52.00820000
C       47.99140000      49.98180000      43.00840000
C       52.00860000      50.01880000      43.00840000
C       47.99140000      50.01810000      56.99160000
C       43.00840000      52.00830000      50.01850000
C       56.99160000      47.99170000      50.01840000
C       43.00850000      47.99120000      49.98140000
C       52.00830000      56.99160000      49.98190000
C       56.99160000      49.98170000      52.00860000
C       49.98150000      52.00820000      56.99170000
C       47.99120000      56.99150000      50.01880000
C       47.99170000      43.00840000      49.98120000
C       52.00880000      43.00850000      50.01810000
C       43.00840000      49.98140000      47.99140000
C       43.00840000      50.01810000      52.00860000
C       56.99160000      50.01880000      47.99140000
C       50.01840000      52.00890000      43.00850000
C       50.01850000      47.99110000      56.99150000
C       49.98160000      47.99180000      43.00830000
C       45.94800000      51.71210000      49.16920000
C       49.16930000      45.94790000      51.71200000
C       51.71220000      49.16940000      45.94800000
C       54.05190000      51.71230000      50.83090000
C       45.94810000      48.28760000      50.83080000
C       54.05200000      48.28800000      49.16910000
C       50.83100000      45.94810000      48.28760000
C       49.16900000      54.05200000      48.28800000
C       50.83070000      54.05190000      51.71240000
C       48.28780000      49.16890000      54.05190000
C       51.71220000      50.83070000      54.05200000
C       48.28780000      50.83100000      45.94810000
C       49.16910000      51.71240000      45.94810000
C       51.71230000      45.94810000      49.16900000
C       45.94800000      49.16890000      51.71220000
C       50.83080000      51.71200000      54.05210000
C       50.83090000      48.28800000      45.94790000
C       49.16920000      48.28760000      54.05190000
C       48.28790000      45.94790000      50.83060000
C       48.28770000      54.05200000      49.16930000
C       51.71210000      54.05200000      50.83100000
C       54.05200000      49.16940000      48.28780000
C       54.05190000      50.83090000      51.71220000
C       45.94800000      50.83080000      48.28780000
C       45.46720000      47.49030000      46.47890000
C       46.47920000      45.46710000      47.49010000
C       47.49040000      46.47920000      45.46690000
C       54.53300000      47.49030000      53.52080000
C       45.46700000      52.50940000      53.52100000
C       54.53280000      52.51000000      46.47920000
C       53.52110000      45.46710000      52.50950000
C       46.47890000      54.53270000      52.50990000
C       53.52080000      54.53320000      47.49050000
C       52.50980000      46.47890000      54.53280000
C       47.49020000      53.52060000      54.53310000
C       52.50960000      53.52120000      45.46720000
C       46.47920000      47.49040000      45.46700000
C       47.49050000      45.46720000      46.47890000
C       45.46720000      46.47900000      47.49010000
C       53.52100000      47.49020000      54.53280000
C       53.52090000      52.51000000      45.46720000
C       46.47900000      52.50940000      54.53300000
C       52.50990000      45.46700000      53.52070000
C       52.50960000      54.53320000      46.47930000
C       47.49010000      54.53270000      53.52110000
C       54.53300000      46.47910000      52.50960000
C       54.53280000      53.52120000      47.49050000
C       45.46700000      53.52070000      52.50990000
