240
Lattice="100.0 0.0 0.0 0.0 100.0 0.0 0.0 0.0 100.0" Properties=species:S:1:pos:R:3 name=C-71174-8496-707 pressure=4.42668650684223 energy=-1754.61967025729 spacegroup=C1 times_found=1 pbc="T T T"
C       47.12620000      43.25440000      48.67250000
C       43.03350000      48.77940000      47.10100000
C       48.69080000      47.41230000      43.42480000
C       52.88540000      42.82800000      51.52800000
C       52.75030000      57.07560000      48.60850000
C       46.89830000      56.77060000      51.30030000
C       57.11130000      48.35830000      52.86730000
C       56.76510000      51.44470000      47.20760000
C       43.31850000      51.38410000      52.77910000
C       51.56600000      47.25590000      56.54500000
C       51.31000000      52.66970000      43.61410000
C       48.58670000      52.86840000      56.84020000
C       47.02710000      56.62440000      48.53680000
C       42.77990000      51.54740000      47.09300000
C       48.50550000      52.87170000      43.28700000
C       52.70170000      56.89570000      51.30960000
C       52.88580000      43.01170000      48.75660000
C       47.19770000      43.43600000      51.38460000
C       56.94300000      51.25100000      52.70280000
C       56.52830000      48.61970000      47.51070000
C       43.10540000      48.67680000      52.85510000
C       51.33480000      52.60640000      56.48770000
C       51.43200000      47.05170000      43.15240000
C       48.74030000      47.11860000      56.69600000
C       52.54630000      55.99720000      52.41830000
C       56.07770000      52.46150000      52.72150000
C       52.52230000      52.48380000      55.71640000
C       46.97930000      56.05210000      47.26510000
C       47.18220000      44.04740000      52.63380000
C       53.07620000      43.78750000      47.53930000
C       43.50360000      52.78660000      47.19430000
C       43.82580000      47.44520000      52.70770000
C       55.86730000      47.36300000      47.60370000
C       47.16440000      53.18530000      43.80550000
C       47.42350000      46.89140000      56.11880000
C       52.63020000      47.21180000      43.92130000
C       52.80340000      43.59540000      52.74110000
C       56.39830000      47.07610000      53.11560000
C       52.85260000      47.18490000      55.95120000
C       47.29720000      44.01600000      47.46760000
C       46.69830000      56.14060000      52.58950000
C       52.66180000      56.33600000      47.38010000
C       43.84540000      47.58000000      46.94400000
C       43.91580000      52.63770000      52.80960000
C       56.12530000      52.73590000      46.94860000
C       47.49340000      47.58950000      44.16220000
C       47.34860000      52.69530000      56.13850000
C       52.58800000      52.74800000      44.18280000
C       57.36450000      49.38460000      48.35850000
C       49.38460000      48.30160000      57.06110000
C       48.17290000      57.04700000      49.22380000
C       42.81570000      49.26130000      51.63660000
C       42.62900000      50.90560000      48.31420000
C       57.55860000      50.49410000      51.69640000
C       50.90810000      48.25410000      42.73370000
C       50.59910000      51.66520000      57.27970000
C       49.13150000      51.73520000      42.82200000
C       51.47730000      57.15800000      50.67500000
C       51.65140000      42.80640000      49.43110000
C       48.36550000      42.98480000      50.70200000
C       57.37410000      50.85960000      48.28950000
C       49.15290000      51.68180000      57.23380000
C       48.34030000      42.94750000      49.25960000
C       42.86020000      50.70490000      51.61000000
C       42.75450000      49.44590000      48.32630000
C       57.62140000      49.00490000      51.75570000
C       50.59470000      51.59760000      43.03290000
C       50.86450000      48.27140000      57.18850000
C       49.47280000      48.33120000      42.65490000
C       51.65930000      42.70210000      50.88990000
C       51.50340000      57.24000000      49.23400000
C       48.12260000      57.03930000      50.69800000
C       55.73180000      46.12980000      48.36600000
C       46.37910000      47.62990000      55.47590000
C       47.79270000      55.90910000      46.10720000
C       43.89250000      47.09550000      51.28200000
C       43.61250000      53.12910000      48.60510000
C       55.31670000      53.40400000      51.90260000
C       53.02260000      48.62230000      43.93460000
C       53.76650000      51.73640000      55.54280000
C       46.04070000      52.51970000      44.40280000
C       51.12930000      55.91600000      52.77770000
C       52.33240000      44.51360000      46.55220000
C       47.97710000      44.16160000      53.82090000
C       55.45380000      53.78680000      47.66620000
C       46.98570000      51.26580000      56.11640000
C       48.72180000      44.07210000      47.12760000
C       44.00330000      53.84240000      52.03780000
C       44.54540000      46.59070000      47.70480000
C       55.70070000      46.02210000      52.42340000
C       53.80220000      52.01680000      44.28570000
C       54.09280000      47.89110000      55.80970000
C       46.27780000      48.41010000      44.33170000
C       51.39970000      43.75820000      53.07810000
C       51.25520000      56.23640000      46.99110000
C       47.47940000      55.44560000      53.56020000
C       55.75330000      52.52460000      45.53550000
C       52.84220000      45.96130000      55.09570000
C       45.27880000      55.79120000      52.48400000
C       44.82150000      52.66670000      53.99210000
C       44.30820000      47.77430000      45.56790000
C       56.02350000      47.28540000      54.52670000
C       47.47860000      46.41150000      45.12200000
C       47.33680000      53.89110000      55.34630000
C       52.64150000      53.99370000      44.99310000
C       53.89980000      55.58970000      47.38510000
C       54.06980000      44.28430000      52.74250000
C       46.10410000      44.80700000      47.46840000
C       54.98120000      47.33000000      46.37540000
C       52.41840000      53.57040000      54.66660000
C       46.00240000      44.94890000      52.67330000
C       44.59380000      47.43400000      53.91910000
C       44.22890000      52.80880000      45.94480000
C       55.63100000      52.34670000      54.12530000
C       47.36920000      54.60510000      44.16020000
C       47.55440000      45.46680000      55.76650000
C       52.59440000      46.04040000      44.74530000
C       54.48530000      44.17220000      47.71280000
C       53.72440000      55.17550000      52.28880000
C       45.75850000      55.22210000      47.19350000
C       45.26800000      51.16400000      44.50120000
C       50.94150000      44.67200000      45.81460000
C       44.55840000      46.00160000      50.58330000
C       54.76310000      50.57840000      55.55070000
C       54.12790000      49.27630000      44.63550000
C       45.66470000      49.03770000      55.36730000
C       49.30310000      44.34560000      54.52040000
C       49.13380000      55.67340000      45.48190000
C       50.41660000      55.23290000      53.86200000
C       55.63280000      45.22450000      49.60740000
C       55.25790000      54.38350000      50.57900000
C       44.23220000      54.26800000      49.25980000
C       45.33590000      49.67740000      44.42430000
C       50.59210000      55.57950000      45.85980000
C       44.15680000      54.57620000      50.72500000
C       54.89700000      49.13580000      55.64770000
C       54.49260000      50.71550000      44.50630000
C       45.88770000      50.56030000      55.43820000
C       48.91840000      55.27630000      54.17710000
C       49.43960000      44.73500000      46.04980000
C       50.76090000      44.42670000      54.19350000
C       55.29930000      54.51990000      49.05560000
C       55.56950000      45.21050000      51.08760000
C       44.61610000      45.80870000      49.07100000
C       43.14480000      49.54000000      45.86910000
C       49.30360000      46.20460000      43.92670000
C       45.95530000      43.66990000      49.38790000
C       56.92680000      49.20030000      54.03200000
C       56.39450000      50.53900000      46.13010000
C       43.76900000      50.72890000      53.96340000
C       50.88500000      46.09040000      56.10860000
C       50.67390000      53.86270000      43.99050000
C       49.35620000      53.95730000      56.31390000
C       54.11210000      43.05300000      50.87800000
C       53.96070000      56.75090000      49.28520000
C       45.72370000      56.52810000      50.48980000
C       43.06780000      50.89920000      45.87760000
C       49.36950000      53.98620000      43.64400000
C       45.82520000      56.24750000      49.16360000
C       56.82510000      50.56740000      53.96260000
C       56.04820000      49.23870000      46.32970000
C       43.53560000      49.39370000      54.01940000
C       50.66830000      53.77680000      55.98470000
C       50.62450000      45.98280000      43.65440000
C       49.56430000      45.96350000      56.41610000
C       53.93640000      56.64480000      50.63920000
C       54.12290000      43.08400000      49.51590000
C       46.01200000      43.88420000      50.73040000
C       44.71660000      54.66220000      52.99310000
C       54.63530000      53.01480000      44.94130000
C       54.11940000      45.88780000      54.49660000
C       54.46940000      54.49770000      46.77390000
C       54.65790000      45.38470000      53.31350000
C       45.61520000      45.93490000      46.87340000
C       45.38870000      53.95950000      53.98630000
C       45.53660000      47.45430000      45.10860000
C       54.85990000      46.88350000      55.09960000
C       46.22810000      46.44530000      45.73910000
C       46.63260000      54.47800000      54.33300000
C       53.93760000      54.04210000      45.56180000
C       46.02420000      45.53710000      53.96040000
C       54.38180000      46.07050000      46.35060000
C       53.58970000      53.47980000      53.89560000
C       54.99830000      45.37240000      47.36740000
C       54.16090000      53.96010000      52.71560000
C       45.77110000      54.62890000      45.90580000
C       45.64070000      46.76660000      54.49210000
C       45.32300000      53.41860000      45.37330000
C       54.38670000      52.61330000      54.58070000
C       46.83550000      55.22850000      45.24300000
C       47.03490000      44.88460000      54.65150000
C       53.20700000      45.51580000      45.85480000
C       48.15570000      50.62460000      56.85210000
C       50.53600000      56.86310000      48.14480000
C       58.01480000      48.36060000      50.57650000
C       51.36210000      50.48810000      42.98610000
C       51.53410000      49.37700000      57.67730000
C       48.85910000      49.46350000      42.22310000
C       49.18230000      56.87880000      51.52740000
C       49.37380000      43.33880000      48.26940000
C       50.67940000      43.15270000      51.89560000
C       43.00840000      48.60710000      49.36660000
C       42.91440000      51.56020000      50.55720000
C       57.83390000      51.57390000      49.41080000
C       48.59140000      49.39880000      57.01300000
C       50.61710000      43.11240000      48.60430000
C       57.89920000      51.17570000      50.56900000
C       51.88510000      49.29380000      43.15190000
C       51.26160000      50.57150000      57.74530000
C       48.46430000      50.62800000      42.29760000
C       49.42390000      43.05800000      51.54910000
C       49.25920000      56.99340000      48.41250000
C       50.46770000      56.69560000      51.70000000
C       43.02340000      51.92420000      49.30650000
C       43.19960000      48.25700000      50.61330000
C       57.93790000      48.73000000      49.40900000
C       48.68490000      45.63680000      45.09910000
C       45.33550000      44.66410000      48.65340000
C       44.10890000      49.03190000      44.98530000
C       51.54690000      45.33100000      55.08830000
C       51.35750000      54.64900000      44.99450000
C       48.57620000      54.57960000      55.35720000
C       54.80670000      44.05990000      51.56290000
C       54.61620000      55.72520000      48.59310000
C       44.76150000      55.80490000      51.16960000
C       56.13890000      48.59880000      55.01050000
C       55.71080000      51.17300000      45.12120000
C       44.89080000      51.37070000      54.63170000
C       48.71540000      55.02050000      44.26110000
C       45.09150000      55.20550000      48.47810000
C       44.07790000      51.60980000      45.21890000
C       51.21090000      54.33280000      54.76580000
C       51.35830000      45.34750000      44.64750000
C       48.87830000      44.97360000      55.74190000
C       54.54530000      55.50030000      51.18400000
C       55.04940000      43.98840000      48.98270000
C       45.35420000      45.00300000      51.38330000
C       55.92680000      51.17660000      54.84050000
C       54.99230000      48.55440000      45.62850000
C       44.51690000      48.65010000      54.64180000
