240
Lattice="100.0 0.0 0.0 0.0 100.0 0.0 0.0 0.0 100.0" Properties=species:S:1:pos:R:3 name=C-71174-8496-517 pressure=0.0111752540702426 energy=-1781.79518582378 spacegroup=Th times_found=1 pbc="T T T"
C       55.27080000      51.44460000      54.77600000
C       54.77710000      55.27080000      51.44090000
C       51.44350000      54.77860000      55.26870000
C       55.26870000      48.55750000      45.22100000
C       44.73190000      48.55660000      54.77940000
C       44.72860000      51.44130000      45.22360000
C       54.77830000      44.73100000      48.55640000
C       45.22370000      44.72950000      51.44500000
C       45.22090000      55.26860000      48.55770000
C       51.44240000      45.22190000      44.73040000
C       48.55950000      45.22270000      55.27080000
C       48.55460000      54.77670000      44.73010000
C       44.73130000      51.44250000      54.77900000
C       45.22170000      55.26900000      51.44360000
C       48.55760000      54.77810000      55.26960000
C       44.72920000      48.55540000      45.22400000
C       55.27140000      48.55870000      54.77640000
C       55.26810000      51.44340000      45.22060000
C       45.22290000      44.72920000      48.55910000
C       54.77910000      44.73140000      51.44230000
C       54.77630000      55.27050000      48.55500000
C       48.55650000      45.22140000      44.73130000
C       51.44540000      45.22330000      55.26990000
C       51.44050000      54.77730000      44.72920000
C       54.16680000      55.47030000      47.23380000
C       47.23650000      54.16880000      55.47010000
C       55.47160000      47.23730000      54.16750000
C       54.17050000      44.53130000      52.76380000
C       45.83160000      44.52900000      47.23760000
C       45.83110000      55.46940000      52.76480000
C       47.23490000      45.83010000      44.53140000
C       52.76670000      45.83250000      55.46960000
C       52.76190000      54.16850000      44.52880000
C       55.46820000      52.76480000      45.82940000
C       44.53080000      52.76380000      54.16990000
C       44.52950000      47.23410000      45.83320000
C       45.82950000      55.46870000      47.23620000
C       52.76510000      54.16990000      55.46860000
C       44.53180000      47.23520000      54.17060000
C       45.83320000      44.52970000      52.76620000
C       54.16890000      44.53060000      47.23520000
C       54.16840000      55.47100000      52.76240000
C       52.76350000      45.83120000      44.52990000
C       47.23810000      45.83150000      55.47120000
C       47.23330000      54.16750000      44.53040000
C       44.52840000      52.76270000      45.83250000
C       55.47050000      52.76590000      54.16680000
C       55.46920000      47.23620000      45.83010000
C       49.23850000      44.52280000      45.80970000
C       45.80740000      49.23720000      44.52480000
C       44.52410000      45.80760000      49.24070000
C       49.23880000      55.47690000      54.19080000
C       50.75910000      55.47610000      45.80790000
C       50.76360000      44.52420000      54.19170000
C       45.81020000      50.76120000      55.47760000
C       54.18950000      50.76150000      44.52220000
C       54.19290000      49.24010000      55.47540000
C       44.52290000      54.19030000      50.76240000
C       55.47550000      54.19220000      49.23660000
C       55.47750000      45.80990000      50.76030000
C       50.76120000      44.52310000      45.80920000
C       54.18980000      49.23880000      44.52240000
C       55.47710000      45.80970000      49.23760000
C       50.76150000      55.47720000      54.19030000
C       49.23640000      55.47580000      45.80830000
C       49.24090000      44.52390000      54.19210000
C       54.19260000      50.76280000      55.47520000
C       45.80710000      50.75990000      44.52460000
C       45.81050000      49.23850000      55.47780000
C       55.47590000      54.19240000      50.75930000
C       44.52250000      54.19010000      49.23970000
C       44.52450000      45.80780000      50.76340000
C       45.35430000      55.11240000      46.01910000
C       46.02070000      45.35630000      55.11550000
C       55.11330000      46.01880000      45.35540000
C       45.35850000      44.88580000      53.98360000
C       54.64350000      44.88660000      46.01770000
C       54.64380000      55.11520000      53.97960000
C       46.01600000      54.64220000      44.88670000
C       53.98220000      54.64500000      55.11210000
C       53.98110000      45.35650000      44.88560000
C       55.11440000      53.98320000      54.64170000
C       44.88410000      53.98000000      45.35730000
C       44.88830000      46.01800000      54.64560000
C       54.64150000      55.11420000      46.01640000
C       53.98400000      45.35780000      55.11330000
C       44.88560000      46.01680000      45.35830000
C       54.64570000      44.88760000      53.98090000
C       45.35620000      44.88480000      46.02040000
C       45.35650000      55.11340000      53.98230000
C       53.97930000      54.64370000      44.88450000
C       46.01890000      54.64350000      55.11440000
C       46.01780000      45.35500000      44.88790000
C       44.88670000      53.98120000      54.64460000
C       55.11170000      53.98200000      45.35440000
C       55.11590000      46.02000000      54.64270000
C       43.39630000      48.67840000      52.87390000
C       52.87280000      43.39560000      48.67930000
C       48.67690000      52.87080000      43.39530000
C       43.39420000      51.31910000      47.12980000
C       56.60530000      51.32230000      52.86980000
C       56.60420000      48.68020000      47.12640000
C       52.87100000      56.60550000      51.31910000
C       47.12650000      56.60400000      48.67930000
C       47.12980000      43.39490000      51.32240000
C       48.68170000      47.12870000      56.60550000
C       51.31940000      47.12750000      43.39520000
C       51.32200000      52.87300000      56.60400000
C       56.60580000      48.68090000      52.87020000
C       47.12900000      43.39450000      48.68090000
C       51.31830000      52.87130000      43.39450000
C       56.60370000      51.32160000      47.12610000
C       43.39580000      51.31980000      52.87360000
C       43.39470000      48.67770000      47.13020000
C       47.12720000      56.60440000      51.32070000
C       52.87020000      56.60510000      48.67760000
C       52.87350000      43.39600000      51.32070000
C       51.32310000      47.12920000      56.60470000
C       48.67800000      47.12700000      43.39600000
C       48.68060000      52.87250000      56.60480000
C       49.27670000      51.60730000      43.23050000
C       43.23110000      49.27780000      51.61040000
C       51.60940000      43.23070000      49.27930000
C       49.28110000      48.39240000      56.76990000
C       50.71950000      48.39090000      43.23050000
C       50.72270000      51.60930000      56.76910000
C       43.22990000      50.71960000      48.39350000
C       56.76980000      50.72260000      51.60630000
C       56.76920000      49.28000000      48.38980000
C       51.60720000      56.76990000      50.71980000
C       48.39020000      56.76910000      49.27850000
C       48.39320000      43.23030000      50.72240000
C       50.71890000      51.60760000      43.23010000
C       56.77010000      49.28040000      51.60650000
C       48.39280000      43.23010000      49.28020000
C       50.72330000      48.39270000      56.76950000
C       49.27730000      48.39070000      43.23090000
C       49.28050000      51.60910000      56.76950000
C       56.76890000      50.72220000      48.38960000
C       43.23080000      50.72000000      51.61020000
C       43.23020000      49.27740000      48.39370000
C       48.39060000      56.76930000      50.72070000
C       51.60680000      56.76970000      49.27760000
C       51.60980000      43.23090000      50.72150000
C       47.37920000      52.84770000      56.08280000
C       56.08370000      47.37950000      52.84600000
C       52.84550000      56.08260000      47.37640000
C       47.37680000      47.15130000      43.91870000
C       52.62430000      47.15380000      56.08200000
C       52.61970000      52.84720000      43.91650000
C       56.08110000      52.62280000      47.15050000
C       43.91790000      52.62120000      52.84880000
C       43.91730000      47.37650000      47.15460000
C       52.84930000      43.91850000      52.62190000
C       47.15300000      43.91670000      47.37960000
C       47.15220000      56.08220000      52.62200000
C       52.62320000      52.84870000      56.08130000
C       43.91890000      47.37720000      52.84950000
C       47.15070000      56.08150000      47.37810000
C       52.62080000      47.15230000      43.91720000
C       47.38030000      47.15280000      56.08350000
C       47.37570000      52.84620000      43.91800000
C       43.91630000      52.62050000      47.15400000
C       56.08270000      52.62350000      52.84540000
C       56.08210000      47.37880000      47.15120000
C       47.15450000      43.91740000      52.62360000
C       52.84780000      43.91780000      47.37800000
C       52.84700000      56.08330000      52.62040000
C       51.44980000      43.98570000      46.97360000
C       46.97130000      51.44820000      43.98640000
C       43.98680000      46.97230000      51.45160000
C       51.44920000      56.01490000      53.02550000
C       48.54840000      56.01360000      46.97290000
C       48.55250000      43.98590000      53.02790000
C       46.97530000      48.55060000      56.01530000
C       53.02530000      48.55030000      43.98510000
C       53.02810000      51.45090000      56.01320000
C       43.98480000      53.02540000      48.55180000
C       56.01410000      53.02810000      51.44750000
C       56.01440000      46.97430000      48.54910000
C       48.55080000      43.98510000      46.97450000
C       53.02470000      51.44940000      43.98470000
C       56.01520000      46.97460000      51.44820000
C       48.55020000      56.01430000      53.02640000
C       51.44750000      56.01410000      46.97210000
C       51.45160000      43.98640000      53.02710000
C       53.02870000      48.55180000      56.01360000
C       46.97190000      48.54910000      43.98680000
C       46.97470000      51.44970000      56.01490000
C       56.01320000      53.02770000      48.54840000
C       43.98560000      53.02570000      51.45090000
C       43.98590000      46.97190000      48.55250000
C       54.07280000      43.78400000      49.32270000
C       49.32050000      54.07090000      43.78300000
C       43.78460000      49.32240000      54.07360000
C       54.07080000      56.21750000      50.67500000
C       45.92680000      56.21580000      49.32340000
C       45.92960000      43.78270000      50.67890000
C       49.32560000      45.92890000      56.21740000
C       50.67600000      45.92760000      43.78370000
C       50.67790000      54.07270000      56.21590000
C       43.78210000      50.67520000      45.92990000
C       56.21770000      50.67860000      54.06990000
C       56.21560000      49.32370000      45.92660000
C       45.92920000      43.78250000      49.32500000
C       50.67440000      54.07110000      43.78260000
C       56.21790000      49.32480000      54.07010000
C       45.92720000      56.21600000      50.67730000
C       54.07040000      56.21730000      49.32110000
C       54.07320000      43.78420000      50.67660000
C       50.67950000      45.92910000      56.21700000
C       49.32210000      45.92730000      43.78410000
C       49.32400000      54.07240000      56.21630000
C       56.21540000      50.67760000      45.92640000
C       43.78440000      50.67630000      54.07340000
C       43.78230000      49.32140000      45.93010000
C       56.47850000      48.15450000      49.31000000
C       49.30980000      56.47790000      48.15270000
C       48.15530000      49.31210000      56.47890000
C       56.47810000      51.84800000      50.68630000
C       43.52120000      51.84530000      49.31320000
C       43.52230000      48.15220000      50.69050000
C       49.31340000      43.52180000      51.84770000
C       50.68910000      43.52160000      48.15400000
C       50.68770000      56.47870000      51.84560000
C       48.15140000      50.68720000      43.52210000
C       51.84840000      50.68960000      56.47770000
C       51.84490000      49.31110000      43.52130000
C       43.52190000      48.15200000      49.31370000
C       50.68660000      56.47820000      48.15230000
C       51.84860000      49.31280000      56.47790000
C       43.52150000      51.84550000      50.69000000
C       56.47770000      51.84780000      49.30950000
C       56.47880000      48.15470000      50.68680000
C       50.69020000      43.52210000      51.84730000
C       49.31230000      43.52130000      48.15440000
C       49.31090000      56.47840000      51.84600000
C       51.84470000      50.68790000      43.52110000
C       48.15510000      50.68890000      56.47870000
C       48.15160000      49.31040000      43.52230000
