240
Lattice="100.0 0.0 0.0 0.0 100.0 0.0 0.0 0.0 100.0" Properties=species:S:1:pos:R:3 name=C-71174-8496-714 pressure=-0.0172405601196843 spacegroup=C1 times_found=1 energy=-1767.30381778197 pbc="T T T"
C       46.83660000      54.67640000      53.12920000
C       52.36410000      46.25180000      54.04290000
C       54.45550000      52.78160000      46.06800000
C       53.88400000      55.31020000      47.53840000
C       46.09430000      45.42910000      47.42480000
C       52.91280000      45.31760000      53.00460000
C       47.50800000      46.11060000      44.82900000
C       53.32910000      53.31990000      45.24570000
C       47.31560000      53.91480000      54.37920000
C       44.71340000      52.74940000      53.90250000
C       55.47560000      47.29810000      53.86620000
C       45.24650000      46.59400000      46.92430000
C       45.85230000      44.48790000      52.81570000
C       52.74550000      54.11680000      54.32390000
C       54.32680000      47.41980000      46.01120000
C       53.78250000      44.89900000      47.46260000
C       47.16970000      54.26220000      47.22820000
C       53.22770000      55.02030000      53.19930000
C       47.74420000      53.40970000      46.07810000
C       53.18500000      46.91410000      45.12980000
C       46.53360000      46.78920000      54.64670000
C       45.23500000      47.29800000      53.91430000
C       55.56710000      52.73910000      53.93180000
C       45.36660000      52.23810000      46.62050000
C       49.65620000      53.19030000      44.54510000
C       43.73160000      49.23610000      53.59810000
C       53.29370000      43.81700000      49.54450000
C       50.76950000      53.62690000      55.69860000
C       48.92000000      46.79590000      55.50370000
C       51.01240000      46.75930000      43.93260000
C       55.78980000      49.36130000      46.36680000
C       44.10350000      50.22650000      46.88450000
C       56.76250000      50.70690000      53.48730000
C       46.25890000      43.53110000      50.64970000
C       53.36460000      56.23170000      51.04620000
C       46.98590000      55.53070000      49.38390000
C       49.60170000      46.64680000      43.79680000
C       43.56030000      50.65390000      53.60690000
C       53.43250000      56.36900000      49.63170000
C       50.35780000      46.81600000      55.34660000
C       49.34080000      53.58440000      55.72460000
C       51.06190000      53.32020000      44.33040000
C       55.83150000      50.79020000      46.38220000
C       44.12620000      48.80500000      46.83510000
C       56.73000000      49.30200000      53.47310000
C       46.89500000      55.63100000      50.82460000
C       53.17440000      43.98630000      50.95230000
C       46.36970000      43.81240000      49.25710000
C       51.45050000      47.59450000      55.79680000
C       56.19300000      51.75470000      47.33040000
C       47.47600000      56.57220000      51.71650000
C       48.55880000      47.34240000      43.10800000
C       51.89200000      52.66650000      43.39800000
C       48.36050000      52.69470000      56.17320000
C       43.08010000      51.61030000      52.68140000
C       57.10000000      48.32530000      52.51620000
C       43.29590000      47.94180000      47.55760000
C       52.73880000      57.07270000      48.59420000
C       47.34780000      43.55970000      48.28280000
C       52.30260000      43.29140000      51.81640000
C       51.77440000      52.71230000      56.02080000
C       56.12970000      48.37190000      47.28600000
C       47.06910000      42.87820000      51.60950000
C       48.59750000      52.40880000      44.05420000
C       51.88120000      47.55910000      43.16370000
C       48.11640000      47.58920000      56.34280000
C       43.33580000      48.22130000      52.72090000
C       57.13420000      51.69130000      52.53850000
C       43.44990000      51.28880000      47.56860000
C       52.56860000      43.17850000      48.49760000
C       47.67390000      56.33470000      48.43560000
C       52.56150000      56.99190000      51.92110000
C       42.40430000      51.64390000      51.46220000
C       51.18790000      42.37330000      51.73960000
C       51.79310000      51.60890000      42.41790000
C       57.09400000      51.74400000      48.41690000
C       42.40820000      48.06480000      48.69500000
C       57.56710000      48.29980000      51.18790000
C       48.49800000      42.71890000      48.26560000
C       51.53130000      57.79070000      48.42480000
C       48.48680000      57.61540000      51.71700000
C       48.35950000      51.60880000      57.09580000
C       51.59920000      48.68550000      56.69630000
C       48.40190000      48.60780000      42.49680000
C       42.46830000      48.19330000      51.58410000
C       51.40070000      57.86430000      51.83110000
C       51.79830000      48.69390000      42.25980000
C       57.03740000      48.35900000      48.37530000
C       42.56510000      51.50030000      48.63510000
C       57.61100000      51.73670000      51.21920000
C       48.65370000      57.40180000      48.36700000
C       51.34900000      42.50250000      48.33370000
C       48.29570000      42.19470000      51.65700000
C       48.25940000      48.72890000      57.21630000
C       51.75160000      51.52210000      56.79700000
C       48.44850000      51.43330000      43.02050000
C       49.19340000      58.28050000      50.74020000
C       50.75860000      49.38910000      57.53710000
C       57.90460000      50.76290000      48.96920000
C       50.70740000      58.38960000      49.35080000
C       49.11770000      41.87580000      49.19300000
C       50.53610000      41.72350000      50.69180000
C       49.31110000      49.42720000      41.87330000
C       50.73310000      50.91580000      41.87530000
C       49.37230000      50.89280000      57.71980000
C       41.76500000      50.62070000      50.78540000
C       58.12370000      49.28800000      50.39010000
C       41.81980000      49.11920000      49.37110000
C       49.07200000      41.69140000      50.63540000
C       50.80600000      50.85290000      57.55090000
C       57.87530000      49.30650000      48.95220000
C       50.57620000      41.82270000      49.24400000
C       49.24560000      58.22580000      49.30360000
C       50.66380000      58.41140000      50.78990000
C       49.30260000      50.87950000      42.07500000
C       50.74750000      49.44650000      41.74390000
C       49.33300000      49.42090000      57.73640000
C       41.80510000      49.16810000      50.84180000
C       58.14780000      50.74710000      50.40610000
C       41.81290000      50.56810000      49.32850000
C       49.50230000      57.10480000      47.22460000
C       47.06030000      49.52170000      57.04560000
C       56.58880000      47.27350000      49.18040000
C       50.61080000      57.61100000      53.02230000
C       48.96140000      42.65700000      52.86370000
C       50.68910000      43.11860000      47.19280000
C       53.02230000      49.45150000      42.45270000
C       47.36720000      50.60370000      43.46100000
C       52.84370000      50.76330000      56.30120000
C       42.81070000      46.98670000      50.89570000
C       56.92850000      52.86580000      50.59240000
C       43.08310000      52.66960000      49.34850000
C       49.31220000      43.27680000      47.22470000
C       47.13640000      50.91550000      56.86220000
C       56.67340000      52.83520000      49.23550000
C       50.34290000      42.70670000      52.88090000
C       49.20450000      57.51270000      52.97320000
C       50.88870000      57.25090000      47.22910000
C       53.03080000      50.85960000      42.49450000
C       47.27660000      49.24680000      43.16690000
C       52.77300000      49.36920000      56.25510000
C       43.00770000      52.73990000      50.71640000
C       56.84500000      47.21380000      50.53700000
C       42.66480000      46.89020000      49.50430000
C       46.00290000      50.20710000      45.37910000
C       44.50800000      45.27300000      50.87770000
C       51.03550000      45.14530000      45.79920000
C       54.72470000      50.74780000      54.95390000
C       45.30360000      49.41530000      55.41040000
C       54.58290000      49.40190000      44.33720000
C       54.80730000      45.75620000      49.49310000
C       45.33640000      53.81210000      49.37680000
C       54.96320000      54.32860000      51.04480000
C       48.68050000      44.84210000      54.11110000
C       50.69360000      55.69280000      54.53880000
C       49.80300000      54.99700000      46.02100000
C       45.96200000      48.75580000      45.22590000
C       45.24090000      53.91010000      50.88240000
C       51.25290000      55.09720000      45.95130000
C       54.66030000      49.30760000      54.91110000
C       45.30770000      50.85400000      55.33400000
C       54.62720000      50.83820000      44.34550000
C       54.91270000      54.39630000      49.56470000
C       44.47010000      45.27710000      49.44000000
C       54.82290000      45.83900000      50.96660000
C       49.25990000      55.62490000      54.51700000
C       50.15420000      44.84560000      54.08460000
C       49.55600000      45.13150000      45.74360000
C       52.15930000      44.10320000      52.97270000
C       53.19970000      52.67850000      43.95350000
C       43.96040000      52.80680000      52.75620000
C       47.35500000      44.57720000      47.22190000
C       52.94480000      56.28690000      47.34540000
C       47.45160000      55.97300000      53.01390000
C       47.13550000      52.76400000      55.37240000
C       52.64900000      47.42420000      54.96110000
C       47.31100000      47.09460000      43.89750000
C       55.29000000      52.90620000      47.34080000
C       43.97100000      46.68380000      47.59310000
C       56.20540000      47.15030000      52.71320000
C       52.52410000      56.28320000      53.15280000
C       53.12430000      47.59250000      43.85540000
C       44.21810000      47.05690000      52.79650000
C       47.81440000      55.53180000      47.26000000
C       52.77190000      44.00340000      47.26510000
C       46.89790000      43.60420000      52.89350000
C       46.78580000      47.57170000      55.81040000
C       52.95870000      52.82490000      55.16100000
C       47.50760000      52.34170000      45.04000000
C       55.18930000      47.24470000      47.28150000
C       44.36280000      52.45960000      47.51870000
C       56.26820000      52.88760000      52.76000000
C       55.46350000      46.63500000      48.59800000
C       48.99800000      55.95020000      46.60750000
C       46.18260000      48.77390000      56.24320000
C       43.85520000      46.29410000      51.60390000
C       56.04390000      53.51880000      51.51350000
C       44.25320000      53.17990000      48.71850000
C       51.33070000      56.66600000      53.80290000
C       48.15270000      43.65640000      53.51930000
C       51.54990000      44.07940000      46.57800000
C       53.80150000      48.74960000      43.41080000
C       46.83710000      51.09360000      44.67670000
C       53.63690000      51.53350000      55.40510000
C       55.56150000      53.50740000      48.66460000
C       48.69290000      44.40520000      46.61760000
C       46.38440000      51.59730000      55.85150000
C       44.07630000      53.33910000      51.45580000
C       55.94200000      46.57740000      51.44880000
C       43.56590000      46.07140000      48.78770000
C       50.90720000      43.80880000      53.55160000
C       48.55000000      56.51110000      53.73210000
C       51.74070000      56.25750000      46.62490000
C       53.85100000      51.53250000      43.44320000
C       46.65580000      48.32280000      44.06740000
C       53.48890000      48.59670000      55.30580000
C       51.93860000      53.99940000      45.32900000
C       44.48050000      51.44940000      54.41830000
C       53.74720000      45.16240000      51.67970000
C       48.60310000      54.44620000      54.85410000
C       50.95410000      45.93870000      54.41930000
C       48.90310000      45.89040000      44.81170000
C       54.97930000      51.51910000      45.50950000
C       45.25280000      48.00810000      46.23610000
C       55.68760000      48.62950000      54.27330000
C       45.55870000      44.83410000      48.67320000
C       54.14580000      55.33470000      48.92750000
C       46.27570000      54.56770000      51.64030000
C       51.76390000      46.18330000      45.08710000
C       44.76010000      48.62140000      54.39500000
C       53.95240000      55.07100000      51.79080000
C       48.00820000      46.02910000      54.59370000
C       51.44360000      54.56150000      54.85690000
C       49.07290000      53.87450000      45.64300000
C       54.88940000      48.68370000      45.49170000
C       45.21720000      50.87820000      46.26750000
C       55.77240000      51.39730000      54.32260000
C       46.45700000      54.35750000      48.65970000
C       54.04700000      44.82660000      48.84830000
C       45.42920000      44.43690000      51.46950000
