240
Lattice="100.0 0.0 0.0 0.0 100.0 0.0 0.0 0.0 100.0" Properties=species:S:1:pos:R:3 name=C-71174-8496-318 pressure=12.1879750335011 energy=-1751.94633022223 spacegroup=C1 times_found=1 pbc="T T T"
C       49.18130000      43.85150000      52.84460000
C       52.81020000      49.02360000      43.35020000
C       44.11770000      52.69930000      49.38630000
C       50.67250000      43.92400000      47.12620000
C       49.35760000      56.11180000      47.38590000
C       50.92000000      56.56090000      53.08030000
C       46.88980000      49.45150000      56.71220000
C       52.62140000      50.85420000      56.14730000
C       47.06210000      50.71200000      43.02040000
C       56.66330000      52.97920000      50.54430000
C       43.89870000      46.94730000      50.70470000
C       56.85900000      47.13680000      49.19950000
C       49.46610000      56.69600000      53.12630000
C       52.83510000      50.47870000      43.30760000
C       43.94960000      46.96940000      49.22080000
C       50.82550000      56.09730000      47.37910000
C       49.20620000      43.79000000      47.08410000
C       50.64290000      44.01900000      52.78620000
C       46.92160000      50.91050000      56.59500000
C       52.61920000      49.38490000      56.14650000
C       47.01910000      49.26110000      42.97270000
C       56.86750000      47.15720000      50.65250000
C       43.98380000      52.73400000      50.85340000
C       56.52590000      52.92170000      49.08700000
C       52.44760000      53.19090000      55.94060000
C       55.79100000      52.68550000      52.77720000
C       53.13850000      55.53620000      52.80730000
C       47.45990000      52.79990000      44.14850000
C       52.46800000      46.77570000      43.85280000
C       47.19240000      47.18650000      55.93460000
C       44.89900000      52.55910000      47.04220000
C       55.87120000      47.35130000      47.01860000
C       44.56010000      47.16030000      53.08610000
C       47.04130000      55.85380000      47.64850000
C       53.01120000      44.73510000      47.27980000
C       46.84190000      43.96720000      52.59930000
C       52.36520000      47.06510000      55.87660000
C       55.79540000      47.51830000      52.77640000
C       52.95740000      44.87990000      52.59300000
C       47.26720000      47.06260000      43.90230000
C       52.57300000      52.69710000      44.22590000
C       47.17050000      53.17020000      55.64320000
C       44.72160000      47.20810000      46.85750000
C       55.42110000      52.61140000      46.91030000
C       44.11010000      52.48340000      53.19170000
C       46.86900000      43.95580000      47.33090000
C       53.15790000      55.82540000      47.55390000
C       47.20600000      55.90780000      52.85640000
C       55.20930000      44.62260000      49.20930000
C       49.31170000      54.57700000      45.01780000
C       44.30360000      49.10690000      55.28290000
C       44.69990000      44.07670000      50.70050000
C       55.32830000      55.60330000      50.84230000
C       45.04770000      55.41640000      49.66230000
C       50.64580000      55.39270000      55.84090000
C       48.89840000      45.16840000      55.41570000
C       50.41260000      44.85560000      44.41160000
C       55.24680000      48.97740000      44.97450000
C       44.61460000      50.73560000      44.76860000
C       54.98210000      50.86660000      54.60470000
C       55.36290000      55.68450000      49.34320000
C       48.93550000      45.03050000      44.48470000
C       44.18980000      50.60330000      55.34930000
C       45.18720000      55.35820000      51.14760000
C       55.19230000      44.66900000      50.71540000
C       44.70910000      44.08150000      49.21260000
C       50.38050000      45.04050000      55.47500000
C       49.14690000      55.35730000      55.75510000
C       50.81080000      54.55490000      45.01270000
C       55.20120000      50.46870000      44.88710000
C       44.56430000      49.22950000      44.71210000
C       54.96730000      49.35870000      54.59810000
C       43.49330000      48.34690000      49.25170000
C       49.24940000      43.18300000      48.42790000
C       48.39840000      49.23000000      42.47480000
C       57.32900000      48.54670000      50.63670000
C       43.40560000      51.37770000      50.78990000
C       57.07340000      51.57960000      49.10580000
C       50.66880000      43.42010000      51.47000000
C       49.45510000      57.17390000      51.73950000
C       50.83210000      56.84090000      48.64830000
C       51.35830000      49.39440000      56.90420000
C       48.27840000      50.89740000      57.11570000
C       51.51440000      50.53770000      42.69550000
C       43.56560000      51.36260000      49.35260000
C       49.38100000      56.86390000      48.65140000
C       48.43950000      50.69100000      42.52560000
C       57.18480000      51.61450000      50.56320000
C       43.42260000      48.32030000      50.69920000
C       57.30510000      48.53210000      49.17640000
C       50.90270000      57.06700000      51.71810000
C       49.23430000      43.21250000      51.51460000
C       50.68810000      43.36470000      48.45950000
C       51.35240000      50.84500000      56.89380000
C       48.27010000      49.44800000      57.20750000
C       51.49310000      49.07560000      42.67910000
C       51.96690000      55.46040000      46.87710000
C       46.35760000      51.96940000      55.89230000
C       56.05000000      46.69650000      51.67180000
C       48.34730000      56.06470000      53.64620000
C       51.72730000      44.67580000      53.34560000
C       48.01090000      44.31180000      46.55810000
C       53.29920000      51.52440000      44.07250000
C       46.51140000      48.22660000      43.74500000
C       53.09240000      48.22910000      55.51020000
C       44.47370000      46.38400000      48.06540000
C       55.76950000      53.45860000      48.05220000
C       44.46530000      53.27530000      52.06210000
C       51.77230000      44.53250000      46.53900000
C       46.39410000      48.32540000      56.07150000
C       55.99850000      53.48580000      51.65090000
C       47.97680000      44.35640000      53.36920000
C       51.96530000      55.83390000      53.63440000
C       48.19760000      55.48620000      46.90880000
C       53.28250000      47.91710000      44.09070000
C       46.62440000      51.70960000      43.87720000
C       53.12880000      52.01230000      55.53980000
C       44.71680000      53.29350000      48.28910000
C       56.08340000      46.60420000      48.18200000
C       44.38410000      46.35050000      51.86760000
C       45.72410000      43.05200000      50.68160000
C       50.46480000      45.64350000      43.20330000
C       43.74830000      50.67860000      45.88650000
C       54.12640000      43.71220000      49.25680000
C       45.88730000      56.59030000      49.61070000
C       54.31800000      56.60090000      50.88450000
C       49.00050000      45.94530000      56.61990000
C       50.54060000      54.35070000      56.82390000
C       49.34220000      54.02160000      43.69110000
C       56.28760000      50.81420000      54.01120000
C       43.39070000      49.06630000      54.19470000
C       56.43570000      49.18970000      45.74430000
C       45.95430000      56.56630000      51.03850000
C       50.76240000      53.98750000      43.69330000
C       43.70160000      49.24300000      45.83400000
C       54.34500000      56.69310000      49.44580000
C       45.73080000      43.05290000      49.24080000
C       54.11150000      43.75550000      50.69540000
C       49.10180000      54.32380000      56.72770000
C       50.42880000      45.88990000      56.64260000
C       49.03810000      45.74790000      43.24520000
C       56.27850000      49.39400000      54.01540000
C       43.26270000      50.49980000      54.25490000
C       56.33210000      50.61260000      45.73280000
C       45.62080000      47.08100000      45.65530000
C       45.68990000      44.60870000      47.13620000
C       46.88030000      46.28690000      45.07830000
C       54.59020000      47.14140000      53.50280000
C       44.68930000      52.70090000      54.40530000
C       54.33070000      52.68450000      45.87810000
C       54.10900000      45.82080000      52.74410000
C       46.36990000      54.79080000      53.27480000
C       54.31870000      55.15640000      47.30320000
C       52.55380000      45.93010000      55.15480000
C       47.08880000      54.28900000      54.63900000
C       53.00610000      53.46240000      45.39060000
C       45.80000000      52.73550000      45.86600000
C       45.90070000      55.14100000      47.46300000
C       47.10260000      53.49970000      45.38050000
C       54.64640000      53.11200000      53.57300000
C       45.48010000      47.06170000      54.26150000
C       54.71030000      46.91250000      46.24400000
C       54.21360000      54.49230000      52.87800000
C       45.65490000      44.60660000      52.78880000
C       54.18650000      45.64810000      47.08400000
C       52.70360000      54.37440000      55.31730000
C       46.79880000      46.34300000      54.80910000
C       52.61030000      45.69180000      44.65810000
C       51.96340000      56.97300000      49.44620000
C       49.07250000      52.00880000      57.03690000
C       57.16100000      49.37180000      51.73790000
C       48.31830000      57.13140000      50.94800000
C       51.80390000      43.50500000      50.69740000
C       48.15170000      42.92940000      49.23240000
C       50.74420000      51.69890000      42.79060000
C       49.16530000      48.07430000      42.56000000
C       50.54020000      48.28720000      57.08580000
C       43.55710000      49.15350000      48.14560000
C       56.95090000      50.77040000      48.00050000
C       43.21310000      50.54030000      51.86860000
C       51.81820000      43.46940000      49.23390000
C       49.07150000      48.31690000      57.17570000
C       57.12130000      50.82650000      51.70780000
C       48.14360000      42.93560000      50.71030000
C       52.00810000      56.96330000      50.91800000
C       48.27980000      57.04290000      49.47920000
C       50.63290000      47.99270000      42.60770000
C       49.28860000      51.76740000      42.73380000
C       50.54620000      51.96770000      57.04740000
C       43.60470000      50.61650000      48.20020000
C       57.10560000      49.31470000      48.04580000
C       43.30920000      49.06970000      51.84510000
C       44.83680000      45.00480000      48.13170000
C       47.86830000      45.21210000      45.41050000
C       45.47620000      48.19540000      44.69460000
C       55.13010000      45.63860000      51.69780000
C       45.33280000      54.44480000      52.23550000
C       55.25280000      54.78480000      48.22750000
C       51.55230000      45.14050000      54.66880000
C       48.19600000      55.24430000      54.76950000
C       51.99360000      54.47770000      45.80700000
C       54.16070000      48.17870000      54.51540000
C       45.05390000      51.75900000      55.32500000
C       54.34620000      51.53750000      44.97830000
C       45.14290000      54.62780000      48.47690000
C       48.13610000      54.50180000      45.82610000
C       45.58740000      51.71490000      44.82190000
C       55.18620000      54.61500000      51.78640000
C       44.79940000      44.98820000      51.79070000
C       55.17430000      45.53440000      48.17370000
C       51.77520000      55.30730000      54.95390000
C       47.81520000      45.28550000      54.49570000
C       51.59750000      44.95640000      45.20000000
C       54.20410000      52.06320000      54.55840000
C       45.29990000      48.16550000      55.21550000
C       54.36520000      47.86260000      45.10530000
C       53.16410000      56.42990000      51.61810000
C       51.25230000      53.16320000      56.74390000
C       56.54700000      51.50070000      52.85530000
C       47.05740000      56.65340000      48.84680000
C       52.98850000      43.92100000      48.51050000
C       46.91170000      43.16290000      51.39630000
C       48.63060000      52.90020000      43.36950000
C       51.25610000      46.78420000      43.06510000
C       48.35980000      47.14380000      56.72440000
C       44.04040000      51.36140000      47.04390000
C       56.61790000      48.54920000      46.92700000
C       43.68830000      48.35940000      53.04430000
C       52.96070000      44.00170000      51.40860000
C       51.17980000      47.06840000      56.69390000
C       56.56490000      48.69600000      52.87590000
C       46.92500000      43.15770000      48.53760000
C       53.15240000      56.64020000      48.73990000
C       47.15500000      56.67730000      51.67260000
C       48.41900000      46.95210000      43.08840000
C       51.42800000      52.82160000      43.41690000
C       48.36570000      53.17470000      56.53150000
C       43.94140000      48.45720000      46.94070000
C       56.29510000      51.41000000      46.86640000
C       43.38240000      51.23930000      53.09130000
