240
Lattice="100.0 0.0 0.0 0.0 100.0 0.0 0.0 0.0 100.0" Properties=species:S:1:pos:R:3 name=C-71174-8496-533 pressure=-140.401232207946 spacegroup=C2h times_found=1 energy=-1768.76814239905 pbc="T T T"
C       49.21910000      50.67850000      41.60390000
C       42.05010000      49.42510000      50.73830000
C       50.44260000      41.84900000      49.27060000
C       49.33620000      49.21590000      58.42010000
C       50.78080000      49.32210000      41.60380000
C       50.66380000      50.78350000      58.42020000
C       42.31880000      50.83870000      49.26660000
C       57.94990000      50.57480000      50.73830000
C       57.68120000      49.16140000      49.26660000
C       50.99540000      57.90220000      50.72850000
C       49.55740000      58.15110000      49.27120000
C       49.00450000      42.09770000      50.72790000
C       50.66380000      50.78410000      41.57990000
C       57.68120000      49.16140000      50.73340000
C       49.00450000      42.09770000      49.27160000
C       50.78080000      49.32150000      58.39610000
C       49.33620000      49.21650000      41.57980000
C       49.21920000      50.67790000      58.39620000
C       57.94990000      50.57490000      49.26170000
C       42.31880000      50.83860000      50.73340000
C       42.05010000      49.42520000      49.26170000
C       49.55740000      58.15100000      50.72940000
C       50.99540000      57.90230000      49.27210000
C       50.44260000      41.84890000      50.72890000
C       55.57040000      54.52810000      50.71930000
C       50.41420000      54.85130000      54.29340000
C       54.11660000      51.19540000      55.16350000
C       54.97180000      45.31700000      49.27940000
C       44.42960000      45.47180000      50.71900000
C       45.02820000      54.68310000      49.27970000
C       51.05850000      45.10480000      45.78030000
C       49.58580000      45.14840000      54.29300000
C       48.94150000      54.89550000      45.78060000
C       54.15820000      49.73340000      44.77700000
C       45.88350000      48.80430000      55.16340000
C       45.84180000      50.26700000      44.77700000
C       45.02820000      54.68300000      50.72060000
C       48.94150000      54.89510000      54.21970000
C       45.84180000      50.26660000      55.22300000
C       44.42960000      45.47190000      49.28070000
C       54.97180000      45.31700000      50.72030000
C       55.57040000      54.52820000      49.28110000
C       49.58590000      45.14870000      45.70660000
C       51.05850000      45.10450000      54.21940000
C       50.41410000      54.85160000      45.70690000
C       45.88340000      48.80460000      44.83650000
C       54.15820000      49.73300000      55.22300000
C       54.11650000      51.19570000      44.83660000
C       48.94220000      53.28370000      56.10530000
C       55.49840000      49.50850000      53.30650000
C       53.57360000      55.79560000      49.28450000
C       49.64730000      46.61200000      43.73070000
C       51.05780000      46.71580000      56.10510000
C       50.35270000      53.38840000      43.73090000
C       55.64080000      50.93790000      46.69930000
C       44.50160000      50.49130000      53.30650000
C       44.35920000      49.06240000      46.69920000
C       53.51880000      43.25880000      50.70130000
C       46.42640000      44.20440000      49.28410000
C       46.48110000      56.74120000      50.70180000
C       50.35270000      53.38800000      56.26930000
C       44.35920000      49.06220000      53.30070000
C       46.48110000      56.74120000      49.29870000
C       51.05780000      46.71630000      43.89470000
C       49.64730000      46.61160000      56.26910000
C       48.94220000      53.28420000      43.89490000
C       44.50160000      50.49150000      46.69350000
C       55.64080000      50.93760000      53.30080000
C       55.49840000      49.50870000      46.69350000
C       46.42640000      44.20440000      50.71550000
C       53.51880000      43.25890000      49.29820000
C       53.57360000      55.79560000      50.71590000
C       52.64620000      52.92430000      56.20190000
C       55.95080000      53.06310000      52.54840000
C       52.62950000      55.24390000      52.83180000
C       53.07680000      47.73360000      44.00600000
C       47.35380000      47.07520000      56.20160000
C       46.92320000      52.26680000      44.00620000
C       55.09740000      47.23840000      47.33280000
C       44.04920000      46.93680000      52.54820000
C       44.90260000      52.76180000      47.33300000
C       52.78650000      43.73650000      47.12600000
C       47.37050000      44.75590000      52.83150000
C       47.21350000      56.26370000      47.12640000
C       46.92320000      52.26640000      55.99400000
C       44.90260000      52.76160000      52.66710000
C       47.21350000      56.26340000      52.87400000
C       47.35380000      47.07570000      43.79820000
C       53.07680000      47.73320000      55.99380000
C       52.64620000      52.92480000      43.79830000
C       44.04920000      46.93690000      47.45160000
C       55.09750000      47.23820000      52.66700000
C       55.95080000      53.06320000      47.45180000
C       47.37050000      44.75610000      47.16820000
C       52.78650000      43.73630000      52.87360000
C       52.62950000      55.24410000      47.16860000
C       48.68820000      44.47930000      53.42750000
C       53.61800000      49.00620000      43.73170000
C       44.58620000      53.55420000      48.53880000
C       48.47100000      56.01070000      46.53490000
C       51.31180000      55.52040000      53.42790000
C       51.52900000      43.98950000      46.53450000
C       53.41280000      51.75230000      56.27630000
C       46.38200000      50.99420000      43.73180000
C       46.58720000      48.24730000      56.27620000
C       43.54970000      46.28770000      51.39450000
C       55.41380000      46.44590000      48.53860000
C       56.45030000      53.71220000      51.39470000
C       51.52900000      43.98930000      53.46510000
C       46.58720000      48.24770000      43.72370000
C       56.45020000      53.71230000      48.60550000
C       51.31180000      55.52070000      46.57250000
C       48.47100000      56.01040000      53.46550000
C       48.68820000      44.47960000      46.57220000
C       46.38200000      50.99380000      56.26830000
C       53.41280000      51.75270000      43.72380000
C       53.61800000      49.00580000      56.26820000
C       55.41380000      46.44580000      51.46120000
C       43.54980000      46.28780000      48.60530000
C       44.58620000      53.55410000      51.46140000
C       54.16810000      47.51640000      46.15700000
C       46.06550000      55.52590000      47.27730000
C       47.55630000      46.16850000      55.19990000
C       54.69360000      53.22060000      53.23590000
C       45.83200000      52.48380000      46.15720000
C       45.30640000      46.77920000      53.23560000
C       46.12400000      45.62830000      52.69200000
C       53.93450000      44.47430000      47.27690000
C       53.87600000      54.37150000      52.69230000
C       46.88310000      53.02180000      45.22430000
C       52.44370000      53.83110000      55.20020000
C       53.11690000      46.97860000      45.22410000
C       45.30640000      46.77940000      46.76420000
C       53.87600000      54.37170000      47.30800000
C       53.11690000      46.97820000      54.77570000
C       45.83200000      52.48360000      53.84300000
C       54.69360000      53.22080000      46.76440000
C       54.16810000      47.51620000      53.84280000
C       53.93440000      44.47420000      52.72270000
C       46.12400000      45.62850000      47.30770000
C       46.06550000      55.52560000      52.72300000
C       52.44370000      53.83150000      44.80010000
C       46.88320000      53.02140000      54.77590000
C       47.55630000      46.16890000      44.79990000
C       43.62990000      52.82890000      49.30050000
C       49.25600000      43.35270000      52.77820000
C       52.92260000      49.58770000      42.65280000
C       42.62920000      47.11920000      50.70540000
C       56.37010000      47.17120000      49.30030000
C       57.37080000      52.88080000      50.70560000
C       49.38810000      56.90620000      47.17650000
C       50.74400000      56.64710000      52.77860000
C       50.61190000      43.09400000      47.17600000
C       52.82740000      50.97130000      57.33820000
C       47.07740000      50.41280000      42.65290000
C       47.17260000      49.02810000      57.33810000
C       57.37070000      52.88080000      49.29460000
C       50.61190000      43.09380000      52.82350000
C       47.17260000      49.02860000      42.66180000
C       56.37010000      47.17120000      50.69950000
C       42.62920000      47.11930000      49.29440000
C       43.62990000      52.82880000      50.69970000
C       50.74400000      56.64730000      47.22180000
C       49.38810000      56.90600000      52.82400000
C       49.25600000      43.35290000      47.22140000
C       47.07740000      50.41230000      57.34710000
C       52.82740000      50.97190000      42.66180000
C       52.92260000      49.58720000      57.34710000
C       54.42550000      54.89670000      51.42110000
C       51.05500000      54.08340000      55.22300000
C       54.65770000      51.82940000      53.98740000
C       54.32650000      44.28530000      48.61660000
C       45.57450000      45.10320000      51.42080000
C       45.67340000      55.71490000      48.61690000
C       51.78330000      46.15720000      45.08130000
C       48.94500000      45.91630000      55.22270000
C       48.21670000      53.84310000      45.08150000
C       54.54760000      48.91450000      45.83760000
C       45.34230000      48.17040000      53.98730000
C       45.45240000      51.08570000      45.83770000
C       45.67340000      55.71480000      51.38340000
C       48.21670000      53.84280000      54.91880000
C       45.45240000      51.08550000      54.16240000
C       45.57450000      45.10330000      48.57890000
C       54.32650000      44.28520000      51.38310000
C       54.42550000      54.89680000      48.57930000
C       48.94500000      45.91660000      44.77700000
C       51.78330000      46.15690000      54.91850000
C       51.05500000      54.08380000      44.77730000
C       45.34230000      48.17060000      46.01260000
C       54.54760000      48.91420000      54.16230000
C       54.65770000      51.82960000      46.01270000
C       56.51200000      51.75630000      47.45040000
C       47.42250000      57.13750000      51.68450000
C       51.92370000      47.57720000      56.81130000
C       55.95360000      48.42540000      52.52780000
C       43.48800000      48.24390000      47.45030000
C       44.04650000      51.57450000      52.52780000
C       47.35470000      43.83370000      48.30850000
C       52.57750000      42.86230000      51.68400000
C       52.64530000      56.16640000      48.30890000
C       51.39720000      52.73560000      43.00950000
C       48.07630000      52.42230000      56.81150000
C       48.60280000      47.26480000      43.00940000
C       44.04650000      51.57460000      47.47220000
C       52.64530000      56.16630000      51.69150000
C       48.60280000      47.26440000      56.99050000
C       43.48800000      48.24370000      52.54960000
C       55.95350000      48.42550000      47.47210000
C       56.51200000      51.75610000      52.54980000
C       52.57750000      42.86240000      48.31550000
C       47.35470000      43.83350000      51.69110000
C       47.42250000      57.13770000      48.31600000
C       48.07630000      52.42280000      43.18870000
C       51.39720000      52.73510000      56.99070000
C       51.92370000      47.57770000      43.18850000
C       48.74830000      57.60990000      48.28250000
C       48.41400000      48.40780000      57.79170000
C       56.84130000      48.30880000      48.57830000
C       48.43870000      42.92160000      51.69210000
C       51.25170000      42.39020000      48.28200000
C       51.56130000      57.07830000      51.69250000
C       48.17610000      51.29700000      42.28410000
C       51.58600000      51.59160000      57.79180000
C       51.82390000      48.70350000      42.28400000
C       57.45880000      51.64600000      51.45970000
C       43.15880000      51.69130000      48.57840000
C       42.54120000      48.35400000      51.45960000
C       51.56130000      57.07840000      48.30800000
C       51.82390000      48.70300000      57.71590000
C       42.54120000      48.35410000      48.54030000
C       51.25170000      42.39010000      51.71750000
C       48.43870000      42.92170000      48.30750000
C       48.74830000      57.60980000      51.71800000
C       51.58600000      51.59220000      42.20830000
C       48.17610000      51.29650000      57.71600000
C       48.41400000      48.40830000      42.20820000
C       43.15880000      51.69130000      51.42170000
C       57.45880000      51.64600000      48.54040000
C       56.84130000      48.30870000      51.42160000
