240
Lattice="100.0 0.0 0.0 0.0 100.0 0.0 0.0 0.0 100.0" Properties=species:S:1:pos:R:3 name=C-71174-8496-856 pressure=11.9025500951216 spacegroup=Td times_found=1 energy=-1755.45640209442 pbc="T T T"
C       46.06410000      54.92210000      52.89710000
C       52.99920000      46.16110000      54.93750000
C       54.85600000      52.91060000      45.99260000
C       54.00270000      45.13930000      52.90920000
C       53.83690000      54.93850000      46.99980000
C       46.09630000      45.00010000      47.19400000
C       47.11420000      53.94320000      54.92290000
C       47.07950000      45.99930000      45.14450000
C       52.80710000      53.89650000      44.99510000
C       45.05380000      47.00650000      46.16790000
C       45.08570000      52.89570000      53.94660000
C       55.00450000      47.18720000      53.89290000
C       55.00300000      46.15980000      52.88690000
C       46.10780000      52.91640000      54.94530000
C       52.80850000      54.91760000      45.99500000
C       45.06380000      53.90160000      52.91940000
C       54.85750000      53.93800000      46.99860000
C       45.07570000      46.00060000      47.19510000
C       54.00570000      47.18780000      54.91510000
C       46.05270000      47.00580000      45.14570000
C       53.83390000      52.88990000      44.99390000
C       47.10130000      44.99950000      46.16550000
C       52.99770000      45.14000000      53.93760000
C       47.09250000      54.94290000      53.90190000
C       43.42950000      52.58530000      51.67550000
C       51.72310000      43.48120000      52.68290000
C       52.54130000      51.58360000      43.38970000
C       56.60790000      47.44910000      51.57820000
C       56.51760000      52.68110000      48.26940000
C       43.44500000      47.28450000      48.47680000
C       48.33750000      56.57450000      52.58340000
C       48.40870000      43.39320000      47.45440000
C       51.53070000      56.55110000      47.27930000
C       47.30760000      48.27760000      43.48490000
C       47.42600000      51.67020000      56.57630000
C       52.72500000      48.46860000      56.54920000
C       52.71780000      43.48050000      51.66500000
C       43.45120000      51.58970000      52.69230000
C       51.52500000      52.58000000      43.39090000
C       47.31960000      56.55390000      51.58880000
C       52.54860000      56.57170000      48.27390000
C       47.41400000      43.39390000      48.47230000
C       56.60940000      48.46600000      52.57400000
C       43.42330000      48.28010000      47.46000000
C       56.51610000      51.66420000      47.27360000
C       48.32400000      47.28130000      43.48370000
C       51.72880000      47.45230000      56.57140000
C       48.42220000      52.68650000      56.55410000
C       49.44660000      42.99100000      48.41330000
C       48.25890000      49.30520000      43.04040000
C       43.02440000      48.25750000      49.49420000
C       50.51510000      56.97380000      48.25310000
C       50.69370000      43.03820000      51.73280000
C       49.34470000      56.99700000      51.60080000
C       51.58040000      50.54710000      42.98900000
C       51.75320000      49.48600000      56.97230000
C       48.40750000      50.66170000      56.99830000
C       56.96160000      51.72970000      49.29710000
C       57.00900000      48.40890000      50.54070000
C       43.00490000      51.60390000      50.66800000
C       43.00160000      49.30870000      48.42060000
C       49.33200000      48.25330000      43.03920000
C       48.39640000      42.99170000      49.48800000
C       56.96010000      50.65600000      48.24580000
C       43.02780000      50.55270000      51.74160000
C       57.01060000      49.48250000      51.59200000
C       50.50730000      51.59900000      42.99030000
C       49.45930000      51.73470000      56.97490000
C       50.70150000      48.41300000      56.99570000
C       51.58970000      56.99560000      49.30320000
C       48.27000000      56.97530000      50.55070000
C       51.74390000      43.03750000      50.65810000
C       56.35400000      47.43660000      46.38230000
C       46.33540000      56.30640000      47.38610000
C       47.52030000      46.47080000      56.43650000
C       43.56380000      52.48790000      46.47600000
C       43.69800000      47.38580000      53.67190000
C       56.38420000      52.68980000      53.46980000
C       53.60500000      43.63880000      47.43640000
C       53.53670000      56.43200000      52.48070000
C       46.52290000      43.62280000      52.69680000
C       52.62620000      53.66390000      56.30170000
C       52.55140000      46.38740000      43.63820000
C       47.30210000      53.47790000      43.62360000
C       47.30620000      56.30580000      46.39260000
C       56.37520000      46.46490000      47.37460000
C       46.52840000      47.44310000      56.43760000
C       52.61170000      43.61870000      46.46570000
C       47.51620000      43.64290000      53.66750000
C       52.56590000      56.43260000      53.47420000
C       43.56520000      53.48030000      47.44780000
C       56.36310000      53.66140000      52.47750000
C       43.69650000      46.39330000      52.70010000
C       53.61810000      52.69160000      56.30060000
C       46.32990000      52.48610000      43.64530000
C       53.52360000      47.37930000      43.61650000
C       52.71810000      54.84200000      55.53230000
C       55.64100000      52.80720000      54.66240000
C       54.73060000      55.68920000      52.58730000
C       47.41110000      45.27670000      55.69450000
C       47.18640000      54.66970000      44.36820000
C       52.68440000      45.21150000      44.40500000
C       44.46840000      47.29330000      54.84920000
C       44.30470000      52.59530000      45.28110000
C       55.58580000      47.30410000      45.20730000
C       45.33160000      44.36790000      52.81510000
C       45.15670000      55.53780000      47.29530000
C       54.78110000      44.40510000      47.30230000
C       54.79330000      52.80780000      55.52990000
C       52.69960000      55.69060000      54.66570000
C       55.59680000      54.84010000      52.58630000
C       45.33590000      47.31090000      55.69690000
C       54.71840000      47.28650000      44.35960000
C       45.15250000      52.59470000      44.41360000
C       47.40980000      44.41000000      54.84590000
C       52.70290000      44.36300000      45.27150000
C       47.18770000      55.53640000      45.21680000
C       44.46540000      45.21700000      52.81610000
C       55.63010000      45.27120000      47.28330000
C       44.30770000      54.67160000      47.31420000
C       44.38970000      45.30750000      49.50170000
C       49.39120000      44.29520000      45.43620000
C       45.31120000      49.28200000      44.41050000
C       55.59620000      54.67960000      49.27370000
C       55.70330000      45.43250000      50.59510000
C       44.31080000      54.58050000      50.62950000
C       50.50230000      55.60690000      45.30390000
C       50.72230000      44.40520000      54.68190000
C       49.38420000      55.69270000      54.57800000
C       54.55880000      50.59850000      44.29010000
C       54.70110000      49.49340000      55.60230000
C       45.42890000      50.62610000      55.69700000
C       45.41970000      44.29780000      49.50060000
C       44.30320000      49.28270000      45.44200000
C       49.36920000      45.30420000      44.40580000
C       54.56620000      55.68920000      49.27490000
C       45.32030000      55.61030000      50.60700000
C       54.69370000      44.40260000      50.61760000
C       55.59030000      50.61940000      45.29800000
C       44.39740000      50.60520000      54.68910000
C       55.70910000      49.49270000      54.57080000
C       50.50080000      54.57640000      44.29480000
C       49.40620000      54.68370000      55.60840000
C       50.72380000      45.43580000      55.69100000
C       50.42580000      45.70710000      43.68830000
C       43.59610000      50.34870000      45.83880000
C       45.83880000      43.61210000      50.57190000
C       49.42810000      54.15860000      43.61040000
C       49.65910000      45.83240000      56.40020000
C       50.48700000      54.30190000      56.30110000
C       56.30660000      49.56190000      45.70090000
C       56.39480000      50.56410000      54.15170000
C       43.70260000      49.52530000      54.30870000
C       54.17170000      56.39750000      50.34090000
C       54.28870000      43.68640000      49.56090000
C       45.70080000      56.30400000      49.52630000
C       45.69220000      50.34730000      43.69370000
C       50.47150000      43.60900000      45.83100000
C       43.69700000      45.71160000      50.57440000
C       54.16170000      49.51840000      43.60500000
C       45.84750000      49.56880000      56.40450000
C       54.29870000      50.56550000      56.29680000
C       49.43120000      56.30150000      45.70870000
C       50.44130000      56.40000000      54.15840000
C       49.65600000      43.68940000      54.30190000
C       56.31350000      54.29810000      50.33840000
C       43.60160000      54.16240000      49.57310000
C       56.38790000      45.82790000      49.51410000
C       51.21220000      56.74840000      53.10940000
C       53.25860000      51.34540000      56.65210000
C       56.68440000      53.27360000      51.13160000
C       48.86130000      43.31920000      53.27850000
C       48.65320000      56.65620000      46.75040000
C       51.27330000      43.27630000      46.86170000
C       46.89560000      48.79640000      56.75230000
C       46.71640000      51.14030000      43.32190000
C       53.12930000      48.71800000      43.27370000
C       43.34420000      46.75270000      51.35400000
C       43.25140000      53.11440000      48.80160000
C       56.72000000      46.85930000      48.71280000
C       56.72650000      51.34310000      53.10310000
C       51.28780000      53.27720000      56.65430000
C       53.14100000      56.74710000      51.13560000
C       43.34700000      48.72450000      53.28480000
C       56.67790000      48.78990000      46.74120000
C       43.24860000      51.14260000      46.87090000
C       48.86640000      46.86450000      56.75000000
C       51.19770000      46.74750000      43.31680000
C       48.64800000      53.11080000      43.27880000
C       46.88760000      43.27920000      51.35000000
C       53.24700000      43.31620000      48.79020000
C       46.72440000      56.65750000      48.72420000
C       56.96260000      49.25390000      48.10320000
C       48.09660000      56.94920000      49.15230000
C       49.30260000      48.24170000      57.00390000
C       42.99540000      50.70750000      48.24850000
C       43.05340000      49.15410000      51.91350000
C       56.98860000      50.88450000      51.73490000
C       51.88510000      43.03400000      49.25580000
C       51.76330000      57.00220000      50.70180000
C       48.25500000      43.01460000      50.89010000
C       50.85790000      51.90590000      56.94720000
C       50.73400000      48.10990000      43.03430000
C       49.10550000      51.74260000      43.01460000
C       49.11300000      56.94850000      48.11210000
C       56.98480000      48.23660000      49.14210000
C       48.26410000      49.25970000      57.00510000
C       50.84500000      43.01290000      48.23950000
C       49.29510000      43.03570000      51.90640000
C       50.74690000      57.00290000      51.74200000
C       42.99690000      51.74660000      49.26600000
C       56.96640000      51.90180000      50.69590000
C       43.05190000      48.11500000      50.89600000
C       51.89650000      50.88780000      56.94610000
C       48.08760000      50.70410000      43.03730000
C       51.75190000      49.14840000      43.01160000
C       46.18500000      55.76100000      51.73540000
C       51.85640000      46.30140000      55.79900000
C       55.71880000      51.76940000      46.13750000
C       53.85530000      44.27610000      51.76860000
C       53.69890000      55.79890000      48.14370000
C       46.26080000      44.16410000      48.35230000
C       48.27660000      53.82090000      55.76070000
C       48.21940000      46.14440000      44.28000000
C       51.64760000      53.73340000      44.16030000
C       44.19430000      48.15070000      46.30840000
C       44.24600000      51.73460000      53.82580000
C       55.84090000      48.34520000      53.72830000
C       55.83800000      46.29870000      51.72440000
C       46.27180000      51.77570000      55.80540000
C       51.65050000      55.75740000      46.14210000
C       44.20240000      53.73830000      51.77960000
C       55.72180000      53.81590000      48.14140000
C       44.23790000      46.14700000      48.35460000
C       53.86120000      48.34660000      55.75430000
C       46.17400000      48.14940000      44.28230000
C       53.69300000      51.72840000      44.15800000
C       48.26260000      44.16270000      46.30370000
C       51.85350000      44.27740000      53.81720000
C       48.23340000      55.80250000      53.73700000
