240
Lattice="100.0 0.0 0.0 0.0 100.0 0.0 0.0 0.0 100.0" Properties=species:S:1:pos:R:3 name=C-71174-8496-211 pressure=13.5700619739905 spacegroup=Td times_found=1 energy=-1720.07026851836 pbc="T T T"
C       47.06260000      43.55840000      48.82930000
C       43.55830000      48.82960000      47.06260000
C       48.82940000      47.06280000      43.55830000
C       47.06260000      56.44160000      51.17070000
C       52.93740000      43.55830000      51.17040000
C       52.93740000      56.44170000      48.82960000
C       43.55840000      51.17050000      52.93740000
C       56.44160000      48.82930000      52.93740000
C       56.44170000      51.17060000      47.06260000
C       48.82950000      52.93720000      56.44170000
C       51.17050000      47.06240000      56.44160000
C       51.17060000      52.93760000      43.55840000
C       47.06260000      48.82970000      43.55830000
C       43.55830000      47.06270000      48.82940000
C       48.82940000      43.55840000      47.06240000
C       47.06260000      51.17040000      56.44170000
C       52.93740000      51.17070000      43.55840000
C       52.93740000      48.82930000      56.44160000
C       43.55840000      52.93740000      51.17060000
C       56.44170000      52.93740000      48.82950000
C       56.44160000      47.06250000      51.17050000
C       48.82950000      56.44160000      52.93760000
C       51.17060000      56.44170000      47.06280000
C       51.17050000      43.55830000      52.93720000
C       48.32850000      43.81040000      49.36910000
C       43.81040000      49.36940000      48.32860000
C       49.36930000      48.32880000      43.81040000
C       48.32860000      56.18960000      50.63090000
C       51.67140000      43.81040000      50.63050000
C       51.67150000      56.18960000      49.36950000
C       43.81040000      50.63070000      51.67140000
C       56.18960000      49.36920000      51.67140000
C       56.18960000      50.63070000      48.32860000
C       49.36930000      51.67130000      56.18960000
C       50.63070000      48.32840000      56.18960000
C       50.63070000      51.67160000      43.81040000
C       48.32860000      49.36950000      43.81040000
C       43.81040000      48.32860000      49.36930000
C       49.36930000      43.81040000      48.32840000
C       48.32860000      50.63050000      56.18960000
C       51.67140000      50.63080000      43.81040000
C       51.67140000      49.36910000      56.18960000
C       43.81040000      51.67140000      50.63070000
C       56.18960000      51.67140000      49.36940000
C       56.18960000      48.32850000      50.63060000
C       49.36930000      56.18960000      51.67160000
C       50.63070000      56.18960000      48.32880000
C       50.63070000      43.81030000      51.67130000
C       54.61770000      52.61070000      53.58790000
C       52.61080000      53.58770000      54.61780000
C       53.58780000      54.61760000      52.61090000
C       54.61770000      47.38930000      46.41210000
C       45.38230000      52.61090000      46.41230000
C       45.38230000      47.38910000      53.58770000
C       52.61080000      46.41230000      45.38220000
C       47.38920000      53.58790000      45.38240000
C       47.38920000      46.41210000      54.61760000
C       53.58780000      45.38240000      47.38910000
C       46.41220000      54.61780000      47.38930000
C       46.41220000      45.38220000      52.61070000
C       54.61770000      53.58770000      52.61090000
C       52.61080000      54.61760000      53.58790000
C       53.58780000      52.61070000      54.61780000
C       54.61770000      46.41220000      47.38910000
C       45.38230000      46.41210000      52.61070000
C       45.38230000      53.58790000      47.38930000
C       52.61080000      45.38240000      46.41210000
C       47.38920000      45.38220000      53.58770000
C       47.38920000      54.61780000      46.41230000
C       53.58780000      47.38930000      45.38220000
C       46.41220000      47.38910000      54.61760000
C       46.41220000      52.61100000      45.38240000
C       52.54790000      53.49640000      43.75040000
C       53.49630000      43.75020000      52.54770000
C       43.75030000      52.54790000      53.49640000
C       52.54790000      46.50350000      56.24960000
C       47.45210000      53.49610000      56.24980000
C       47.45210000      46.50390000      43.75020000
C       53.49630000      56.24980000      47.45230000
C       46.50370000      43.75040000      47.45190000
C       46.50370000      56.24970000      52.54810000
C       43.75030000      47.45220000      46.50360000
C       56.24970000      52.54800000      46.50380000
C       56.24970000      47.45200000      53.49620000
C       52.54790000      43.75020000      53.49610000
C       53.49630000      52.54810000      43.75040000
C       43.75030000      53.49620000      52.54800000
C       52.54790000      56.24980000      46.50390000
C       47.45210000      56.24960000      53.49650000
C       47.45210000      43.75040000      46.50350000
C       53.49630000      47.45190000      56.24960000
C       46.50370000      47.45230000      43.75020000
C       46.50370000      52.54780000      56.24980000
C       43.75030000      46.50380000      47.45200000
C       56.24970000      46.50360000      52.54780000
C       56.24970000      53.49630000      47.45220000
C       51.97180000      55.71480000      45.24870000
C       55.71470000      45.24840000      51.97170000
C       45.24850000      51.97170000      55.71470000
C       51.97180000      44.28520000      54.75130000
C       48.02820000      55.71460000      54.75160000
C       48.02820000      44.28550000      45.24840000
C       55.71470000      54.75150000      48.02830000
C       44.28530000      45.24860000      48.02810000
C       44.28530000      54.75150000      51.97190000
C       45.24850000      48.02840000      44.28530000
C       54.75150000      51.97190000      44.28540000
C       54.75150000      48.02800000      55.71460000
C       51.97180000      45.24830000      55.71460000
C       55.71470000      51.97190000      45.24860000
C       45.24850000      55.71470000      51.97200000
C       51.97180000      54.75160000      44.28540000
C       48.02820000      54.75130000      55.71480000
C       48.02820000      45.24870000      44.28520000
C       55.71470000      48.02800000      54.75140000
C       44.28530000      48.02840000      45.24850000
C       44.28530000      51.97170000      54.75150000
C       45.24850000      44.28540000      48.02800000
C       54.75150000      44.28520000      51.97160000
C       54.75150000      55.71470000      48.02840000
C       55.67510000      48.26400000      49.24450000
C       48.26400000      49.24440000      55.67500000
C       49.24460000      55.67510000      48.26420000
C       55.67510000      51.73590000      50.75550000
C       44.32490000      48.26400000      50.75540000
C       44.32490000      51.73600000      49.24460000
C       48.26400000      50.75560000      44.32500000
C       51.73600000      49.24470000      44.32490000
C       51.73600000      50.75530000      55.67510000
C       49.24450000      44.32490000      51.73580000
C       50.75550000      55.67500000      51.73610000
C       50.75540000      44.32500000      48.26390000
C       55.67510000      49.24460000      48.26400000
C       48.26410000      55.67510000      49.24470000
C       49.24450000      48.26390000      55.67500000
C       55.67510000      50.75540000      51.73600000
C       44.32490000      50.75550000      48.26410000
C       44.32490000      49.24450000      51.73590000
C       48.26400000      44.32490000      50.75530000
C       51.73590000      44.32490000      49.24440000
C       51.73600000      55.67500000      50.75560000
C       49.24460000      51.73610000      44.32500000
C       50.75550000      51.73580000      55.67510000
C       50.75540000      48.26420000      44.32490000
C       53.35150000      51.33900000      52.36180000
C       51.33910000      52.36160000      53.35150000
C       52.36170000      53.35140000      51.33920000
C       53.35150000      48.66090000      47.63830000
C       46.64850000      51.33920000      47.63830000
C       46.64850000      48.66080000      52.36170000
C       51.33910000      47.63840000      46.64850000
C       48.66090000      52.36180000      46.64860000
C       48.66090000      47.63820000      53.35140000
C       52.36170000      46.64860000      48.66080000
C       47.63830000      53.35150000      48.66100000
C       47.63830000      46.64850000      51.33900000
C       53.35150000      52.36170000      51.33920000
C       51.33910000      53.35140000      52.36180000
C       52.36170000      51.33900000      53.35150000
C       53.35140000      47.63830000      48.66080000
C       46.64850000      47.63830000      51.33900000
C       46.64860000      52.36180000      48.66090000
C       51.33910000      46.64860000      47.63820000
C       48.66090000      46.64850000      52.36160000
C       48.66090000      53.35150000      47.63840000
C       52.36170000      48.66100000      46.64850000
C       47.63830000      48.66080000      53.35140000
C       47.63830000      51.33920000      46.64860000
C       52.95860000      54.84040000      51.20040000
C       54.84040000      51.20020000      52.95860000
C       51.20030000      52.95840000      54.84050000
C       52.95850000      45.15960000      48.79960000
C       47.04150000      54.84050000      48.79990000
C       47.04140000      45.15960000      51.20010000
C       54.84040000      48.79980000      47.04140000
C       45.15960000      51.20040000      47.04150000
C       45.15960000      48.79970000      52.95850000
C       51.20030000      47.04160000      45.15950000
C       48.79970000      52.95870000      45.15970000
C       48.79970000      47.04130000      54.84030000
C       52.95860000      51.20010000      54.84050000
C       54.84040000      52.95850000      51.20040000
C       51.20030000      54.84030000      52.95870000
C       52.95850000      48.79980000      45.15950000
C       47.04140000      48.79960000      54.84040000
C       47.04150000      51.20040000      45.15960000
C       54.84040000      47.04150000      48.79960000
C       45.15960000      47.04140000      51.20020000
C       45.15960000      52.95860000      48.79980000
C       51.20020000      45.15970000      47.04130000
C       48.79970000      45.15950000      52.95840000
C       48.79980000      54.84050000      47.04160000
C       49.59600000      54.12950000      44.89470000
C       54.12930000      44.89460000      49.59590000
C       44.89460000      49.59590000      54.12930000
C       49.59600000      45.87050000      55.10530000
C       50.40400000      54.12920000      55.10550000
C       50.40400000      45.87080000      44.89450000
C       54.12940000      55.10540000      50.40420000
C       45.87060000      44.89460000      50.40390000
C       45.87070000      55.10540000      49.59610000
C       44.89460000      50.40410000      45.87070000
C       55.10540000      49.59610000      45.87060000
C       55.10540000      50.40390000      54.12940000
C       49.59600000      44.89450000      54.12920000
C       54.12930000      49.59610000      44.89460000
C       44.89460000      54.12940000      49.59610000
C       49.59600000      55.10550000      45.87080000
C       50.40400000      55.10530000      54.12950000
C       50.40400000      44.89470000      45.87050000
C       54.12930000      50.40380000      55.10540000
C       45.87070000      50.40420000      44.89460000
C       45.87070000      49.59590000      55.10540000
C       44.89460000      45.87070000      50.40390000
C       55.10540000      45.87060000      49.59590000
C       55.10540000      54.12930000      50.40410000
C       43.99540000      54.15620000      50.63350000
C       54.15620000      50.63350000      43.99540000
C       50.63330000      43.99520000      54.15600000
C       43.99530000      45.84390000      49.36650000
C       56.00470000      54.15620000      49.36680000
C       56.00460000      45.84380000      50.63320000
C       54.15620000      49.36650000      56.00460000
C       45.84380000      50.63320000      56.00470000
C       45.84380000      49.36680000      43.99530000
C       50.63340000      56.00480000      45.84400000
C       49.36660000      43.99550000      45.84370000
C       49.36670000      56.00450000      54.15630000
C       43.99540000      50.63330000      54.15620000
C       54.15610000      43.99530000      50.63320000
C       50.63340000      54.15630000      43.99550000
C       43.99540000      49.36680000      45.84380000
C       56.00460000      49.36650000      54.15620000
C       56.00460000      50.63340000      45.84390000
C       54.15620000      56.00460000      49.36680000
C       45.84390000      56.00460000      50.63350000
C       45.84380000      43.99540000      49.36650000
C       50.63330000      45.84370000      56.00450000
C       49.36660000      45.84400000      43.99520000
C       49.36670000      54.15600000      56.00480000
