240
Lattice="100.0 0.0 0.0 0.0 100.0 0.0 0.0 0.0 100.0" Properties=species:S:1:pos:R:3 name=C-71174-8496-38 pressure=-0.0172300790066894 spacegroup=Oh times_found=1 energy=-1780.46930863098 pbc="T T T"
C       46.03150000      55.77140000      49.26350000
C       55.77090000      49.26290000      46.03080000
C       49.26350000      46.03140000      55.77140000
C       46.03160000      44.22860000      50.73750000
C       53.96860000      55.77130000      50.73680000
C       53.96830000      44.22860000      49.26220000
C       55.77190000      50.73700000      53.96780000
C       44.22910000      49.26280000      53.96910000
C       44.22810000      50.73730000      46.03230000
C       49.26220000      53.96860000      44.22880000
C       50.73640000      46.03170000      44.22840000
C       50.73790000      53.96830000      55.77140000
C       53.96840000      55.77140000      49.26250000
C       44.22810000      49.26300000      46.03220000
C       50.73780000      46.03140000      55.77120000
C       53.96850000      44.22860000      50.73650000
C       46.03170000      55.77140000      50.73780000
C       46.03140000      44.22870000      49.26320000
C       44.22910000      50.73710000      53.96920000
C       55.77190000      49.26270000      53.96770000
C       55.77090000      50.73720000      46.03090000
C       50.73650000      53.96860000      44.22860000
C       49.26210000      46.03170000      44.22860000
C       49.26360000      53.96830000      55.77160000
C       45.33590000      54.66440000      52.89540000
C       54.66390000      52.89480000      45.33500000
C       52.89530000      45.33540000      54.66400000
C       45.33510000      45.33560000      47.10570000
C       54.66410000      54.66450000      47.10480000
C       54.66480000      45.33540000      52.89410000
C       54.66500000      47.10510000      54.66380000
C       45.33610000      52.89470000      54.66510000
C       45.33490000      47.10540000      45.33600000
C       52.89420000      54.66460000      45.33530000
C       47.10470000      45.33570000      45.33580000
C       47.10590000      54.66440000      54.66490000
C       54.66490000      54.66440000      52.89430000
C       45.33500000      52.89490000      45.33620000
C       47.10580000      45.33540000      54.66470000
C       54.66410000      45.33560000      47.10460000
C       45.33520000      54.66460000      47.10590000
C       45.33590000      45.33550000      52.89520000
C       45.33610000      47.10520000      54.66500000
C       54.66510000      52.89460000      54.66400000
C       54.66390000      47.10530000      45.33490000
C       47.10470000      54.66460000      45.33600000
C       52.89410000      45.33560000      45.33510000
C       52.89530000      54.66430000      54.66420000
C       50.72790000      57.29400000      49.27220000
C       57.29410000      49.27200000      50.72700000
C       49.27300000      50.72770000      57.29410000
C       50.72790000      42.70600000      50.72760000
C       49.27230000      57.29400000      50.72820000
C       49.27200000      42.70600000      49.27200000
C       57.29390000      50.72790000      49.27120000
C       42.70590000      49.27220000      49.27300000
C       42.70610000      50.72790000      50.72880000
C       49.27120000      49.27230000      42.70610000
C       50.72700000      50.72810000      42.70590000
C       50.72880000      49.27190000      57.29390000
C       49.27210000      57.29400000      49.27240000
C       42.70610000      49.27210000      50.72880000
C       50.72880000      50.72770000      57.29390000
C       49.27210000      42.70600000      50.72780000
C       50.72800000      57.29400000      50.72800000
C       50.72770000      42.70600000      49.27180000
C       42.70590000      50.72800000      49.27300000
C       57.29390000      49.27210000      49.27120000
C       57.29410000      50.72780000      50.72700000
C       50.72700000      49.27230000      42.70590000
C       49.27120000      50.72810000      42.70610000
C       49.27300000      49.27190000      57.29410000
C       44.73810000      53.59200000      46.40890000
C       53.59120000      46.40820000      44.73800000
C       46.40850000      44.73840000      53.59220000
C       44.73890000      46.40810000      53.59240000
C       55.26200000      53.59180000      53.59130000
C       55.26100000      46.40820000      46.40740000
C       53.59260000      53.59170000      55.26110000
C       46.40870000      46.40800000      55.26190000
C       46.40750000      53.59200000      44.73900000
C       46.40770000      55.26160000      46.40870000
C       53.59140000      44.73860000      46.40760000
C       53.59240000      55.26140000      53.59160000
C       55.26110000      53.59190000      46.40760000
C       46.40740000      46.40830000      44.73890000
C       53.59230000      44.73840000      53.59130000
C       55.26190000      46.40800000      53.59110000
C       44.73900000      53.59180000      53.59260000
C       44.73800000      46.40820000      46.40870000
C       46.40880000      53.59180000      55.26200000
C       53.59250000      46.40800000      55.26100000
C       53.59130000      53.59200000      44.73810000
C       53.59150000      55.26160000      46.40780000
C       46.40760000      44.73860000      46.40840000
C       46.40860000      55.26140000      53.59240000
C       46.94010000      51.55010000      43.49840000
C       51.54950000      43.49800000      46.94060000
C       43.49810000      46.94090000      51.55070000
C       46.94170000      48.44990000      56.50240000
C       53.05990000      51.54980000      56.50170000
C       53.05830000      48.45020000      43.49760000
C       51.55040000      56.50190000      53.05910000
C       48.45040000      43.49790000      53.05910000
C       48.44970000      56.50210000      46.94130000
C       43.49780000      53.05920000      48.45090000
C       56.50180000      46.94090000      48.44920000
C       56.50220000      53.05900000      51.54920000
C       53.05830000      51.55010000      43.49760000
C       48.44960000      43.49810000      46.94090000
C       56.50220000      46.94080000      51.54910000
C       53.05990000      48.44990000      56.50160000
C       46.94170000      51.54980000      56.50240000
C       46.94010000      48.45020000      43.49830000
C       48.45050000      56.50200000      53.05940000
C       51.55030000      43.49790000      53.05870000
C       51.54960000      56.50210000      46.94090000
C       56.50190000      53.05910000      48.44930000
C       43.49780000      46.94100000      48.45080000
C       43.49820000      53.05910000      51.55080000
C       51.45710000      54.85440000      54.85450000
C       54.85480000      54.85450000      51.45600000
C       54.85520000      51.45630000      54.85400000
C       51.45580000      45.14550000      45.14510000
C       48.54300000      54.85470000      45.14570000
C       48.54410000      45.14530000      54.85460000
C       54.85440000      45.14540000      48.54280000
C       45.14530000      54.85460000      48.54430000
C       45.14560000      45.14540000      51.45690000
C       54.85400000      48.54360000      45.14480000
C       45.14480000      51.45660000      45.14610000
C       45.14600000      48.54350000      54.85510000
C       48.54420000      54.85450000      54.85490000
C       45.14560000      54.85460000      51.45720000
C       45.14600000      51.45640000      54.85520000
C       48.54290000      45.14560000      45.14550000
C       51.45590000      54.85470000      45.14540000
C       51.45700000      45.14530000      54.85430000
C       45.14520000      45.14550000      48.54400000
C       54.85440000      54.85460000      48.54310000
C       54.85470000      45.14540000      51.45570000
C       45.14480000      48.54370000      45.14600000
C       54.85400000      51.45650000      45.14490000
C       54.85520000      48.54340000      54.85390000
C       48.44930000      53.05930000      43.49820000
C       53.05890000      43.49800000      48.44950000
C       43.49830000      48.45000000      53.05990000
C       48.45080000      46.94080000      56.50210000
C       51.55080000      53.05890000      56.50190000
C       51.54910000      46.94110000      43.49770000
C       53.05930000      56.50200000      51.54970000
C       46.94110000      43.49800000      51.55020000
C       46.94080000      56.50210000      48.45060000
C       43.49760000      51.55010000      46.94170000
C       56.50160000      48.45010000      46.94010000
C       56.50240000      51.54980000      53.05830000
C       51.54920000      53.05920000      43.49790000
C       46.94070000      43.49800000      48.45030000
C       56.50240000      48.44990000      53.05830000
C       51.55070000      46.94070000      56.50180000
C       48.45090000      53.05890000      56.50230000
C       48.44920000      46.94110000      43.49810000
C       46.94110000      56.50200000      51.55050000
C       53.05920000      43.49790000      51.54940000
C       53.05890000      56.50200000      48.44980000
C       56.50170000      51.55000000      46.94010000
C       43.49760000      48.45020000      46.94170000
C       43.49840000      51.54990000      53.05990000
C       48.33960000      51.65980000      43.02860000
C       51.65930000      43.02840000      48.34010000
C       43.02850000      48.34040000      51.66040000
C       48.34130000      48.34030000      56.97180000
C       51.66040000      51.65940000      56.97150000
C       51.65870000      48.34060000      43.02810000
C       51.65980000      56.97160000      51.65950000
C       48.34060000      43.02830000      51.65960000
C       48.34030000      56.97170000      48.34080000
C       43.02820000      51.65970000      48.34130000
C       56.97140000      48.34040000      48.33950000
C       56.97190000      51.65950000      51.65880000
C       51.65870000      51.65970000      43.02820000
C       48.34020000      43.02840000      48.34050000
C       56.97180000      48.34030000      51.65870000
C       51.66040000      48.34020000      56.97140000
C       48.34130000      51.65940000      56.97190000
C       48.33960000      48.34060000      43.02850000
C       48.34070000      56.97160000      51.65990000
C       51.65970000      43.02830000      51.65920000
C       51.65940000      56.97170000      48.34040000
C       56.97150000      51.65960000      48.33960000
C       43.02810000      48.34050000      48.34120000
C       43.02860000      51.65960000      51.66050000
C       53.96910000      49.26270000      55.77090000
C       49.26340000      55.77130000      53.96870000
C       55.77130000      53.96840000      49.26230000
C       53.96770000      50.73720000      44.22820000
C       46.03080000      49.26300000      44.22910000
C       46.03230000      50.73700000      55.77190000
C       49.26230000      44.22870000      46.03150000
C       50.73670000      55.77150000      46.03160000
C       50.73760000      44.22850000      53.96820000
C       55.77140000      46.03150000      50.73630000
C       44.22870000      53.96850000      50.73790000
C       44.22850000      46.03160000      49.26350000
C       46.03230000      49.26280000      55.77180000
C       50.73770000      55.77130000      53.96850000
C       44.22860000      53.96850000      49.26370000
C       46.03090000      50.73730000      44.22910000
C       53.96770000      49.26300000      44.22810000
C       53.96920000      50.73700000      55.77090000
C       50.73660000      44.22870000      46.03130000
C       49.26240000      55.77150000      46.03180000
C       49.26330000      44.22850000      53.96840000
C       44.22870000      46.03160000      50.73770000
C       55.77150000      53.96840000      50.73650000
C       55.77130000      46.03150000      49.26210000
C       47.05330000      52.94620000      43.73870000
C       52.94560000      43.73830000      47.05350000
C       43.73860000      47.05400000      52.94670000
C       47.05480000      47.05390000      56.26200000
C       52.94680000      52.94580000      56.26140000
C       52.94520000      47.05410000      43.73790000
C       52.94640000      56.26160000      52.94580000
C       47.05430000      43.73820000      52.94620000
C       47.05370000      56.26180000      47.05450000
C       43.73790000      52.94610000      47.05490000
C       56.26130000      47.05400000      47.05320000
C       56.26210000      52.94590000      52.94530000
C       52.94520000      52.94610000      43.73800000
C       47.05360000      43.73840000      47.05420000
C       56.26210000      47.05390000      52.94510000
C       52.94670000      47.05380000      56.26130000
C       47.05480000      52.94590000      56.26210000
C       47.05320000      47.05420000      43.73860000
C       47.05440000      56.26170000      52.94650000
C       52.94630000      43.73820000      52.94550000
C       52.94570000      56.26180000      47.05380000
C       56.26140000      52.94600000      47.05330000
C       43.73790000      47.05410000      47.05470000
C       43.73870000      52.94600000      52.94680000
