240
Lattice="100.0 0.0 0.0 0.0 100.0 0.0 0.0 0.0 100.0" Properties=species:S:1:pos:R:3 name=C-71174-8496-445 pressure=0.677206944857208 energy=-1865.406721889 spacegroup=Oh times_found=1 pbc="T T T"
C       56.12120000      47.28840000      47.29010000
C       47.29070000      56.12180000      47.28910000
C       47.28820000      47.28980000      56.12100000
C       56.12140000      52.70960000      52.71140000
C       43.87940000      52.71160000      47.28870000
C       43.87790000      47.29030000      52.70990000
C       47.28810000      43.87910000      52.71020000
C       52.71000000      43.87820000      47.28970000
C       52.71130000      56.12090000      52.71100000
C       47.29060000      52.71110000      43.87830000
C       52.71030000      52.71010000      56.12170000
C       52.71090000      47.28900000      43.87900000
C       43.87860000      47.29040000      47.28860000
C       52.71190000      56.12090000      47.28980000
C       52.70940000      47.28890000      56.12170000
C       43.87880000      52.71160000      52.70990000
C       56.12210000      52.70970000      47.29010000
C       56.12060000      47.28840000      52.71130000
C       52.70930000      43.87820000      52.71090000
C       47.28870000      43.87910000      47.28900000
C       47.29000000      56.12180000      52.71030000
C       52.71180000      52.71020000      43.87900000
C       47.28910000      52.71100000      56.12100000
C       47.28970000      47.28990000      43.87830000
C       54.60600000      45.39210000      52.83830000
C       52.83910000      54.60670000      45.39330000
C       45.39280000      52.83850000      54.60660000
C       54.60820000      54.60640000      47.16280000
C       45.39330000      54.60780000      52.83730000
C       45.39250000      45.39360000      47.16160000
C       52.83650000      45.39240000      54.60740000
C       47.16200000      45.39340000      45.39250000
C       47.16240000      54.60750000      54.60680000
C       45.39300000      47.16300000      45.39230000
C       54.60610000      47.16140000      54.60760000
C       54.60810000      52.83710000      45.39350000
C       45.39180000      45.39360000      52.83720000
C       47.16350000      54.60760000      45.39260000
C       54.60700000      52.83700000      54.60770000
C       45.39400000      54.60790000      47.16170000
C       54.60750000      54.60640000      52.83840000
C       54.60670000      45.39220000      47.16270000
C       47.16090000      45.39330000      54.60670000
C       52.83760000      45.39250000      45.39320000
C       52.83800000      54.60660000      54.60750000
C       54.60720000      47.16150000      45.39340000
C       45.39190000      47.16290000      54.60650000
C       45.39390000      52.83860000      45.39240000
C       55.80530000      50.71390000      45.92270000
C       45.92280000      55.80540000      50.71440000
C       50.71350000      45.92180000      55.80480000
C       55.80410000      49.28420000      54.07870000
C       44.19570000      49.28610000      45.92130000
C       44.19490000      50.71570000      54.07730000
C       45.92110000      44.19590000      49.28460000
C       54.07700000      44.19460000      50.71530000
C       54.07900000      55.80410000      49.28570000
C       50.71620000      54.07800000      44.19540000
C       49.28510000      54.07810000      55.80470000
C       49.28530000      45.92210000      44.19520000
C       44.19590000      50.71580000      45.92130000
C       54.07890000      55.80410000      50.71540000
C       49.28380000      45.92200000      55.80460000
C       44.19470000      49.28610000      54.07730000
C       55.80510000      49.28430000      45.92270000
C       55.80430000      50.71390000      54.07870000
C       54.07720000      44.19460000      49.28560000
C       45.92100000      44.19590000      50.71430000
C       45.92300000      55.80540000      49.28470000
C       49.28650000      54.07820000      44.19520000
C       50.71470000      54.07790000      55.80480000
C       50.71490000      45.92190000      44.19530000
C       48.25330000      49.30050000      43.17540000
C       43.17540000      48.25360000      49.29930000
C       49.29930000      43.17570000      48.25240000
C       48.25180000      50.70000000      56.82420000
C       51.74840000      50.69960000      43.17580000
C       51.74650000      49.29980000      56.82460000
C       43.17580000      51.74850000      50.69900000
C       56.82480000      51.74640000      49.30100000
C       56.82400000      48.25150000      50.70060000
C       49.30110000      56.82450000      51.74740000
C       50.70110000      56.82430000      48.25270000
C       50.69850000      43.17550000      51.74750000
C       51.74820000      49.30000000      43.17580000
C       56.82420000      48.25150000      49.30100000
C       50.69890000      43.17550000      48.25260000
C       51.74670000      50.69950000      56.82460000
C       48.25350000      50.70020000      43.17540000
C       48.25160000      49.30040000      56.82420000
C       56.82460000      51.74640000      50.70070000
C       43.17600000      51.74850000      49.29940000
C       43.17520000      48.25360000      50.69900000
C       50.70070000      56.82430000      51.74760000
C       49.30150000      56.82450000      48.25250000
C       49.29890000      43.17570000      51.74730000
C       46.54250000      55.20030000      53.45750000
C       53.45670000      46.54150000      55.20020000
C       55.20070000      53.45710000      46.54270000
C       46.54170000      44.80080000      46.54160000
C       53.45670000      44.79970000      53.45830000
C       53.45920000      55.19920000      46.54250000
C       53.45910000      53.45740000      44.80070000
C       46.54200000      53.45840000      55.19940000
C       46.54220000      46.54270000      44.79980000
C       55.19880000      46.54120000      53.45850000
C       44.80010000      46.54290000      46.54140000
C       44.80040000      53.45870000      53.45730000
C       53.45830000      55.19920000      53.45840000
C       46.54090000      46.54260000      55.19930000
C       44.80120000      53.45880000      46.54150000
C       53.45750000      44.79970000      46.54250000
C       46.54080000      44.80080000      53.45750000
C       46.54330000      55.20030000      46.54170000
C       46.54330000      53.45850000      44.79980000
C       53.45780000      53.45730000      55.20020000
C       53.45800000      46.54160000      44.80060000
C       44.79930000      46.54290000      53.45730000
C       55.19960000      46.54130000      46.54270000
C       55.19990000      53.45710000      53.45860000
C       48.65270000      52.96800000      56.39050000
C       56.39000000      48.65200000      52.96860000
C       52.96910000      56.39010000      48.65340000
C       48.65330000      47.03240000      43.60920000
C       51.34570000      47.03190000      56.39070000
C       51.34820000      52.96770000      43.60960000
C       56.39120000      51.34600000      47.03290000
C       43.60920000      51.34800000      52.96710000
C       43.60950000      48.65400000      47.03130000
C       52.96670000      43.60890000      51.34730000
C       47.03130000      43.60990000      48.65260000
C       47.03300000      56.39110000      51.34670000
C       51.34670000      52.96760000      56.39080000
C       43.60880000      48.65400000      52.96710000
C       47.03330000      56.39110000      48.65270000
C       51.34730000      47.03200000      43.60950000
C       48.65180000      47.03230000      56.39040000
C       48.65430000      52.96810000      43.60930000
C       43.61000000      51.34800000      47.03140000
C       56.39050000      51.34600000      52.96870000
C       56.39080000      48.65200000      47.03290000
C       47.03090000      43.60990000      51.34660000
C       52.96700000      43.60890000      48.65330000
C       52.96870000      56.39010000      51.34740000
C       54.91460000      45.08360000      51.46550000
C       51.46630000      54.91540000      45.08470000
C       45.08410000      51.46570000      54.91500000
C       54.91650000      54.91480000      48.53570000
C       45.08500000      54.91630000      51.46440000
C       45.08380000      45.08520000      48.53440000
C       51.46360000      45.08420000      54.91570000
C       48.53490000      45.08470000      45.08420000
C       48.53520000      54.91580000      54.91540000
C       45.08480000      48.53590000      45.08380000
C       54.91470000      48.53420000      54.91620000
C       54.91640000      51.46420000      45.08500000
C       45.08350000      45.08520000      51.46430000
C       48.53640000      54.91580000      45.08430000
C       54.91520000      51.46410000      54.91620000
C       45.08540000      54.91640000      48.53450000
C       54.91620000      54.91480000      51.46560000
C       54.91500000      45.08370000      48.53560000
C       48.53370000      45.08460000      54.91540000
C       51.46480000      45.08420000      45.08460000
C       51.46510000      54.91530000      54.91580000
C       54.91590000      48.53430000      45.08500000
C       45.08360000      48.53580000      54.91500000
C       45.08530000      51.46580000      45.08380000
C       49.30130000      51.74760000      43.17550000
C       43.17530000      49.30130000      51.74660000
C       51.74640000      43.17530000      49.30030000
C       49.29910000      48.25260000      56.82430000
C       50.70040000      48.25250000      43.17570000
C       50.69930000      51.74730000      56.82450000
C       43.17590000      50.70090000      48.25170000
C       56.82430000      50.69870000      51.74830000
C       56.82450000      49.29910000      48.25340000
C       51.74840000      56.82410000      50.70010000
C       48.25370000      56.82470000      49.30000000
C       48.25140000      43.17590000      50.69950000
C       50.70090000      51.74740000      43.17570000
C       56.82410000      49.29910000      51.74830000
C       48.25160000      43.17590000      49.29990000
C       50.69870000      48.25240000      56.82450000
C       49.30070000      48.25270000      43.17550000
C       49.29960000      51.74750000      56.82430000
C       56.82470000      50.69870000      48.25340000
C       43.17550000      50.70090000      51.74660000
C       43.17570000      49.30130000      48.25170000
C       48.25360000      56.82470000      50.69970000
C       51.74860000      56.82410000      49.30050000
C       51.74630000      43.17530000      50.70000000
C       45.92120000      49.28580000      55.80420000
C       55.80420000      45.92110000      49.28590000
C       49.28660000      55.80490000      45.92190000
C       45.92280000      50.71550000      44.19480000
C       54.07740000      50.71410000      55.80520000
C       54.07860000      49.28460000      44.19580000
C       55.80530000      54.07710000      50.71560000
C       44.19600000      54.07890000      49.28450000
C       44.19450000      45.92290000      50.71410000
C       49.28380000      44.19540000      54.07790000
C       50.71440000      44.19520000      45.92200000
C       50.71520000      55.80460000      54.07820000
C       54.07720000      49.28450000      55.80520000
C       44.19470000      45.92290000      49.28440000
C       50.71620000      55.80460000      45.92210000
C       54.07880000      50.71420000      44.19580000
C       45.92140000      50.71540000      55.80420000
C       45.92260000      49.28590000      44.19480000
C       44.19580000      54.07890000      50.71410000
C       55.80550000      54.07710000      49.28590000
C       55.80400000      45.92110000      50.71550000
C       50.71340000      44.19510000      54.07810000
C       49.28480000      44.19540000      45.92180000
C       49.28560000      55.80480000      54.07800000
C       56.39000000      47.03110000      51.34780000
C       51.34840000      56.39040000      47.03230000
C       47.03160000      51.34740000      56.39030000
C       56.39120000      52.96690000      48.65380000
C       43.60970000      52.96890000      51.34620000
C       43.60910000      47.03320000      48.65220000
C       51.34560000      43.60920000      52.96800000
C       48.65230000      43.60960000      47.03190000
C       48.65370000      56.39080000      52.96780000
C       47.03270000      48.65350000      43.60900000
C       52.96690000      48.65250000      56.39100000
C       52.96890000      51.34660000      43.60980000
C       43.60880000      47.03310000      51.34620000
C       48.65440000      56.39080000      47.03200000
C       52.96730000      51.34650000      56.39100000
C       43.61000000      52.96890000      48.65220000
C       56.39090000      52.96680000      51.34780000
C       56.39030000      47.03110000      48.65380000
C       48.65160000      43.60960000      52.96770000
C       51.34630000      43.60920000      47.03220000
C       51.34770000      56.39040000      52.96810000
C       52.96840000      48.65260000      43.60970000
C       47.03110000      48.65340000      56.39020000
C       47.03310000      51.34750000      43.60900000
