240
Lattice="100.0 0.0 0.0 0.0 100.0 0.0 0.0 0.0 100.0" Properties=species:S:1:pos:R:3 name=C-97510-5923-267 pressure=-0.00273422321324297 energy=-1788.69647298596 spacegroup=C1 times_found=1 pbc="T T T"
C       44.64290000      47.20980000      52.64850000
C       52.34790000      44.35760000      46.84500000
C       46.90420000      52.66530000      44.52810000
C       44.29850000      52.94990000      47.19390000
C       55.39360000      53.09350000      52.82550000
C       55.29970000      47.28890000      47.39380000
C       52.67930000      55.64130000      53.02870000
C       47.43760000      55.70450000      46.66420000
C       47.61810000      44.30750000      53.17850000
C       47.17430000      47.30850000      55.16340000
C       52.76020000      47.38320000      44.89500000
C       53.29600000      52.61910000      55.93350000
C       55.26070000      47.05660000      52.73000000
C       47.15990000      44.43150000      47.22350000
C       52.79260000      52.74220000      44.60890000
C       55.70340000      53.27340000      47.58960000
C       44.28070000      53.20340000      52.39700000
C       44.64740000      47.00640000      47.30990000
C       47.49370000      55.12740000      52.81440000
C       52.78950000      55.37680000      47.04680000
C       52.79710000      44.43700000      52.79830000
C       53.27830000      47.38060000      55.73910000
C       46.67590000      47.42370000      44.33230000
C       47.16220000      52.53530000      55.43560000
C       44.23540000      46.67570000      48.62000000
C       48.38590000      43.91270000      46.78060000
C       46.38040000      48.69290000      43.76280000
C       43.83450000      53.44460000      51.05580000
C       56.24150000      53.58130000      48.87200000
C       55.67180000      46.74400000      51.41980000
C       48.75190000      55.69800000      53.14540000
C       51.53630000      55.86620000      46.61840000
C       51.58010000      43.89850000      53.24010000
C       46.74330000      51.29730000      55.87700000
C       53.11890000      51.42610000      44.24030000
C       53.59820000      48.62070000      56.35520000
C       55.74950000      46.89310000      48.66380000
C       51.06200000      43.82090000      46.55460000
C       53.13590000      48.66560000      44.44710000
C       56.01240000      53.42340000      51.58280000
C       43.83170000      53.35700000      48.43100000
C       44.18660000      46.81430000      51.38120000
C       51.39130000      56.02370000      53.35980000
C       48.79200000      56.12170000      46.45130000
C       48.90720000      43.77820000      53.46550000
C       53.58770000      51.30710000      56.43490000
C       46.56550000      51.41220000      43.92880000
C       46.78050000      48.57720000      55.62930000
C       45.10970000      54.26970000      52.62570000
C       53.13850000      45.53250000      53.66750000
C       53.68600000      53.12800000      45.67400000
C       45.69270000      46.41910000      46.40370000
C       54.23930000      46.43360000      53.63220000
C       54.74680000      54.27090000      47.39420000
C       53.67870000      54.28510000      46.50700000
C       47.28040000      54.06660000      53.80960000
C       46.80630000      45.53130000      46.36290000
C       54.25340000      47.24740000      54.75390000
C       45.68910000      47.26580000      45.30420000
C       46.42500000      52.97900000      54.29480000
C       54.30580000      54.08400000      53.00000000
C       47.47340000      45.31130000      54.12890000
C       45.90980000      52.86580000      45.61670000
C       54.23910000      46.39340000      47.01610000
C       45.71090000      46.32400000      53.02060000
C       45.46150000      53.66440000      46.77590000
C       47.17570000      54.97480000      45.52630000
C       53.12420000      54.50490000      53.77540000
C       52.48350000      45.37040000      45.90350000
C       46.59710000      46.38460000      54.13070000
C       53.34950000      46.45290000      45.91070000
C       54.40250000      52.89620000      55.16030000
C       49.23190000      58.25170000      50.63700000
C       50.70480000      49.14610000      58.34960000
C       58.34490000      50.77510000      49.46490000
C       49.23040000      41.46000000      49.33190000
C       50.76220000      41.46140000      50.66550000
C       50.73110000      58.32740000      49.24020000
C       50.66850000      50.63440000      41.67450000
C       49.28900000      50.61230000      58.30150000
C       49.23020000      49.18520000      41.70160000
C       58.26900000      49.30410000      50.89660000
C       41.60680000      49.21460000      49.19550000
C       41.56580000      50.69810000      50.62860000
C       50.69900000      58.33640000      50.66490000
C       49.28690000      49.14620000      58.25990000
C       41.53290000      50.64390000      49.15800000
C       50.69740000      41.49490000      49.24210000
C       49.29480000      41.48030000      50.75550000
C       49.26430000      58.25820000      49.21520000
C       49.24190000      50.65500000      41.61170000
C       50.70370000      50.62460000      58.39080000
C       50.65500000      49.17880000      41.77600000
C       41.61440000      49.26950000      50.65300000
C       58.30210000      49.35020000      49.43820000
C       58.32950000      50.72950000      50.93680000
C       53.27220000      55.86950000      51.75660000
C       51.96200000      53.12410000      55.75970000
C       55.73730000      51.82200000      53.46360000
C       53.01670000      44.33140000      48.10260000
C       46.94940000      44.28340000      51.92040000
C       46.85600000      55.59190000      47.97130000
C       51.43820000      46.82700000      44.48980000
C       48.50550000      46.76040000      55.56370000
C       48.18990000      53.27560000      44.18010000
C       55.72750000      48.56530000      46.88280000
C       44.21260000      48.48050000      53.16330000
C       44.08580000      51.66150000      46.63590000
C       46.85950000      55.48980000      51.54350000
C       48.46910000      53.04760000      55.62650000
C       44.33330000      51.90150000      53.00510000
C       46.67770000      44.04500000      48.53020000
C       53.28370000      44.06860000      51.48920000
C       53.32350000      55.79050000      48.37070000
C       47.96060000      46.81160000      44.39180000
C       51.99020000      46.77130000      55.66580000
C       51.56830000      53.30530000      44.09820000
C       44.20210000      48.29570000      46.71260000
C       55.69230000      48.34470000      53.34910000
C       55.65540000      51.98090000      46.99530000
C       54.39190000      44.70900000      51.17360000
C       51.35460000      54.52640000      44.55750000
C       45.40460000      51.87390000      54.02970000
C       54.55200000      55.09070000      48.53170000
C       45.58170000      54.86810000      51.44940000
C       45.55910000      44.66470000      48.85210000
C       52.00760000      45.71680000      54.64800000
C       47.94260000      45.74040000      45.39080000
C       48.49270000      54.04870000      54.63580000
C       44.87840000      48.41260000      45.46890000
C       55.06250000      48.39690000      54.61340000
C       54.61230000      51.94720000      45.94870000
C       45.91050000      45.33310000      51.88110000
C       48.33900000      54.53910000      44.86470000
C       55.09870000      51.75150000      54.75020000
C       45.77280000      54.61030000      47.91900000
C       54.33980000      54.93220000      51.80620000
C       54.04500000      45.39350000      48.14900000
C       48.64240000      45.53030000      54.89190000
C       51.31070000      45.58770000      45.14640000
C       51.96820000      54.15270000      54.69990000
C       55.16720000      48.88000000      45.73180000
C       44.76390000      48.78170000      54.32110000
C       45.05300000      51.67820000      45.59350000
C       47.53160000      56.41620000      49.05450000
C       49.42450000      47.43990000      56.44510000
C       56.56980000      49.47190000      47.66320000
C       47.55090000      43.29920000      50.92980000
C       52.42340000      43.33290000      49.08420000
C       52.58550000      56.70740000      50.77660000
C       49.14060000      52.52960000      43.29930000
C       50.90690000      52.42540000      56.59810000
C       50.51760000      47.50540000      43.61430000
C       56.57460000      50.83060000      52.72740000
C       43.22690000      50.70810000      47.33000000
C       43.37950000      49.39620000      52.38650000
C       52.59240000      56.66090000      49.27160000
C       50.93830000      47.41460000      56.53560000
C       43.31350000      49.20720000      47.39810000
C       52.50600000      43.23410000      50.57030000
C       47.46720000      43.21290000      49.44260000
C       47.54870000      56.36360000      50.57220000
C       50.63340000      52.51000000      43.28840000
C       49.40230000      52.38700000      56.52420000
C       49.00930000      47.46960000      43.52680000
C       43.39640000      50.88830000      52.37230000
C       56.57010000      50.96230000      47.66550000
C       56.52820000      49.31100000      52.66940000
C       52.32130000      49.26340000      43.45710000
C       42.90700000      52.53550000      49.07390000
C       49.47560000      42.90730000      52.57910000
C       52.65550000      50.65950000      57.19990000
C       47.37680000      50.76480000      43.00420000
C       47.59480000      49.16680000      56.62690000
C       43.24390000      47.56060000      50.67910000
C       56.67670000      47.64640000      49.37970000
C       56.94850000      52.60250000      50.97250000
C       49.42870000      56.87700000      47.38810000
C       50.72070000      56.88170000      52.48900000
C       50.50150000      42.93690000      47.43250000
C       47.31110000      49.30700000      42.97130000
C       57.02810000      52.66480000      49.51800000
C       50.91410000      42.93460000      52.48040000
C       47.56920000      50.60090000      56.74520000
C       52.35420000      50.69820000      43.32860000
C       52.66800000      49.21010000      57.16430000
C       56.62530000      47.59900000      50.81890000
C       43.26840000      47.50810000      49.23850000
C       42.93400000      52.57160000      50.50680000
C       50.87440000      56.80520000      47.45080000
C       49.29420000      56.71310000      52.38240000
C       49.06250000      42.94900000      47.53130000
C       48.46750000      48.51510000      42.64840000
C       42.63550000      48.56890000      48.50860000
C       48.45620000      42.43870000      48.72140000
C       48.68870000      51.33320000      57.28450000
C       51.29170000      51.38860000      42.66060000
C       51.47770000      48.44710000      57.42900000
C       42.53030000      51.44820000      51.30870000
C       57.40830000      51.51960000      48.74500000
C       57.22460000      48.67040000      51.56200000
C       48.56980000      57.18300000      51.24090000
C       51.50750000      57.35460000      48.60200000
C       51.52600000      42.44250000      51.28500000
C       51.22560000      48.54450000      42.87390000
C       57.27660000      48.76310000      48.71070000
C       51.34520000      42.50220000      48.52070000
C       51.45650000      51.38150000      57.49420000
C       48.53990000      51.43360000      42.54330000
C       48.70960000      48.46890000      57.19160000
C       57.36640000      51.42930000      51.66340000
C       42.44640000      51.35810000      48.38810000
C       42.65620000      48.68410000      51.35350000
C       51.46190000      57.42680000      51.38650000
C       48.60940000      57.27050000      48.50280000
C       48.63700000      42.47450000      51.48610000
C       55.33800000      54.49590000      50.91310000
C       50.86310000      55.04540000      54.26360000
C       54.63070000      50.70390000      55.66700000
C       54.97160000      45.83710000      49.18620000
C       44.97170000      45.76970000      50.84890000
C       44.78660000      54.28500000      48.97620000
C       50.33780000      44.65940000      45.61220000
C       49.62290000      44.61390000      54.41750000
C       49.40300000      55.38880000      45.42700000
C       54.22510000      49.46670000      45.02410000
C       45.68840000      49.37570000      55.04050000
C       45.48860000      50.76380000      44.61750000
C       44.70700000      54.37630000      50.37810000
C       49.45330000      54.96320000      54.17360000
C       45.77770000      50.80540000      54.98410000
C       44.86260000      45.62030000      49.43280000
C       55.07140000      45.68060000      50.60060000
C       55.46110000      54.60590000      49.52000000
C       48.94510000      44.74600000      45.74810000
C       51.01410000      44.71570000      54.28230000
C       50.81760000      55.33280000      45.45820000
C       45.36240000      49.37010000      44.52660000
C       54.63440000      49.31330000      55.61370000
C       54.12940000      50.88940000      45.06560000
