240
Lattice="100.0 0.0 0.0 0.0 100.0 0.0 0.0 0.0 100.0" Properties=species:S:1:pos:R:3 name=C-97510-5923-433 pressure=153.796596773449 energy=-1764.47893442542 spacegroup=C1 times_found=1 pbc="T T T"
C       46.12320000      54.96950000      48.65860000
C       55.61010000      48.79060000      45.78460000
C       48.62020000      46.14490000      55.55100000
C       46.08140000      45.15870000      51.37220000
C       54.11590000      55.73270000      51.35180000
C       54.15250000      44.55120000      48.69190000
C       55.45180000      51.38800000      54.01280000
C       44.29790000      48.67890000      54.58220000
C       44.30080000      51.30460000      45.34270000
C       48.58370000      53.72510000      44.63740000
C       51.39300000      45.73540000      44.41400000
C       51.48800000      54.20690000      55.48440000
C       53.82280000      55.40130000      48.66420000
C       44.22020000      48.54710000      45.34550000
C       51.32790000      45.82360000      55.65640000
C       53.86540000      44.82260000      51.47390000
C       45.82230000      55.12370000      51.32650000
C       45.79200000      44.92070000      48.66350000
C       44.32000000      51.41580000      54.56670000
C       55.76500000      48.68190000      54.27560000
C       55.22290000      51.54410000      46.08740000
C       51.23970000      54.13570000      44.29790000
C       48.64050000      45.95350000      44.43510000
C       48.72170000      53.94940000      55.49270000
C       50.60070000      56.49990000      52.59790000
C       55.88710000      52.32840000      50.84850000
C       52.68760000      50.61410000      56.43280000
C       50.59660000      43.60830000      47.42540000
C       49.22070000      55.80420000      47.74580000
C       49.16630000      44.25440000      52.28170000
C       56.41960000      47.50130000      49.28550000
C       43.90420000      51.89210000      49.20440000
C       43.83950000      48.19940000      50.66600000
C       52.61800000      49.26250000      43.51390000
C       47.70950000      50.57530000      43.74810000
C       47.75960000      49.29420000      56.18500000
C       49.21450000      56.37520000      52.61130000
C       43.85860000      51.89090000      50.62800000
C       47.78810000      50.77200000      56.15500000
C       49.20260000      43.67280000      47.41030000
C       50.70300000      55.86110000      47.72870000
C       50.64410000      44.18430000      52.28730000
C       43.82940000      48.18630000      49.25580000
C       55.88340000      52.33110000      49.35220000
C       56.46490000      47.49420000      50.67210000
C       47.71820000      49.10680000      43.76670000
C       52.58710000      50.65230000      43.45870000
C       52.67930000      49.20590000      56.41630000
C       47.06110000      44.79670000      53.68480000
C       44.52440000      53.33210000      46.99420000
C       53.69210000      47.11310000      44.47100000
C       47.11490000      55.29400000      46.35170000
C       52.82070000      44.30530000      46.40880000
C       52.81260000      55.87840000      53.66170000
C       44.27550000      46.76490000      52.83740000
C       55.29530000      53.72730000      53.01820000
C       55.55650000      46.45370000      47.12680000
C       53.81420000      52.89340000      55.73310000
C       46.31640000      47.21270000      55.68410000
C       46.34690000      52.67300000      44.12590000
C       52.76240000      44.43980000      53.75830000
C       55.51150000      53.80110000      47.23290000
C       46.31690000      47.04280000      44.37100000
C       52.87500000      55.32410000      46.31980000
C       47.01520000      44.54070000      46.31140000
C       47.05920000      55.41130000      53.68320000
C       55.77710000      46.44010000      52.85660000
C       44.30250000      53.32790000      52.81240000
C       44.25580000      46.66960000      47.13080000
C       46.40470000      52.86310000      55.59850000
C       53.73140000      46.95670000      55.49550000
C       53.56200000      52.86870000      44.18000000
C       48.57710000      43.24940000      48.65290000
C       43.20800000      49.26590000      48.45850000
C       50.10750000      49.18830000      43.12860000
C       48.57200000      56.83660000      51.38610000
C       50.60370000      43.44990000      49.95340000
C       50.59500000      56.71610000      50.07250000
C       43.21590000      50.81910000      51.43110000
C       56.99650000      48.69630000      51.29250000
C       56.66460000      50.01670000      49.31280000
C       50.17670000      50.69410000      56.80430000
C       51.46940000      48.65380000      57.02490000
C       51.37680000      51.23300000      42.90180000
C       51.20110000      43.15320000      48.66550000
C       56.92640000      48.72590000      48.68180000
C       51.43910000      48.60940000      42.95570000
C       51.18970000      57.02570000      51.37270000
C       49.20120000      43.50490000      49.94460000
C       49.20490000      56.61730000      50.08460000
C       56.70540000      50.00480000      50.71290000
C       43.21080000      49.28610000      51.45000000
C       43.25340000      50.80440000      48.42920000
C       51.50700000      51.26070000      56.97630000
C       50.15650000      49.29890000      56.83550000
C       50.08360000      50.58940000      43.11630000
C       47.24860000      57.03420000      51.33020000
C       56.23580000      51.14630000      48.55200000
C       51.43200000      47.37560000      57.45120000
C       47.25280000      43.04920000      48.71730000
C       51.39710000      56.31300000      48.95100000
C       51.40480000      43.84730000      51.07310000
C       57.40740000      48.74600000      52.56880000
C       42.71880000      51.28720000      52.65730000
C       42.64520000      48.78590000      47.26620000
C       51.26830000      52.52950000      42.54890000
C       48.97560000      48.37850000      43.48080000
C       49.05280000      51.50460000      56.43180000
C       52.46980000      57.44400000      51.29530000
C       42.71850000      51.25940000      47.22150000
C       48.99190000      48.53790000      56.50710000
C       52.50510000      42.85100000      48.75120000
C       48.46440000      56.12460000      48.96500000
C       48.42570000      43.97270000      51.05370000
C       42.70050000      48.83040000      52.67050000
C       56.30980000      51.10530000      51.54030000
C       57.28560000      48.84280000      47.40010000
C       48.93600000      51.35150000      43.48770000
C       51.44470000      47.30740000      42.64520000
C       51.53240000      52.57850000      57.21320000
C       45.30810000      53.35410000      44.81180000
C       53.45850000      45.09980000      45.43380000
C       45.01100000      45.70930000      53.40090000
C       45.33310000      46.39450000      54.80620000
C       55.13510000      53.24240000      55.39560000
C       54.75650000      46.61070000      45.24150000
C       53.53050000      54.95210000      54.51190000
C       46.48480000      45.32210000      54.86840000
C       46.27250000      54.50700000      45.34390000
C       45.21210000      54.48500000      46.51910000
C       54.65530000      45.50540000      46.37880000
C       54.61510000      54.84950000      53.53070000
C       54.38580000      53.57660000      45.12740000
C       46.48990000      45.13450000      45.14650000
C       54.83730000      45.58540000      53.54000000
C       54.79890000      46.48910000      54.69610000
C       45.40290000      53.68280000      54.75440000
C       45.31690000      46.26960000      45.21870000
C       46.55040000      54.76950000      54.83000000
C       53.15370000      44.60460000      55.09470000
C       53.41070000      54.67390000      45.19030000
C       55.28720000      55.15570000      46.89250000
C       45.04240000      45.63410000      46.57870000
C       45.06620000      54.36280000      53.38750000
C       50.68230000      46.55250000      43.49680000
C       47.04740000      44.35830000      50.70190000
C       43.28560000      50.65540000      46.06780000
C       50.78520000      53.32810000      56.35150000
C       49.32730000      47.12290000      56.27060000
C       49.25210000      52.76620000      43.81250000
C       47.09400000      55.73610000      49.33220000
C       53.27750000      43.73020000      49.45580000
C       53.25480000      56.56320000      50.58710000
C       43.30330000      49.36190000      53.83490000
C       56.13270000      50.73110000      52.95780000
C       56.40210000      49.57550000      46.64900000
C       49.34650000      46.96630000      43.74660000
C       52.84330000      44.10000000      50.76270000
C       55.97840000      50.85880000      47.10580000
C       49.43870000      52.91560000      56.13530000
C       50.64740000      46.67000000      56.55260000
C       50.51570000      53.26370000      43.44060000
C       52.80370000      56.12570000      49.31610000
C       46.58160000      44.02700000      49.41490000
C       46.60570000      56.05150000      50.61090000
C       56.56670000      49.45170000      53.38710000
C       43.31110000      50.74680000      53.82760000
C       43.23630000      49.26690000      46.07970000
C       44.41320000      47.35190000      54.17790000
C       47.21590000      53.70900000      44.56780000
C       53.94430000      44.58160000      47.29590000
C       44.51840000      52.63700000      45.71800000
C       55.61850000      47.39560000      46.01670000
C       55.44040000      52.79530000      54.10330000
C       47.25500000      46.15590000      55.67910000
C       52.92510000      54.02560000      55.36790000
C       52.78740000      45.97460000      44.57550000
C       53.94860000      55.82150000      52.71700000
C       46.04630000      45.07960000      52.75060000
C       46.08540000      55.20950000      47.31570000
C       55.77540000      47.31790000      54.04910000
C       52.61240000      54.00490000      44.20980000
C       45.94990000      44.85010000      47.25530000
C       55.12690000      52.95690000      46.13110000
C       44.33170000      47.23690000      45.78300000
C       44.44310000      52.73200000      54.15010000
C       52.76760000      45.84790000      55.61020000
C       47.34820000      53.92080000      55.59670000
C       47.26340000      45.98500000      44.36880000
C       45.98220000      55.15410000      52.73430000
C       53.83420000      44.86860000      52.89440000
C       53.94950000      55.42940000      47.26870000
C       53.69570000      48.42470000      55.73990000
C       48.49610000      55.65960000      53.64620000
C       55.46020000      53.52390000      48.66380000
C       53.56780000      51.46780000      44.14100000
C       46.46280000      48.43720000      44.18540000
C       46.54560000      51.46640000      55.73930000
C       48.45640000      44.31620000      46.35020000
C       51.42350000      55.39380000      46.52210000
C       51.33140000      44.50150000      53.51630000
C       55.80040000      46.47980000      51.45630000
C       44.34730000      53.05550000      51.39870000
C       44.30450000      46.98750000      48.52590000
C       46.50140000      48.61150000      55.78550000
C       51.41060000      55.91400000      53.63580000
C       44.46760000      53.04830000      48.44670000
C       46.47390000      51.26790000      44.07560000
C       53.64180000      48.54600000      44.22930000
C       53.70150000      51.41160000      55.80710000
C       51.39840000      44.18180000      46.38760000
C       48.52000000      55.31190000      46.54850000
C       48.47880000      44.68810000      53.49790000
C       44.35840000      47.04180000      51.43050000
C       55.40080000      53.52660000      51.56530000
C       55.73250000      46.47160000      48.54490000
C       54.60920000      49.37510000      44.95520000
C       49.23140000      45.24840000      54.58140000
C       45.17560000      54.03510000      49.24890000
C       54.66970000      50.67340000      55.03790000
C       45.36570000      49.34550000      55.29060000
C       45.31420000      50.58330000      44.58800000
C       49.25240000      54.66470000      45.51600000
C       50.69190000      44.90320000      45.34860000
C       50.74930000      55.07620000      54.61470000
C       45.12520000      46.04340000      50.70000000
C       54.80580000      54.59350000      50.79330000
C       54.98470000      45.50560000      49.32840000
C       45.30290000      49.18010000      44.62540000
C       50.62600000      45.12080000      54.60790000
C       54.76950000      54.54460000      49.38810000
C       45.38430000      50.74510000      55.27510000
C       54.71100000      49.23910000      55.07040000
C       54.51780000      50.81040000      45.01530000
C       50.65370000      54.78700000      45.44700000
C       49.25740000      44.97750000      45.33110000
C       49.31960000      54.96390000      54.63110000
C       54.92640000      45.55180000      50.76020000
C       45.08380000      54.06640000      50.67110000
C       45.04650000      45.98730000      49.28210000
