240
Lattice="100.0 0.0 0.0 0.0 100.0 0.0 0.0 0.0 100.0" Properties=species:S:1:pos:R:3 name=C-97510-5923-1054 pressure=-0.028864755868523 spacegroup=Td times_found=1 energy=-1807.99240936762 pbc="T T T"
C       43.03460000      49.94990000      51.97240000
C       51.97270000      43.03470000      49.94990000
C       49.95030000      51.97290000      43.03470000
C       43.03490000      50.05040000      48.02660000
C       56.96510000      50.05010000      51.97340000
C       56.96540000      49.94960000      48.02760000
C       51.97300000      56.96520000      50.05040000
C       48.02730000      56.96530000      49.94960000
C       48.02700000      43.03480000      50.05010000
C       49.94920000      48.02710000      56.96530000
C       50.05070000      48.02710000      43.03470000
C       50.04980000      51.97290000      56.96530000
C       43.03480000      51.97300000      49.94920000
C       51.97340000      49.94970000      43.03490000
C       49.94940000      43.03470000      51.97290000
C       43.03470000      48.02730000      50.04980000
C       56.96530000      51.97270000      50.05070000
C       56.96520000      48.02700000      49.95020000
C       51.97240000      50.05020000      56.96540000
C       48.02660000      49.94980000      56.96510000
C       48.02760000      50.05030000      43.03460000
C       49.95000000      56.96530000      48.02710000
C       50.05020000      43.03470000      48.02710000
C       50.05030000      56.96530000      51.97290000
C       48.71840000      44.28460000      53.61440000
C       53.61480000      48.71870000      44.28490000
C       44.28480000      53.61460000      48.71830000
C       48.71910000      55.71540000      46.38550000
C       51.28110000      55.71540000      53.61450000
C       51.28140000      44.28460000      46.38570000
C       53.61410000      51.28120000      55.71560000
C       46.38600000      51.28130000      44.28440000
C       46.38510000      48.71880000      55.71510000
C       44.28440000      46.38570000      51.28090000
C       55.71540000      46.38540000      48.71910000
C       55.71540000      53.61430000      51.28170000
C       48.71920000      53.61450000      44.28450000
C       53.61440000      44.28450000      48.71900000
C       44.28430000      48.71890000      53.61400000
C       48.71830000      46.38560000      55.71530000
C       51.28090000      53.61440000      55.71550000
C       51.28160000      46.38550000      44.28470000
C       53.61450000      55.71530000      51.28150000
C       46.38530000      44.28470000      51.28100000
C       46.38580000      55.71550000      48.71850000
C       44.28490000      51.28140000      46.38520000
C       55.71560000      48.71860000      46.38600000
C       55.71520000      51.28110000      53.61480000
C       53.09160000      48.92830000      55.08990000
C       55.08980000      53.09190000      48.92870000
C       48.92820000      55.08970000      53.09190000
C       53.09240000      51.07160000      44.91060000
C       46.90770000      51.07180000      55.08940000
C       46.90830000      48.92840000      44.91010000
C       55.08950000      46.90790000      51.07200000
C       44.91040000      46.90810000      48.92800000
C       44.91030000      53.09210000      51.07130000
C       48.92840000      44.91040000      46.90790000
C       51.07140000      44.91030000      53.09210000
C       51.07200000      55.08960000      46.90810000
C       53.09220000      55.08960000      48.92850000
C       55.08940000      48.92820000      53.09240000
C       48.92800000      53.09200000      55.08960000
C       53.09180000      44.91030000      51.07190000
C       46.90800000      55.08970000      51.07150000
C       46.90800000      44.91040000      48.92810000
C       55.08990000      51.07160000      46.90830000
C       44.91050000      48.92840000      46.90760000
C       44.91020000      51.07180000      53.09170000
C       48.92860000      46.90800000      44.91030000
C       51.07210000      53.09200000      44.91040000
C       51.07130000      46.90800000      55.08970000
C       56.50260000      52.38990000      51.34880000
C       51.34830000      56.50260000      52.39010000
C       52.38960000      51.34830000      56.50280000
C       56.50270000      47.60980000      48.65210000
C       43.49720000      47.61010000      51.34790000
C       43.49750000      52.39020000      48.65120000
C       51.34840000      43.49730000      47.61010000
C       48.65140000      43.49740000      52.38990000
C       48.65200000      56.50270000      47.60990000
C       52.39040000      48.65160000      43.49750000
C       47.60950000      48.65170000      56.50250000
C       47.61050000      51.34840000      43.49720000
C       56.50250000      51.34820000      52.39050000
C       51.34790000      52.39000000      56.50270000
C       52.39010000      56.50260000      51.34850000
C       56.50280000      48.65150000      47.61040000
C       43.49760000      51.34850000      47.60950000
C       43.49720000      48.65180000      52.38960000
C       51.34870000      47.60990000      43.49750000
C       48.65220000      52.39000000      43.49730000
C       48.65120000      47.61000000      56.50250000
C       52.39000000      43.49730000      48.65180000
C       47.61020000      56.50270000      48.65150000
C       47.60970000      43.49740000      51.34820000
C       57.99300000      49.99620000      51.02460000
C       51.02420000      57.99310000      49.99640000
C       49.99580000      51.02400000      57.99310000
C       57.99320000      50.00340000      48.97650000
C       42.00680000      50.00380000      51.02350000
C       42.00700000      49.99660000      48.97540000
C       51.02380000      42.00690000      50.00370000
C       48.97580000      42.00690000      49.99630000
C       48.97620000      57.99310000      50.00350000
C       49.99690000      48.97600000      42.00690000
C       50.00300000      48.97600000      57.99310000
C       50.00420000      51.02400000      42.00690000
C       57.99310000      51.02380000      49.99690000
C       51.02350000      49.99640000      57.99320000
C       49.99650000      57.99310000      51.02400000
C       57.99310000      48.97580000      50.00420000
C       42.00690000      51.02420000      50.00310000
C       42.00690000      48.97620000      49.99580000
C       51.02460000      50.00360000      42.00700000
C       48.97650000      49.99640000      42.00680000
C       48.97540000      50.00370000      57.99300000
C       49.99630000      42.00690000      48.97600000
C       50.00390000      57.99310000      48.97600000
C       50.00340000      42.00690000      51.02400000
C       46.28490000      54.69340000      44.24810000
C       44.24800000      46.28450000      54.69290000
C       54.69350000      44.24830000      46.28470000
C       46.28390000      45.30680000      55.75140000
C       53.71590000      45.30660000      44.24870000
C       53.71530000      54.69330000      55.75190000
C       44.24880000      53.71570000      45.30630000
C       55.75140000      53.71550000      54.69370000
C       55.75190000      46.28430000      45.30710000
C       54.69320000      55.75150000      53.71590000
C       45.30710000      55.75170000      46.28410000
C       45.30630000      44.24850000      53.71530000
C       46.28390000      44.24850000      54.69310000
C       44.24880000      54.69350000      46.28400000
C       54.69360000      46.28430000      44.24870000
C       46.28480000      55.75170000      45.30640000
C       53.71580000      44.24830000      45.30690000
C       53.71540000      55.75150000      54.69360000
C       44.24800000      45.30680000      53.71520000
C       55.75150000      54.69320000      53.71600000
C       55.75180000      45.30650000      46.28480000
C       54.69300000      53.71550000      55.75190000
C       45.30620000      46.28450000      55.75130000
C       45.30720000      53.71570000      44.24810000
C       50.08360000      54.93660000      53.92320000
C       53.92280000      50.08370000      54.93690000
C       54.93670000      53.92310000      50.08410000
C       50.08400000      45.06340000      46.07680000
C       49.91580000      45.06340000      53.92320000
C       49.91660000      54.93660000      46.07680000
C       53.92350000      49.91610000      45.06360000
C       46.07650000      49.91630000      54.93640000
C       46.07720000      50.08390000      45.06310000
C       54.93660000      46.07670000      49.91660000
C       45.06330000      46.07690000      50.08340000
C       45.06350000      53.92330000      49.91590000
C       50.08350000      53.92320000      54.93660000
C       53.92330000      54.93660000      50.08410000
C       54.93640000      50.08370000      53.92350000
C       50.08400000      46.07680000      45.06340000
C       49.91660000      53.92320000      45.06330000
C       49.91580000      46.07680000      54.93660000
C       53.92310000      45.06330000      49.91650000
C       46.07690000      54.93670000      49.91590000
C       46.07670000      45.06340000      50.08350000
C       54.93690000      49.91610000      46.07720000
C       45.06360000      50.08390000      46.07650000
C       45.06310000      49.91630000      53.92280000
C       44.42020000      52.27740000      45.43680000
C       45.43690000      44.42000000      52.27700000
C       52.27760000      45.43720000      44.42000000
C       44.41950000      47.72280000      54.56240000
C       55.58040000      47.72260000      45.43760000
C       55.57990000      52.27720000      54.56320000
C       45.43750000      55.58020000      47.72240000
C       54.56270000      55.58000000      52.27760000
C       54.56280000      44.41980000      47.72300000
C       52.27700000      54.56270000      55.58030000
C       47.72320000      54.56280000      44.41970000
C       47.72220000      45.43730000      55.58000000
C       44.41960000      45.43730000      52.27690000
C       45.43770000      52.27740000      44.41950000
C       52.27750000      44.41980000      45.43740000
C       44.42010000      54.56290000      47.72230000
C       55.58020000      45.43710000      47.72310000
C       55.58010000      54.56270000      52.27770000
C       45.43680000      47.72280000      55.57980000
C       54.56240000      52.27720000      55.58050000
C       54.56310000      47.72260000      44.42020000
C       52.27710000      55.58010000      54.56290000
C       47.72230000      44.41990000      54.56260000
C       47.72310000      55.58020000      45.43710000
C       47.84750000      45.83590000      46.83870000
C       46.83910000      47.84740000      45.83570000
C       45.83600000      46.83900000      47.84710000
C       47.84720000      54.16420000      53.16100000
C       52.15300000      54.16410000      46.83900000
C       52.15230000      45.83580000      53.16130000
C       46.83860000      52.15270000      54.16390000
C       53.16150000      52.15260000      45.83610000
C       53.16080000      47.84730000      54.16440000
C       45.83580000      53.16120000      52.15240000
C       54.16430000      53.16100000      47.84760000
C       54.16390000      46.83880000      52.15290000
C       47.84760000      46.83890000      45.83570000
C       46.83890000      45.83590000      47.84710000
C       45.83600000      47.84740000      46.83860000
C       47.84710000      53.16120000      54.16400000
C       52.15230000      46.83880000      54.16430000
C       52.15300000      53.16110000      45.83600000
C       46.83880000      54.16420000      52.15240000
C       53.16090000      45.83580000      52.15290000
C       53.16140000      54.16410000      47.84760000
C       45.83570000      52.15270000      53.16080000
C       54.16390000      47.84730000      53.16140000
C       54.16440000      52.15260000      46.83920000
C       48.89700000      52.12220000      56.12740000
C       56.12740000      48.89720000      52.12260000
C       52.12240000      56.12750000      48.89750000
C       48.89780000      47.87780000      43.87240000
C       51.10220000      47.87780000      56.12760000
C       51.10310000      52.12220000      43.87250000
C       56.12770000      51.10250000      47.87820000
C       43.87230000      51.10280000      52.12180000
C       43.87260000      48.89750000      47.87740000
C       52.12200000      43.87240000      51.10280000
C       47.87780000      43.87250000      48.89720000
C       47.87790000      56.12760000      51.10250000
C       48.89740000      56.12760000      52.12210000
C       56.12770000      52.12210000      48.89780000
C       52.12170000      48.89730000      56.12770000
C       48.89740000      43.87250000      47.87770000
C       51.10290000      56.12750000      47.87790000
C       51.10230000      43.87250000      52.12230000
C       56.12740000      47.87770000      51.10310000
C       43.87240000      52.12230000      51.10220000
C       43.87250000      47.87790000      48.89700000
C       52.12260000      51.10260000      43.87260000
C       47.87820000      48.89740000      43.87230000
C       47.87740000      51.10270000      56.12740000
