240
Lattice="100.0 0.0 0.0 0.0 100.0 0.0 0.0 0.0 100.0" Properties=species:S:1:pos:R:3 name=C-97510-5923-491 pressure=0.583568762170393 energy=-1740.63096084481 spacegroup=C1 times_found=1 pbc="T T T"
C       53.94910000      47.18720000      54.18010000
C       47.23950000      55.25830000      54.55170000
C       54.64940000      53.75420000      46.74340000
C       54.12040000      52.97540000      45.60370000
C       46.29960000      46.92630000      45.37720000
C       45.99500000      52.81030000      54.30830000
C       47.06270000      45.76960000      45.89720000
C       52.78830000      55.31780000      45.43170000
C       52.55860000      44.84180000      54.43840000
C       54.43430000      46.41300000      53.02920000
C       45.45030000      53.59940000      53.18650000
C       44.54170000      45.50370000      46.99060000
C       45.93940000      46.92720000      55.00090000
C       53.15260000      54.59420000      53.65310000
C       45.74530000      54.07940000      47.18200000
C       45.51590000      52.96260000      44.64680000
C       54.13610000      47.09700000      45.78230000
C       54.28650000      52.93540000      54.83820000
C       52.97540000      44.57460000      45.54920000
C       46.81560000      54.67190000      46.35750000
C       46.37820000      45.86340000      54.15010000
C       45.60430000      45.81540000      52.94310000
C       54.27040000      53.73260000      53.67230000
C       54.62770000      46.32480000      46.93080000
C       44.27260000      47.93990000      46.52270000
C       48.19940000      46.54050000      43.98200000
C       46.33220000      44.29990000      47.95520000
C       44.04670000      51.72730000      53.53730000
C       55.95630000      48.19530000      53.47370000
C       56.02200000      51.89280000      46.40450000
C       48.17100000      53.46880000      55.65540000
C       51.76680000      46.59460000      55.54860000
C       51.91060000      53.53240000      44.28350000
C       46.58940000      55.62950000      52.18650000
C       53.21980000      44.44180000      52.04530000
C       53.44940000      55.71810000      47.78660000
C       56.09690000      48.15020000      46.54170000
C       52.02380000      46.41980000      44.39500000
C       53.42530000      44.37190000      47.97010000
C       55.80880000      51.99060000      53.51360000
C       44.36340000      47.92440000      53.56760000
C       44.42070000      51.93670000      46.47810000
C       52.10650000      53.58180000      55.67390000
C       47.98090000      46.39740000      55.83030000
C       47.89530000      53.54490000      44.32800000
C       53.58200000      56.01060000      51.61820000
C       46.22750000      43.76770000      51.83020000
C       46.46090000      56.03040000      48.27480000
C       50.63050000      43.74110000      48.24170000
C       43.72590000      48.12770000      50.77850000
C       48.27770000      50.77880000      43.67360000
C       50.75580000      56.50210000      51.69270000
C       49.06480000      43.49080000      51.72120000
C       49.24920000      56.55070000      48.24640000
C       43.85730000      51.68410000      49.27750000
C       56.52010000      48.24070000      49.31430000
C       56.24330000      51.82630000      50.72870000
C       48.26640000      49.24320000      56.42030000
C       51.85550000      50.78120000      56.36120000
C       51.84550000      49.25650000      43.83510000
C       49.16390000      43.78790000      48.21490000
C       56.45860000      48.26350000      50.71940000
C       51.83420000      50.72120000      43.77880000
C       49.31550000      56.43300000      51.78520000
C       50.47550000      43.65460000      51.77110000
C       50.69130000      56.47200000      48.17390000
C       56.38680000      51.78630000      49.27630000
C       43.63920000      48.13070000      49.33070000
C       43.67610000      51.68630000      50.70980000
C       51.82050000      49.32160000      56.30950000
C       48.27880000      50.69840000      56.31530000
C       48.29600000      49.34330000      43.59630000
C       48.35040000      43.83450000      52.96000000
C       44.48750000      52.86810000      48.73180000
C       53.00980000      48.64090000      44.43650000
C       48.60340000      56.03750000      47.06440000
C       51.23860000      44.04210000      46.99240000
C       51.44770000      55.90340000      52.80280000
C       44.28300000      46.92830000      51.35120000
C       55.54580000      53.03960000      51.31990000
C       55.93100000      47.05180000      48.74200000
C       53.10930000      51.36200000      55.99010000
C       47.00600000      48.64750000      56.09810000
C       47.00310000      51.30380000      44.04060000
C       50.96080000      44.14060000      53.01230000
C       55.89810000      52.95900000      48.59500000
C       47.07700000      48.72880000      44.08350000
C       51.18550000      56.00700000      46.91370000
C       48.58050000      44.40160000      47.04500000
C       48.82510000      55.98290000      53.05080000
C       55.82140000      47.08310000      51.27390000
C       44.16230000      52.88060000      51.35350000
C       43.95030000      46.87920000      48.72560000
C       47.11270000      51.28680000      55.68130000
C       52.94370000      48.69290000      55.64850000
C       52.99360000      51.35970000      44.33440000
C       42.56570000      49.52280000      53.93460000
C       49.74220000      53.96340000      42.69170000
C       53.79860000      42.84850000      49.87130000
C       42.71120000      50.22970000      46.13280000
C       58.36830000      49.16370000      46.23400000
C       57.53930000      50.41210000      53.87030000
C       49.88930000      46.02840000      57.38170000
C       50.28650000      53.97670000      57.31530000
C       50.46950000      46.14970000      42.55170000
C       53.80860000      58.19410000      50.52050000
C       46.11690000      41.70600000      50.50100000
C       46.11970000      58.15440000      49.53330000
C       58.15130000      49.31160000      53.85720000
C       50.86410000      53.87150000      42.11840000
C       46.02350000      42.38180000      49.43020000
C       57.73000000      50.25360000      46.15720000
C       42.08780000      49.13380000      46.22690000
C       41.85820000      50.56150000      53.78860000
C       51.07190000      46.11040000      57.82970000
C       49.13930000      53.92280000      57.83890000
C       49.43930000      46.26590000      41.83120000
C       46.03850000      57.38610000      50.53770000
C       53.71860000      42.21900000      50.96780000
C       53.94890000      57.50080000      49.46360000
C       48.90810000      53.12520000      43.44050000
C       52.97400000      43.50850000      48.97120000
C       43.36460000      48.76960000      53.08660000
C       48.98520000      46.85500000      56.68240000
C       51.15750000      53.13280000      56.62030000
C       51.21280000      46.95880000      43.41130000
C       52.98840000      57.17530000      51.03060000
C       46.90600000      42.72330000      51.07590000
C       46.96580000      57.16270000      48.95650000
C       43.49390000      51.04260000      46.97180000
C       57.25380000      48.77770000      47.07530000
C       56.81040000      51.21270000      53.00230000
C       51.27160000      52.98310000      43.16510000
C       46.84450000      43.29140000      48.75170000
C       57.09940000      48.87250000      52.98080000
C       51.30520000      47.06260000      56.78100000
C       48.80160000      52.97840000      56.80180000
C       48.91720000      47.08210000      42.88270000
C       46.94320000      56.61480000      51.25550000
C       52.80720000      43.28560000      51.31720000
C       53.06490000      56.69350000      48.72530000
C       56.99760000      51.09720000      46.96220000
C       43.17560000      48.70560000      47.05160000
C       42.91810000      51.07130000      52.97730000
C       50.48780000      55.34520000      45.81870000
C       54.94940000      46.04770000      50.70630000
C       45.90150000      50.60050000      55.19370000
C       50.23530000      44.75500000      54.09940000
C       49.53370000      55.34440000      54.13680000
C       49.27810000      44.88630000      45.85650000
C       55.12480000      54.05710000      49.04690000
C       44.55160000      45.69840000      49.32060000
C       44.96690000      53.98850000      50.87440000
C       45.95070000      49.24950000      44.84890000
C       54.20160000      50.72240000      44.84740000
C       54.17460000      49.33130000      55.17440000
C       49.09780000      55.25280000      45.94100000
C       44.79240000      45.73140000      50.70100000
C       54.27220000      50.71700000      55.36660000
C       48.81540000      44.73590000      54.02580000
C       50.91220000      55.24420000      53.99350000
C       50.65570000      44.64360000      45.82220000
C       45.02480000      54.04190000      49.45960000
C       55.01980000      46.03300000      49.28380000
C       55.05180000      54.17860000      50.47740000
C       54.20980000      49.31180000      44.92340000
C       45.87630000      50.64360000      44.68430000
C       45.86610000      49.21310000      55.39100000
C       53.02730000      47.26610000      44.86970000
C       47.01210000      43.51910000      52.91700000
C       44.87420000      52.93730000      47.35120000
C       53.20340000      52.74740000      55.69360000
C       46.91810000      47.25550000      55.93640000
C       46.79040000      52.71260000      44.18350000
C       47.22970000      55.77330000      47.15150000
C       52.66480000      44.16260000      46.82820000
C       52.81450000      55.55690000      52.68630000
C       44.70400000      46.89500000      52.70530000
C       55.23810000      53.03530000      52.72660000
C       55.74230000      47.08630000      47.35920000
C       47.11850000      47.34920000      44.29910000
C       52.36830000      44.39760000      53.16170000
C       55.71630000      52.95720000      47.20490000
C       47.12810000      52.64650000      55.20590000
C       52.84150000      47.36400000      55.09970000
C       52.97720000      52.75300000      44.73120000
C       52.58810000      55.81570000      46.69470000
C       47.20610000      44.82920000      46.99730000
C       47.42880000      55.76590000      53.28880000
C       55.57660000      47.14560000      52.64230000
C       44.36070000      52.81480000      52.74440000
C       44.13300000      46.78560000      47.29470000
C       51.34060000      45.36240000      54.93400000
C       45.69200000      54.54030000      52.08700000
C       54.93300000      51.78110000      45.49640000
C       51.59930000      54.77720000      44.94760000
C       48.29500000      45.65190000      45.10510000
C       48.44440000      54.73370000      55.01280000
C       45.05240000      44.91020000      48.14460000
C       54.39070000      54.64690000      47.86540000
C       54.14430000      45.50470000      51.89710000
C       54.84040000      48.34110000      54.35640000
C       45.17580000      51.60010000      54.42570000
C       45.36860000      48.06500000      45.63080000
C       47.78050000      45.50320000      54.69750000
C       54.49010000      55.23030000      51.06490000
C       45.04750000      51.78450000      45.20740000
C       47.92740000      54.46380000      45.40970000
C       51.82210000      45.14290000      45.01710000
C       52.03020000      54.49680000      54.58910000
C       54.31390000      45.45900000      48.07000000
C       45.67000000      54.84190000      48.43000000
C       45.54720000      44.98700000      51.73180000
C       45.17590000      48.06750000      54.72150000
C       55.04810000      51.76920000      54.70980000
C       54.96480000      48.30400000      45.66420000
C       50.79290000      48.34670000      43.40720000
C       48.23620000      43.05260000      50.62620000
C       43.50270000      50.61660000      48.34360000
C       50.75910000      51.72740000      56.64040000
C       49.35880000      48.29530000      56.69710000
C       49.34920000      51.73310000      43.42500000
C       48.35080000      56.96350000      49.34800000
C       51.57100000      43.46900000      49.34870000
C       51.62000000      56.97050000      50.61370000
C       43.36160000      49.19730000      51.70090000
C       56.73470000      50.77430000      51.63410000
C       57.02460000      49.27180000      48.42230000
C       49.36980000      48.43660000      43.16240000
C       51.47280000      43.37570000      50.76960000
C       56.89720000      50.70940000      48.37310000
C       49.32030000      51.63160000      56.70150000
C       50.78810000      48.41320000      56.74120000
C       50.78540000      51.63140000      43.32940000
C       51.67830000      56.77780000      49.18540000
C       48.21320000      43.32670000      49.21730000
C       48.31530000      56.73670000      50.77380000
C       56.90440000      49.33020000      51.61140000
C       43.17110000      50.62960000      51.61150000
C       43.34210000      49.19580000      48.40470000
