240
Lattice="100.0 0.0 0.0 0.0 100.0 0.0 0.0 0.0 100.0" Properties=species:S:1:pos:R:3 name=C-97510-5923-1198 pressure=-16.1968912611082 spacegroup=Td times_found=1 energy=-1780.82985797684 pbc="T T T"
C       43.46260000      51.55540000      47.43630000
C       47.43640000      43.46260000      51.55560000
C       51.55550000      47.43620000      43.46260000
C       43.46250000      48.44470000      52.56360000
C       56.53750000      48.44450000      47.43650000
C       56.53740000      51.55550000      52.56360000
C       47.43640000      56.53740000      48.44430000
C       52.56360000      56.53750000      51.55530000
C       52.56360000      43.46250000      48.44480000
C       51.55540000      52.56380000      56.53740000
C       48.44460000      52.56340000      43.46250000
C       48.44450000      47.43660000      56.53750000
C       43.46250000      47.43640000      51.55540000
C       47.43650000      51.55520000      43.46250000
C       51.55550000      43.46250000      47.43660000
C       43.46260000      52.56360000      48.44440000
C       56.53750000      47.43630000      48.44470000
C       56.53740000      52.56360000      51.55540000
C       47.43630000      48.44480000      56.53750000
C       52.56350000      51.55560000      56.53740000
C       52.56370000      48.44440000      43.46260000
C       51.55540000      56.53750000      52.56340000
C       48.44450000      43.46260000      52.56380000
C       48.44460000      56.53740000      47.43620000
C       57.01150000      47.72780000      49.80690000
C       49.80670000      57.01150000      47.72760000
C       47.72770000      49.80690000      57.01150000
C       57.01150000      52.27220000      50.19330000
C       42.98850000      52.27220000      49.80660000
C       42.98850000      47.72780000      50.19330000
C       49.80670000      42.98850000      52.27240000
C       50.19330000      42.98840000      47.72800000
C       50.19330000      57.01160000      52.27200000
C       47.72790000      50.19310000      42.98840000
C       52.27210000      50.19350000      57.01160000
C       52.27230000      49.80650000      42.98850000
C       57.01160000      49.80660000      47.72790000
C       49.80660000      47.72800000      57.01160000
C       47.72780000      57.01150000      49.80650000
C       57.01150000      50.19340000      52.27230000
C       42.98840000      49.80680000      52.27210000
C       42.98850000      50.19320000      47.72770000
C       49.80680000      52.27200000      42.98840000
C       50.19340000      47.72760000      42.98850000
C       50.19320000      52.27240000      57.01150000
C       47.72780000      42.98850000      50.19350000
C       52.27220000      57.01150000      50.19310000
C       52.27220000      42.98850000      49.80700000
C       49.99470000      57.55940000      48.98290000
C       48.98310000      49.99500000      57.55940000
C       57.55940000      48.98320000      49.99480000
C       49.99470000      42.44060000      51.01710000
C       50.00530000      42.44060000      48.98340000
C       50.00530000      57.55940000      51.01660000
C       48.98320000      50.00500000      42.44060000
C       51.01680000      50.00550000      57.55940000
C       51.01690000      49.99450000      42.44060000
C       57.55940000      51.01680000      50.00530000
C       42.44060000      51.01680000      49.99460000
C       42.44060000      48.98320000      50.00520000
C       49.99460000      48.98340000      57.55940000
C       48.98320000      57.55940000      49.99450000
C       57.55940000      49.99470000      48.98320000
C       49.99480000      51.01660000      42.44060000
C       50.00540000      48.98290000      42.44060000
C       50.00520000      51.01710000      57.55940000
C       48.98320000      42.44060000      50.00550000
C       51.01680000      57.55940000      50.00510000
C       51.01680000      42.44060000      49.99500000
C       57.55940000      50.00530000      51.01690000
C       42.44060000      49.99480000      51.01680000
C       42.44060000      50.00520000      48.98310000
C       56.11350000      47.73890000      53.22970000
C       53.22960000      56.11340000      47.73870000
C       47.73870000      53.22980000      56.11340000
C       56.11350000      52.26110000      46.77040000
C       43.88650000      52.26130000      53.22940000
C       43.88650000      47.73870000      46.77040000
C       53.22960000      43.88660000      52.26140000
C       46.77040000      43.88640000      47.73900000
C       46.77040000      56.11360000      52.26100000
C       47.73890000      46.77020000      43.88660000
C       52.26110000      46.77060000      56.11360000
C       52.26130000      53.22940000      43.88640000
C       56.11350000      53.22950000      47.73880000
C       53.22950000      47.73900000      56.11360000
C       47.73880000      56.11360000      53.22940000
C       56.11350000      46.77050000      52.26140000
C       43.88650000      53.22970000      52.26100000
C       43.88650000      46.77040000      47.73880000
C       53.22970000      52.26100000      43.88650000
C       46.77050000      47.73860000      43.88650000
C       46.77040000      52.26140000      56.11340000
C       47.73880000      43.88640000      46.77060000
C       52.26120000      56.11340000      46.77030000
C       52.26110000      43.88660000      53.22980000
C       54.53160000      44.49770000      51.85460000
C       51.85450000      54.53140000      44.49750000
C       44.49760000      51.85450000      54.53150000
C       54.53160000      55.50230000      48.14550000
C       45.46840000      55.50240000      51.85420000
C       45.46840000      44.49760000      48.14570000
C       51.85430000      45.46860000      55.50250000
C       48.14570000      45.46820000      44.49780000
C       48.14550000      54.53180000      55.50220000
C       44.49770000      48.14550000      45.46840000
C       55.50230000      48.14570000      54.53170000
C       55.50240000      51.85430000      45.46840000
C       54.53170000      51.85420000      44.49770000
C       51.85440000      44.49780000      54.53180000
C       44.49760000      54.53170000      51.85420000
C       54.53160000      48.14580000      55.50240000
C       45.46830000      51.85460000      55.50220000
C       45.46840000      48.14540000      44.49770000
C       51.85450000      55.50220000      45.46820000
C       48.14560000      44.49750000      45.46850000
C       48.14560000      55.50250000      54.53140000
C       44.49770000      45.46830000      48.14570000
C       55.50240000      54.53160000      48.14550000
C       55.50230000      45.46840000      51.85460000
C       54.36100000      43.84270000      50.53180000
C       50.53160000      54.36090000      43.84250000
C       43.84260000      50.53170000      54.36100000
C       54.36110000      56.15730000      49.46830000
C       45.63900000      56.15740000      50.53130000
C       45.63900000      43.84260000      49.46860000
C       50.53150000      45.63910000      56.15750000
C       49.46850000      45.63880000      43.84280000
C       49.46840000      54.36120000      56.15720000
C       43.84270000      49.46830000      45.63890000
C       56.15730000      49.46860000      54.36110000
C       56.15740000      50.53140000      45.63900000
C       54.36110000      50.53130000      43.84270000
C       50.53150000      43.84280000      54.36120000
C       43.84270000      54.36110000      50.53130000
C       54.36100000      49.46870000      56.15740000
C       45.63890000      50.53170000      56.15730000
C       45.63900000      49.46830000      43.84260000
C       50.53160000      56.15720000      45.63880000
C       49.46850000      43.84250000      45.63910000
C       49.46840000      56.15750000      54.36080000
C       43.84270000      45.63890000      49.46850000
C       56.15740000      54.36100000      49.46840000
C       56.15730000      45.63900000      50.53170000
C       46.22580000      44.17930000      51.79900000
C       51.79890000      46.22570000      44.17930000
C       44.17930000      51.79870000      46.22570000
C       46.22590000      55.82070000      48.20090000
C       53.77410000      55.82080000      51.79870000
C       53.77420000      44.17920000      48.20140000
C       51.79880000      53.77430000      55.82070000
C       48.20120000      53.77400000      44.17910000
C       48.20110000      46.22600000      55.82090000
C       44.17920000      48.20130000      53.77410000
C       55.82080000      48.20100000      46.22600000
C       55.82070000      51.79900000      53.77420000
C       46.22590000      51.79870000      44.17910000
C       51.79890000      44.17910000      46.22600000
C       44.17920000      46.22590000      51.79890000
C       46.22580000      48.20130000      55.82080000
C       53.77410000      51.79900000      55.82080000
C       53.77420000      48.20100000      44.17930000
C       51.79880000      55.82090000      53.77400000
C       48.20110000      44.17930000      53.77430000
C       48.20120000      55.82070000      46.22560000
C       44.17920000      53.77410000      48.20100000
C       55.82080000      46.22580000      48.20130000
C       55.82080000      53.77420000      51.79880000
C       55.70050000      50.73690000      54.70800000
C       54.70790000      55.70050000      50.73660000
C       50.73670000      54.70810000      55.70040000
C       55.70060000      49.26310000      45.29220000
C       44.29940000      49.26340000      54.70790000
C       44.29950000      50.73660000      45.29200000
C       54.70790000      44.29950000      49.26350000
C       45.29210000      44.29950000      50.73680000
C       45.29210000      55.70050000      49.26310000
C       50.73680000      45.29190000      44.29960000
C       49.26320000      45.29230000      55.70070000
C       49.26330000      54.70770000      44.29930000
C       55.70050000      54.70790000      50.73660000
C       54.70790000      50.73690000      55.70050000
C       50.73670000      55.70070000      54.70780000
C       55.70050000      45.29200000      49.26350000
C       44.29950000      54.70790000      49.26310000
C       44.29950000      45.29210000      50.73680000
C       54.70800000      49.26310000      44.29960000
C       45.29210000      50.73650000      44.29940000
C       45.29200000      49.26350000      55.70050000
C       50.73680000      44.29930000      45.29230000
C       49.26330000      55.70040000      45.29190000
C       49.26320000      44.29960000      54.70810000
C       52.93550000      46.05890000      45.03740000
C       45.03730000      52.93530000      46.05890000
C       46.05900000      45.03740000      52.93550000
C       52.93540000      53.94110000      54.96260000
C       47.06460000      53.94080000      45.03710000
C       47.06450000      46.05920000      54.96280000
C       45.03720000      47.06470000      53.94100000
C       54.96280000      47.06450000      46.05920000
C       54.96270000      52.93550000      53.94090000
C       46.05910000      54.96260000      47.06440000
C       53.94090000      54.96280000      52.93530000
C       53.94100000      45.03720000      47.06480000
C       52.93550000      45.03720000      46.05920000
C       45.03720000      46.05920000      52.93550000
C       46.05910000      52.93530000      45.03720000
C       52.93540000      54.96280000      53.94080000
C       47.06450000      45.03740000      53.94110000
C       47.06460000      54.96260000      46.05890000
C       45.03730000      53.94090000      47.06440000
C       54.96270000      46.05900000      47.06480000
C       54.96270000      53.94100000      52.93540000
C       46.05900000      47.06470000      54.96280000
C       53.94090000      52.93560000      54.96270000
C       53.94100000      47.06440000      45.03740000
C       43.28460000      46.86800000      49.12010000
C       49.12010000      43.28450000      46.86820000
C       46.86810000      49.11990000      43.28450000
C       43.28450000      53.13200000      50.87970000
C       56.71550000      53.13200000      49.12010000
C       56.71540000      46.86800000      50.88010000
C       49.12010000      56.71550000      53.13180000
C       50.87990000      56.71540000      46.86780000
C       50.87990000      43.28460000      53.13220000
C       46.86790000      50.88010000      56.71540000
C       53.13210000      50.87970000      43.28460000
C       53.13190000      49.12030000      56.71550000
C       43.28460000      49.12000000      46.86790000
C       49.12020000      46.86780000      43.28460000
C       46.86800000      43.28450000      49.12030000
C       43.28450000      50.88000000      53.13190000
C       56.71540000      49.12020000      53.13210000
C       56.71550000      50.87980000      46.86800000
C       49.12000000      53.13220000      56.71530000
C       50.87980000      46.86820000      56.71560000
C       50.88000000      53.13180000      43.28450000
C       46.86800000      56.71550000      50.87970000
C       53.13200000      43.28460000      50.88010000
C       53.13200000      56.71540000      49.11990000
