240
Lattice="100.0 0.0 0.0 0.0 100.0 0.0 0.0 0.0 100.0" Properties=species:S:1:pos:R:3 name=C-97510-5923-1293 pressure=-118.02319737837 energy=-1722.52077731844 spacegroup=Oh times_found=1 pbc="T T T"
C       45.02760000      49.29060000      54.97220000
C       54.97190000      45.02740000      49.29030000
C       49.29120000      54.97290000      45.02830000
C       45.02780000      50.71010000      45.02780000
C       54.97230000      50.70820000      54.97240000
C       54.97230000      49.29100000      45.02760000
C       54.97270000      54.97180000      50.70980000
C       45.02810000      54.97280000      49.29140000
C       45.02730000      45.02800000      50.70860000
C       49.29040000      45.02720000      54.97170000
C       50.70880000      45.02820000      45.02710000
C       50.70950000      54.97170000      54.97290000
C       54.97220000      49.28990000      54.97220000
C       45.02730000      45.02810000      49.29020000
C       50.70960000      54.97280000      45.02830000
C       54.97240000      50.70940000      45.02780000
C       45.02770000      50.70900000      54.97240000
C       45.02770000      49.29180000      45.02760000
C       45.02810000      54.97260000      50.70970000
C       54.97270000      54.97200000      49.29140000
C       54.97190000      45.02720000      50.70860000
C       50.70880000      45.02710000      54.97170000
C       49.29050000      45.02830000      45.02710000
C       49.29120000      54.97180000      54.97290000
C       44.31940000      53.92030000      51.40500000
C       51.40410000      44.31860000      53.91940000
C       53.92020000      51.40490000      44.31930000
C       44.31880000      46.08050000      48.59500000
C       55.68060000      46.07930000      51.40410000
C       55.68120000      53.91980000      48.59590000
C       51.40500000      55.68120000      46.08060000
C       48.59580000      55.68050000      53.92070000
C       48.59500000      44.31970000      46.07930000
C       53.91990000      48.59450000      55.68070000
C       46.07980000      48.59640000      44.31890000
C       46.08000000      51.40420000      55.68100000
C       55.68120000      53.91950000      51.40500000
C       48.59500000      44.31880000      53.91940000
C       46.08010000      51.40550000      44.31930000
C       55.68060000      46.07970000      48.59500000
C       44.31880000      46.08020000      51.40410000
C       44.31940000      53.92070000      48.59590000
C       48.59590000      55.68150000      46.08060000
C       51.40500000      55.68030000      53.92070000
C       51.40410000      44.31950000      46.07930000
C       46.07980000      48.59510000      55.68070000
C       53.92000000      48.59580000      44.31890000
C       53.92020000      51.40360000      55.68110000
C       55.23110000      45.83870000      45.83810000
C       45.83900000      55.23230000      45.83920000
C       45.83820000      45.83830000      55.23100000
C       55.23180000      54.16050000      54.16190000
C       44.76890000      54.16230000      45.83900000
C       44.76820000      45.83850000      54.16090000
C       45.83820000      44.76840000      54.16080000
C       54.16100000      44.76870000      45.83800000
C       54.16180000      55.23070000      54.16200000
C       45.83890000      54.16230000      44.76900000
C       54.16170000      54.16050000      55.23200000
C       54.16110000      45.83890000      44.76810000
C       44.76820000      45.83950000      45.83810000
C       54.16180000      55.23160000      45.83920000
C       54.16110000      45.83770000      55.23100000
C       44.76880000      54.16130000      54.16190000
C       55.23180000      54.16150000      45.83910000
C       55.23110000      45.83770000      54.16100000
C       54.16100000      44.76780000      54.16080000
C       45.83820000      44.76930000      45.83800000
C       45.83900000      55.23130000      54.16200000
C       54.16180000      54.16170000      44.76900000
C       45.83890000      54.16110000      55.23190000
C       45.83830000      45.83950000      44.76800000
C       48.58800000      55.66220000      51.41300000
C       51.41220000      48.58690000      55.66200000
C       55.66230000      51.41210000      48.58780000
C       48.58720000      44.33800000      48.58700000
C       51.41190000      44.33750000      51.41170000
C       51.41280000      55.66230000      48.58830000
C       51.41250000      51.41290000      44.33790000
C       48.58770000      51.41180000      55.66240000
C       48.58760000      48.58840000      44.33760000
C       55.66220000      48.58700000      51.41220000
C       44.33770000      48.58820000      48.58750000
C       44.33790000      51.41260000      51.41250000
C       51.41280000      55.66190000      51.41300000
C       48.58750000      48.58710000      55.66200000
C       44.33790000      51.41300000      48.58780000
C       51.41190000      44.33780000      48.58700000
C       48.58720000      44.33770000      51.41170000
C       48.58810000      55.66250000      48.58830000
C       48.58780000      51.41310000      44.33790000
C       51.41240000      51.41160000      55.66240000
C       51.41230000      48.58820000      44.33760000
C       44.33770000      48.58790000      51.41220000
C       55.66210000      48.58740000      48.58750000
C       55.66240000      51.41180000      51.41260000
C       53.77020000      47.17430000      55.79950000
C       55.80010000      53.77040000      47.17570000
C       47.17570000      55.79960000      53.77120000
C       53.77070000      52.82510000      44.20060000
C       46.22970000      52.82430000      55.80010000
C       46.22930000      47.17620000      44.19990000
C       55.79950000      46.22870000      52.82430000
C       44.19990000      46.23030000      47.17480000
C       44.20050000      53.77060000      52.82510000
C       47.17480000      44.20090000      46.22880000
C       52.82430000      44.19960000      53.76980000
C       52.82520000      55.80000000      46.23020000
C       46.22930000      47.17490000      55.79950000
C       44.20050000      53.77130000      47.17570000
C       52.82510000      55.79910000      53.77120000
C       46.22970000      52.82570000      44.20050000
C       53.77070000      52.82380000      55.80010000
C       53.77030000      47.17570000      44.19990000
C       44.19990000      46.22960000      52.82430000
C       55.79950000      46.22940000      47.17490000
C       55.80010000      53.76970000      52.82520000
C       52.82430000      44.20040000      46.22890000
C       47.17480000      44.20000000      53.76980000
C       47.17570000      55.80040000      46.23020000
C       45.31350000      49.28760000      49.28710000
C       49.28680000      45.31370000      49.28660000
C       49.28720000      49.28780000      45.31340000
C       45.31370000      50.71310000      50.71290000
C       54.68650000      50.71260000      49.28730000
C       54.68640000      49.28670000      50.71280000
C       49.28750000      54.68640000      50.71340000
C       50.71320000      54.68650000      49.28770000
C       50.71240000      45.31340000      50.71230000
C       49.28720000      50.71240000      54.68650000
C       50.71290000      50.71330000      45.31360000
C       50.71270000      49.28660000      54.68630000
C       54.68640000      49.28690000      49.28720000
C       50.71240000      45.31360000      49.28660000
C       50.71280000      49.28770000      45.31340000
C       54.68650000      50.71240000      50.71300000
C       45.31370000      50.71330000      49.28720000
C       45.31360000      49.28740000      50.71270000
C       50.71310000      54.68630000      50.71340000
C       49.28750000      54.68660000      49.28770000
C       49.28680000      45.31350000      50.71230000
C       50.71280000      50.71220000      54.68650000
C       49.28730000      50.71340000      45.31360000
C       49.28710000      49.28670000      54.68630000
C       47.30700000      49.27580000      44.13380000
C       44.13370000      47.30760000      49.27460000
C       49.27450000      44.13420000      47.30640000
C       47.30710000      50.72460000      55.86620000
C       52.69300000      50.72560000      44.13390000
C       52.69290000      49.27400000      55.86600000
C       44.13410000      52.69330000      50.72540000
C       55.86640000      52.69260000      49.27520000
C       55.86600000      47.30650000      50.72480000
C       49.27530000      55.86590000      52.69360000
C       50.72550000      55.86640000      47.30770000
C       50.72460000      44.13350000      52.69230000
C       52.69290000      49.27540000      44.13370000
C       55.86590000      47.30670000      49.27460000
C       50.72470000      44.13410000      47.30640000
C       52.69300000      50.72420000      55.86620000
C       47.30710000      50.72600000      44.13390000
C       47.30700000      49.27440000      55.86600000
C       55.86640000      52.69240000      50.72540000
C       44.13410000      52.69350000      49.27520000
C       44.13370000      47.30740000      50.72480000
C       50.72550000      55.86580000      52.69360000
C       49.27530000      55.86650000      47.30770000
C       49.27440000      44.13360000      52.69230000
C       55.86610000      49.27480000      47.30700000
C       47.30750000      55.86650000      49.27560000
C       49.27470000      47.30640000      55.86580000
C       55.86620000      50.72430000      52.69310000
C       44.13390000      50.72590000      47.30710000
C       44.13380000      49.27500000      52.69290000
C       47.30660000      44.13390000      50.72440000
C       52.69250000      44.13380000      49.27420000
C       52.69340000      55.86580000      50.72580000
C       49.27510000      52.69370000      44.13420000
C       50.72530000      52.69220000      55.86650000
C       50.72490000      47.30770000      44.13350000
C       44.13380000      49.27570000      47.30690000
C       52.69340000      55.86600000      49.27560000
C       50.72490000      47.30630000      55.86580000
C       44.13400000      50.72520000      52.69300000
C       55.86620000      50.72500000      47.30720000
C       55.86610000      49.27410000      52.69290000
C       52.69250000      44.13360000      50.72440000
C       47.30660000      44.13410000      49.27420000
C       47.30750000      55.86630000      50.72580000
C       50.72530000      52.69360000      44.13420000
C       49.27510000      52.69230000      55.86650000
C       49.27470000      47.30780000      44.13350000
C       52.82440000      46.22860000      55.79940000
C       55.80000000      52.82470000      46.22990000
C       46.22990000      55.79980000      52.82540000
C       52.82500000      53.77090000      44.20070000
C       47.17550000      53.77000000      55.80020000
C       47.17500000      46.23040000      44.19980000
C       55.79960000      47.17440000      53.77020000
C       44.20000000      47.17610000      46.22920000
C       44.20040000      52.82470000      53.77080000
C       46.22910000      44.20080000      47.17460000
C       53.77000000      44.19960000      52.82410000
C       53.77090000      55.79980000      47.17600000
C       47.17500000      46.22910000      55.79930000
C       44.20040000      52.82560000      46.22980000
C       53.77090000      55.79920000      52.82540000
C       47.17560000      53.77140000      44.20070000
C       52.82500000      53.76960000      55.80020000
C       52.82450000      46.23000000      44.19980000
C       44.20000000      47.17530000      53.77010000
C       55.79960000      47.17530000      46.22920000
C       55.80000000      52.82390000      53.77080000
C       53.77010000      44.20030000      47.17460000
C       46.22910000      44.20020000      52.82400000
C       46.22990000      55.80040000      47.17590000
C       46.07950000      44.31950000      48.59480000
C       48.59520000      46.08070000      44.31870000
C       44.31900000      48.59630000      46.07970000
C       46.08030000      55.68100000      51.40520000
C       53.92050000      55.68080000      48.59610000
C       53.91960000      44.31870000      51.40390000
C       48.59570000      53.91950000      55.68130000
C       51.40490000      53.92060000      44.31960000
C       51.40420000      46.07920000      55.68040000
C       44.31920000      51.40450000      53.92020000
C       55.68100000      51.40460000      46.08010000
C       55.68080000      48.59460000      53.91990000
C       53.91960000      44.31900000      48.59480000
C       51.40430000      46.08050000      44.31870000
C       55.68080000      48.59550000      46.07980000
C       53.92050000      55.68040000      51.40520000
C       46.08040000      55.68140000      48.59610000
C       46.07950000      44.31920000      51.40390000
C       51.40480000      53.91930000      55.68140000
C       48.59580000      53.92080000      44.31960000
C       48.59510000      46.07940000      55.68040000
C       55.68100000      51.40370000      53.92030000
C       44.31920000      51.40540000      46.08010000
C       44.31900000      48.59540000      53.91990000
