240
Lattice="100.0 0.0 0.0 0.0 100.0 0.0 0.0 0.0 100.0" Properties=species:S:1:pos:R:3 name=C-97510-5923-909 pressure=-0.188665900539609 spacegroup=Td times_found=1 energy=-1735.7985774906 pbc="T T T"
C       57.14830000      49.41170000      51.59240000
C       51.59360000      57.14810000      49.41250000
C       49.41310000      51.59280000      57.14830000
C       42.85230000      50.58790000      51.59500000
C       42.85170000      49.41210000      48.40750000
C       57.14770000      50.58830000      48.40520000
C       48.40620000      42.85210000      49.41140000
C       48.40640000      57.14790000      50.58920000
C       51.59380000      42.85190000      50.58700000
C       50.58930000      48.40550000      57.14770000
C       50.58690000      51.59450000      42.85210000
C       49.41070000      48.40720000      42.85190000
C       49.41220000      57.14780000      51.59460000
C       57.14790000      51.59370000      49.41090000
C       51.59490000      49.41110000      57.14770000
C       50.58840000      42.85180000      51.59270000
C       49.41160000      42.85220000      48.40560000
C       50.58780000      57.14820000      48.40710000
C       42.85190000      48.40640000      49.41300000
C       57.14810000      48.40630000      50.58670000
C       42.85210000      51.59360000      50.58950000
C       48.40760000      50.58730000      57.14840000
C       51.59240000      50.58890000      42.85180000
C       48.40510000      49.41270000      42.85220000
C       53.05830000      50.94210000      56.40680000
C       56.40740000      53.05710000      50.94210000
C       50.94340000      56.40690000      53.05780000
C       46.94390000      49.05640000      56.40770000
C       46.94170000      50.94360000      43.59340000
C       53.05610000      49.05790000      43.59210000
C       43.59290000      46.94270000      50.94360000
C       43.59260000      53.05730000      49.05860000
C       56.40710000      46.94290000      49.05570000
C       49.05770000      43.59240000      53.05660000
C       49.05660000      56.40760000      46.94370000
C       50.94230000      43.59310000      46.94190000
C       50.94390000      53.05650000      56.40750000
C       53.05740000      56.40720000      50.94310000
C       56.40780000      50.94250000      53.05620000
C       49.05830000      46.94200000      56.40710000
C       50.94170000      46.94350000      43.59220000
C       49.05610000      53.05800000      43.59330000
C       46.94290000      43.59260000      50.94260000
C       53.05700000      43.59280000      49.05590000
C       46.94260000      56.40740000      49.05840000
C       43.59330000      49.05680000      53.05820000
C       56.40670000      49.05750000      46.94160000
C       43.59220000      50.94320000      46.94400000
C       48.22630000      50.76970000      43.10000000
C       43.09970000      48.22740000      50.76990000
C       50.76860000      43.09980000      48.22650000
C       51.77140000      49.23190000      43.09920000
C       51.77370000      50.76810000      56.90020000
C       48.22860000      49.23030000      56.90060000
C       56.90050000      51.77250000      50.76800000
C       56.90030000      48.22750000      49.22970000
C       43.09950000      51.77260000      49.23250000
C       49.23080000      56.90060000      48.22840000
C       49.23140000      43.09940000      51.77190000
C       50.76930000      56.90020000      51.77320000
C       50.76780000      48.22820000      43.09930000
C       48.22760000      43.09950000      50.76840000
C       43.09930000      50.76920000      48.22870000
C       49.22990000      51.77340000      43.09990000
C       50.77010000      51.77180000      56.90050000
C       49.23220000      48.22660000      56.90030000
C       51.77270000      56.90030000      50.76940000
C       48.22730000      56.90050000      49.23220000
C       51.77240000      43.09970000      49.23000000
C       56.90010000      49.23130000      48.22620000
C       43.09990000      49.23090000      51.77370000
C       56.90070000      50.76870000      51.77150000
C       46.04330000      50.18940000      56.11520000
C       56.11450000      46.04220000      50.18860000
C       50.18940000      56.11490000      46.04290000
C       53.95880000      49.80920000      56.11370000
C       53.95670000      50.19080000      43.88490000
C       46.04120000      49.81060000      43.88620000
C       43.88560000      53.95770000      50.19160000
C       43.88550000      46.04230000      49.81050000
C       56.11440000      53.95780000      49.80930000
C       49.80920000      43.88600000      46.04160000
C       49.81060000      56.11400000      53.95850000
C       50.19080000      43.88510000      53.95700000
C       50.19120000      46.04160000      56.11400000
C       46.04230000      56.11440000      50.19150000
C       56.11380000      50.19060000      46.04120000
C       49.81090000      53.95700000      56.11490000
C       50.18910000      53.95840000      43.88600000
C       49.80880000      46.04300000      43.88510000
C       53.95780000      43.88550000      50.18870000
C       46.04220000      43.88560000      49.80980000
C       53.95770000      56.11450000      49.80990000
C       43.88490000      49.81030000      46.04330000
C       56.11510000      49.80940000      53.95670000
C       43.88620000      50.18970000      53.95880000
C       46.00100000      55.95680000      48.08240000
C       48.08210000      46.00070000      55.95640000
C       55.95580000      48.08150000      46.00010000
C       53.99830000      44.04370000      48.07970000
C       53.99900000      55.95630000      51.91900000
C       46.00170000      44.04330000      51.91900000
C       51.92000000      53.99790000      55.95670000
C       51.91790000      46.00210000      44.04270000
C       48.08000000      53.99930000      44.04430000
C       44.04280000      51.91940000      46.00260000
C       44.04420000      48.08060000      53.99940000
C       55.95720000      51.91850000      53.99780000
C       55.95620000      46.00160000      48.07960000
C       46.00240000      48.08040000      55.95700000
C       48.08040000      55.95700000      46.00240000
C       44.04310000      53.99890000      48.08250000
C       55.95690000      53.99840000      51.91840000
C       44.04380000      46.00110000      51.91950000
C       53.99970000      51.91830000      55.95610000
C       46.00030000      51.91960000      44.04440000
C       53.99760000      48.08170000      44.04260000
C       51.91830000      44.04390000      46.00030000
C       48.08170000      44.04300000      53.99830000
C       51.91960000      55.95610000      53.99900000
C       48.41280000      47.42200000      43.30070000
C       43.30020000      48.41430000      47.42220000
C       47.42100000      43.30090000      48.41360000
C       51.58490000      52.57950000      43.30070000
C       51.58720000      47.42050000      56.69870000
C       48.41510000      52.57800000      56.69990000
C       56.69890000      51.58630000      47.42030000
C       56.69980000      48.41360000      52.57740000
C       43.30110000      51.58580000      52.58010000
C       52.57850000      56.69950000      48.41430000
C       52.57900000      43.30050000      51.58480000
C       47.42150000      56.69910000      51.58730000
C       47.42010000      48.41470000      43.30090000
C       48.41350000      43.30100000      47.42070000
C       43.30040000      47.42140000      48.41480000
C       52.57760000      51.58680000      43.30040000
C       47.42240000      51.58530000      56.69990000
C       52.57990000      48.41320000      56.69870000
C       51.58560000      56.69960000      47.42170000
C       48.41440000      56.69900000      52.57980000
C       51.58650000      43.30040000      52.57770000
C       56.69900000      52.57890000      48.41310000
C       43.30100000      52.57860000      51.58750000
C       56.69960000      47.42110000      51.58460000
C       54.97600000      55.92770000      50.82090000
C       50.82210000      54.97520000      55.92830000
C       55.92870000      50.82050000      54.97500000
C       45.02430000      44.07210000      50.82130000
C       45.02400000      55.92790000      49.18040000
C       54.97570000      44.07230000      49.17740000
C       49.17990000      45.02340000      55.92740000
C       49.17790000      54.97660000      44.07290000
C       50.82010000      45.02480000      44.07150000
C       44.07300000      49.17830000      54.97680000
C       44.07130000      50.82170000      45.02520000
C       55.92700000      49.17950000      45.02300000
C       55.92800000      54.97580000      50.82070000
C       54.97690000      50.82040000      55.92710000
C       50.82200000      55.92720000      54.97640000
C       44.07230000      45.02400000      50.82150000
C       55.92770000      45.02420000      49.17730000
C       44.07200000      54.97600000      49.18050000
C       45.02510000      49.17820000      55.92860000
C       54.97490000      49.17960000      44.07120000
C       45.02310000      50.82180000      44.07310000
C       49.17980000      44.07160000      54.97530000
C       50.82020000      44.07280000      45.02330000
C       49.17800000      55.92840000      45.02490000
C       53.04740000      44.91790000      45.94000000
C       45.94020000      53.04870000      44.91840000
C       44.91790000      45.94070000      53.04850000
C       46.95120000      55.08310000      45.94220000
C       46.95260000      44.91690000      54.05890000
C       53.04880000      55.08210000      54.05900000
C       54.05800000      46.95250000      44.91630000
C       54.05980000      53.04750000      55.08230000
C       45.94200000      46.95130000      55.08300000
C       55.08310000      54.05860000      53.04770000
C       55.08210000      45.94140000      46.95050000
C       44.91690000      54.05930000      46.95320000
C       44.91670000      53.04860000      45.94230000
C       53.04720000      45.94170000      44.91640000
C       45.94160000      44.91700000      53.04820000
C       55.08190000      46.95230000      45.93990000
C       44.91810000      46.95140000      54.05940000
C       55.08330000      53.04770000      54.05840000
C       46.95100000      54.05950000      44.91840000
C       53.04900000      54.05830000      55.08260000
C       46.95270000      45.94050000      55.08270000
C       54.05940000      55.08230000      53.04800000
C       45.94060000      55.08300000      46.95320000
C       54.05840000      44.91770000      46.95060000
C       47.38180000      45.31480000      46.33860000
C       46.33790000      47.38300000      45.31470000
C       45.31390000      46.33900000      47.38280000
C       52.61690000      54.68610000      46.33880000
C       52.61820000      45.31390000      53.66030000
C       47.38310000      54.68520000      53.66230000
C       53.66050000      52.61810000      45.31400000
C       53.66210000      47.38190000      54.68470000
C       46.33950000      52.61700000      54.68660000
C       54.68520000      53.66160000      47.38200000
C       54.68610000      46.33840000      52.61630000
C       45.31480000      53.66100000      52.61880000
C       45.31370000      47.38290000      46.33920000
C       47.38160000      46.33920000      45.31440000
C       46.33820000      45.31460000      47.38250000
C       54.68500000      52.61800000      46.33820000
C       45.31500000      52.61710000      53.66240000
C       54.68630000      47.38200000      53.66020000
C       52.61680000      53.66190000      45.31430000
C       47.38320000      53.66080000      54.68650000
C       52.61840000      46.33810000      54.68480000
C       53.66090000      54.68600000      47.38230000
C       46.33910000      54.68540000      52.61870000
C       53.66180000      45.31400000      52.61640000
C       55.74570000      53.58770000      48.49260000
C       48.49380000      55.74560000      53.58840000
C       53.58850000      48.49250000      55.74520000
C       44.25370000      46.41270000      48.49370000
C       44.25430000      53.58730000      51.50820000
C       55.74620000      46.41230000      51.50540000
C       51.50750000      44.25360000      53.58660000
C       51.50620000      55.74640000      46.41290000
C       48.49250000      44.25440000      46.41210000
C       46.41350000      51.50620000      55.74680000
C       46.41150000      48.49380000      44.25450000
C       53.58650000      51.50750000      44.25360000
C       53.58720000      55.74620000      48.49320000
C       55.74660000      48.49270000      53.58630000
C       48.49410000      53.58680000      55.74670000
C       46.41230000      44.25420000      48.49310000
C       53.58770000      44.25380000      51.50560000
C       46.41280000      55.74580000      51.50810000
C       44.25460000      51.50640000      53.58860000
C       55.74540000      51.50730000      46.41170000
C       44.25340000      48.49360000      46.41330000
C       51.50780000      46.41180000      55.74530000
C       48.49220000      46.41320000      44.25390000
C       51.50590000      53.58820000      44.25420000
