240
Lattice="100.0 0.0 0.0 0.0 100.0 0.0 0.0 0.0 100.0" Properties=species:S:1:pos:R:3 name=C-97510-5923-455 pressure=-16.6875775263378 energy=-1780.6431226494 spacegroup=Oh times_found=1 pbc="T T T"
C       47.43930000      49.25330000      43.69380000
C       49.25260000      43.69430000      47.43840000
C       43.69390000      47.43930000      49.25210000
C       47.43850000      50.74700000      56.30580000
C       52.56060000      49.25220000      56.30610000
C       52.56160000      50.74750000      43.69430000
C       49.25290000      56.30580000      52.56150000
C       50.74670000      43.69380000      52.56070000
C       50.74780000      56.30610000      47.43940000
C       43.69410000      52.56140000      50.74700000
C       56.30570000      47.43850000      50.74750000
C       56.30620000      52.56080000      49.25340000
C       52.56150000      49.25300000      43.69420000
C       50.74710000      43.69420000      47.43850000
C       56.30590000      47.43860000      49.25300000
C       52.56070000      50.74670000      56.30620000
C       47.43840000      49.25250000      56.30570000
C       47.43940000      50.74780000      43.69390000
C       50.74740000      56.30570000      52.56160000
C       49.25220000      43.69390000      52.56060000
C       49.25330000      56.30620000      47.43930000
C       56.30610000      52.56070000      50.74790000
C       43.69380000      47.43920000      50.74660000
C       43.69430000      52.56150000      49.25250000
C       51.40420000      48.59460000      56.81630000
C       48.59550000      56.81620000      51.40520000
C       56.81640000      51.40450000      48.59580000
C       51.40540000      51.40520000      43.18400000
C       48.59560000      48.59570000      43.18350000
C       48.59470000      51.40450000      56.81620000
C       48.59490000      43.18390000      48.59460000
C       51.40540000      56.81630000      48.59570000
C       51.40430000      43.18360000      51.40450000
C       56.81610000      48.59470000      51.40530000
C       43.18370000      51.40520000      51.40440000
C       43.18380000      48.59570000      48.59460000
C       48.59460000      48.59480000      56.81600000
C       51.40510000      56.81610000      51.40540000
C       43.18390000      51.40530000      48.59470000
C       48.59580000      51.40540000      43.18370000
C       51.40530000      48.59550000      43.18380000
C       51.40440000      51.40430000      56.81650000
C       51.40450000      43.18380000      48.59480000
C       48.59570000      56.81640000      48.59550000
C       48.59460000      43.18370000      51.40430000
C       43.18360000      48.59550000      51.40420000
C       56.81620000      51.40430000      51.40540000
C       56.81630000      48.59480000      48.59560000
C       54.67370000      47.38880000      46.36490000
C       47.38820000      46.36450000      54.67320000
C       46.36520000      54.67400000      47.38890000
C       54.67350000      52.61070000      53.63580000
C       45.32600000      47.38880000      53.63480000
C       45.32680000      52.61170000      46.36450000
C       47.38940000      53.63580000      45.32650000
C       52.61130000      46.36490000      45.32630000
C       52.61110000      53.63480000      54.67400000
C       46.36420000      45.32640000      52.61060000
C       53.63540000      54.67320000      52.61180000
C       53.63520000      45.32640000      47.38880000
C       45.32650000      47.38930000      46.36420000
C       52.61060000      46.36420000      54.67350000
C       53.63580000      54.67360000      47.38940000
C       45.32630000      52.61120000      53.63510000
C       54.67320000      47.38830000      53.63550000
C       54.67400000      52.61120000      46.36520000
C       52.61180000      53.63550000      45.32680000
C       47.38890000      46.36520000      45.32600000
C       47.38870000      53.63510000      54.67370000
C       53.63480000      45.32600000      52.61110000
C       46.36480000      54.67360000      52.61120000
C       46.36460000      45.32680000      47.38820000
C       44.22600000      49.27030000      45.22540000
C       49.26980000      45.22630000      44.22530000
C       45.22560000      44.22600000      49.26890000
C       44.22540000      50.73040000      54.77380000
C       55.77390000      49.26900000      54.77450000
C       55.77470000      50.73030000      45.22630000
C       49.26950000      54.77380000      55.77460000
C       50.72960000      45.22540000      55.77400000
C       50.73110000      54.77450000      44.22610000
C       45.22620000      55.77450000      50.73040000
C       54.77370000      44.22540000      50.73030000
C       54.77450000      55.77410000      49.27040000
C       55.77460000      49.26960000      45.22620000
C       50.73050000      45.22620000      44.22540000
C       54.77380000      44.22550000      49.26960000
C       55.77400000      50.72970000      54.77460000
C       44.22530000      49.26970000      54.77370000
C       44.22610000      50.73100000      45.22550000
C       50.73020000      54.77370000      55.77470000
C       49.26890000      45.22550000      55.77390000
C       49.27040000      54.77460000      44.22600000
C       54.77440000      55.77400000      50.73110000
C       45.22550000      44.22590000      50.72960000
C       45.22630000      55.77460000      49.26970000
C       53.61070000      55.61620000      51.46290000
C       55.61640000      51.46160000      53.61100000
C       51.46200000      53.61000000      55.61690000
C       53.61030000      44.38340000      48.53770000
C       46.38990000      55.61680000      48.53790000
C       46.38900000      44.38360000      51.46160000
C       55.61670000      48.53770000      46.38980000
C       44.38380000      51.46280000      46.38920000
C       44.38310000      48.53790000      53.61000000
C       51.46240000      46.38980000      44.38330000
C       48.53840000      53.61100000      44.38360000
C       48.53710000      46.38920000      55.61620000
C       46.38970000      55.61660000      51.46230000
C       44.38330000      51.46230000      53.61020000
C       48.53760000      53.61020000      55.61670000
C       46.38930000      44.38380000      48.53710000
C       53.61100000      55.61640000      48.53840000
C       53.61010000      44.38320000      51.46210000
C       44.38360000      48.53840000      46.38900000
C       55.61690000      51.46210000      46.39000000
C       55.61620000      48.53720000      53.61080000
C       48.53800000      46.39000000      44.38310000
C       51.46290000      53.61080000      44.38380000
C       51.46160000      46.38900000      55.61640000
C       54.67360000      46.36460000      47.38890000
C       46.36420000      47.38870000      54.67310000
C       47.38940000      54.67400000      46.36480000
C       54.67360000      53.63480000      52.61180000
C       45.32600000      46.36480000      52.61060000
C       45.32680000      53.63580000      47.38870000
C       46.36520000      52.61170000      45.32630000
C       53.63550000      47.38890000      45.32650000
C       53.63510000      52.61060000      54.67400000
C       47.38830000      45.32630000      53.63480000
C       52.61120000      54.67320000      53.63580000
C       52.61120000      45.32650000      46.36460000
C       45.32640000      46.36520000      47.38820000
C       53.63480000      47.38830000      54.67370000
C       52.61170000      54.67370000      46.36520000
C       45.32640000      53.63540000      52.61110000
C       54.67320000      46.36420000      52.61130000
C       54.67400000      53.63520000      47.38940000
C       53.63580000      52.61130000      45.32690000
C       46.36490000      47.38940000      45.32600000
C       46.36450000      52.61110000      54.67350000
C       52.61060000      45.32600000      53.63520000
C       47.38880000      54.67350000      53.63540000
C       47.38880000      45.32680000      46.36420000
C       46.38980000      48.53840000      44.38310000
C       48.53770000      44.38380000      46.38900000
C       44.38340000      46.38990000      48.53710000
C       46.38920000      51.46210000      55.61640000
C       53.61000000      48.53720000      55.61670000
C       53.61100000      51.46240000      44.38380000
C       48.53780000      55.61640000      53.61080000
C       51.46160000      44.38310000      53.61020000
C       51.46280000      55.61670000      46.39000000
C       44.38360000      53.61080000      51.46210000
C       55.61620000      46.38900000      51.46240000
C       55.61690000      53.61030000      48.53840000
C       53.61080000      48.53790000      44.38360000
C       51.46220000      44.38360000      46.38920000
C       55.61640000      46.38920000      48.53790000
C       53.61020000      51.46160000      55.61690000
C       46.38900000      48.53760000      55.61620000
C       46.39000000      51.46280000      44.38330000
C       51.46230000      55.61620000      53.61100000
C       48.53720000      44.38330000      53.61000000
C       48.53840000      55.61690000      46.38980000
C       55.61660000      53.61010000      51.46290000
C       44.38310000      46.38970000      51.46160000
C       44.38380000      53.61100000      48.53760000
C       50.71720000      49.28380000      42.19240000
C       49.28280000      42.19240000      50.71610000
C       42.19250000      50.71720000      49.28280000
C       50.71620000      50.71610000      57.80770000
C       49.28270000      49.28280000      57.80750000
C       49.28390000      50.71730000      42.19240000
C       49.28380000      57.80770000      49.28380000
C       50.71630000      42.19240000      49.28280000
C       50.71710000      57.80750000      50.71730000
C       42.19230000      49.28370000      50.71610000
C       57.80760000      50.71620000      50.71730000
C       57.80770000      49.28290000      49.28380000
C       49.28390000      49.28390000      42.19230000
C       50.71620000      42.19230000      50.71620000
C       57.80770000      50.71630000      49.28390000
C       49.28280000      50.71620000      57.80760000
C       50.71610000      49.28270000      57.80760000
C       50.71730000      50.71720000      42.19250000
C       50.71720000      57.80760000      49.28390000
C       49.28290000      42.19250000      49.28270000
C       49.28370000      57.80760000      50.71720000
C       57.80750000      49.28280000      50.71720000
C       42.19230000      50.71710000      50.71620000
C       42.19240000      49.28380000      49.28270000
C       50.74760000      47.43930000      43.69390000
C       47.43850000      43.69410000      50.74660000
C       43.69430000      50.74780000      47.43850000
C       50.74690000      52.56060000      56.30620000
C       49.25210000      47.43850000      56.30570000
C       49.25340000      52.56160000      43.69420000
C       47.43930000      56.30620000      49.25300000
C       52.56080000      43.69390000      49.25250000
C       52.56140000      56.30570000      50.74790000
C       43.69380000      49.25300000      52.56060000
C       56.30580000      50.74670000      52.56160000
C       56.30610000      49.25250000      47.43930000
C       49.25310000      47.43940000      43.69380000
C       52.56070000      43.69380000      50.74700000
C       56.30620000      50.74700000      47.43940000
C       49.25240000      52.56070000      56.30610000
C       50.74660000      47.43840000      56.30580000
C       50.74790000      52.56150000      43.69430000
C       52.56150000      56.30590000      49.25340000
C       47.43860000      43.69430000      49.25210000
C       47.43920000      56.30610000      50.74750000
C       56.30570000      49.25220000      52.56150000
C       43.69390000      50.74750000      52.56070000
C       43.69420000      49.25330000      47.43840000
C       54.77380000      50.72970000      55.77470000
C       50.73040000      55.77390000      54.77460000
C       55.77450000      54.77370000      50.73110000
C       54.77450000      49.26970000      44.22600000
C       45.22630000      50.73110000      44.22540000
C       45.22540000      49.26950000      55.77390000
C       50.73040000      44.22600000      45.22550000
C       49.27030000      55.77470000      45.22620000
C       49.26890000      44.22540000      54.77370000
C       55.77410000      45.22560000      49.26970000
C       44.22600000      54.77450000      49.26950000
C       44.22540000      45.22620000      50.72960000
C       45.22550000      50.73030000      55.77400000
C       49.26960000      55.77400000      54.77450000
C       44.22590000      54.77440000      50.73030000
C       45.22620000      49.27030000      44.22530000
C       54.77460000      50.73050000      44.22610000
C       54.77370000      49.26890000      55.77460000
C       49.26960000      44.22610000      45.22540000
C       50.73110000      55.77460000      45.22630000
C       50.72970000      44.22530000      54.77380000
C       44.22550000      45.22630000      49.26890000
C       55.77460000      54.77380000      49.27040000
C       55.77400000      45.22550000      50.73050000
