240
Lattice="100.0 0.0 0.0 0.0 100.0 0.0 0.0 0.0 100.0" Properties=species:S:1:pos:R:3 name=C-97510-5923-611 pressure=0.0085845708787322 energy=-1742.25846691156 spacegroup=C1 times_found=1 pbc="T T T"
C       46.30650000      47.95850000      44.31780000
C       44.25940000      46.40490000      47.87150000
C       48.19280000      43.90720000      46.41690000
C       46.52260000      52.24280000      55.63630000
C       53.46500000      51.72780000      44.07670000
C       53.49290000      47.86010000      55.61780000
C       43.96100000      53.53580000      51.73430000
C       55.64610000      53.39990000      48.19250000
C       56.14670000      46.40750000      51.79690000
C       47.99920000      55.77280000      53.51770000
C       52.17210000      55.63580000      46.65930000
C       51.91750000      44.40720000      53.39170000
C       53.43570000      47.91220000      44.26700000
C       56.07820000      46.30420000      48.10740000
C       51.94950000      44.14420000      46.29720000
C       53.56230000      51.87850000      55.74780000
C       46.46410000      51.94180000      44.16060000
C       46.48190000      48.32980000      55.99300000
C       55.67710000      53.43940000      52.18740000
C       44.31880000      53.46430000      47.90770000
C       44.35210000      46.56100000      51.90340000
C       51.86010000      56.02500000      53.71070000
C       48.30960000      55.99740000      46.48170000
C       47.91260000      44.43410000      53.42670000
C       46.30420000      54.52320000      46.88500000
C       46.83350000      46.43270000      54.60900000
C       54.54060000      46.81660000      46.18270000
C       45.53510000      44.80060000      52.80450000
C       53.69890000      45.67840000      46.11100000
C       53.73630000      54.65370000      53.30970000
C       46.29190000      53.64800000      45.76440000
C       52.98820000      54.11220000      54.46610000
C       52.84950000      45.69280000      44.97840000
C       55.32780000      52.76700000      54.55100000
C       45.17810000      52.78660000      45.76260000
C       45.73950000      47.24510000      54.04190000
C       54.51080000      55.18510000      47.31520000
C       52.81020000      45.51410000      55.19890000
C       44.49120000      46.89260000      45.46100000
C       54.14880000      45.69680000      52.81790000
C       46.26840000      45.26570000      46.77710000
C       45.89460000      54.32660000      52.82420000
C       53.18880000      53.61930000      45.47500000
C       47.08610000      54.63750000      55.30810000
C       47.02150000      45.80140000      45.63010000
C       45.34080000      53.22780000      53.63220000
C       54.26920000      52.78070000      46.02560000
C       54.70470000      46.78800000      53.63650000
C       51.34270000      52.94190000      44.17430000
C       44.05300000      51.38610000      52.92820000
C       53.00790000      44.41750000      51.23010000
C       51.21300000      47.01330000      55.87680000
C       48.54190000      47.00580000      44.31430000
C       48.73340000      53.16680000      55.98630000
C       43.88240000      48.60380000      46.91790000
C       56.05670000      48.58290000      52.94880000
C       55.59670000      51.21280000      47.12690000
C       53.03220000      55.89600000      48.92570000
C       47.02750000      55.66150000      51.29130000
C       47.08240000      44.02520000      48.60580000
C       48.63110000      53.04480000      44.50430000
C       55.97710000      51.16510000      53.05910000
C       47.00990000      44.14190000      51.17980000
C       48.63710000      47.15090000      55.93850000
C       51.21740000      46.91700000      43.95790000
C       51.40180000      52.98390000      55.77390000
C       55.78130000      48.53260000      47.12290000
C       44.39840000      48.77320000      52.91250000
C       44.00220000      51.23470000      46.91990000
C       47.13240000      55.81610000      48.61580000
C       52.91200000      55.94010000      51.50720000
C       53.09430000      44.37290000      48.43360000
C       51.77310000      56.36050000      49.42610000
C       49.29050000      51.89860000      56.35010000
C       56.56720000      49.22970000      51.76720000
C       51.85410000      43.84210000      50.57840000
C       48.30090000      43.58470000      49.23710000
C       48.17740000      56.34210000      50.73750000
C       49.15440000      48.20970000      43.78340000
C       50.72300000      48.28180000      56.31930000
C       50.64160000      51.77690000      43.69520000
C       56.28010000      50.63370000      48.26320000
C       43.55820000      50.73230000      51.73780000
C       43.58010000      49.19720000      48.18760000
C       48.24420000      56.41500000      49.30610000
C       50.75510000      51.83050000      56.33290000
C       43.70730000      49.30320000      51.75360000
C       48.28020000      43.73660000      50.66630000
C       51.87960000      43.81500000      49.10930000
C       51.71060000      56.42880000      50.87520000
C       50.61570000      48.17690000      43.65830000
C       49.28340000      48.34230000      56.43040000
C       49.21410000      51.82490000      43.83790000
C       43.57620000      50.66350000      48.16410000
C       56.41820000      50.66740000      51.79650000
C       56.38320000      49.19220000      48.25440000
C       43.30680000      53.03950000      48.77780000
C       48.92430000      43.54320000      53.01000000
C       52.96330000      48.82820000      43.31890000
C       43.20020000      47.02150000      51.26470000
C       57.11540000      46.94940000      48.81840000
C       56.57750000      53.03990000      51.17940000
C       48.92950000      57.13020000      47.09730000
C       50.97070000      56.94740000      53.18580000
C       51.18720000      43.16600000      46.87750000
C       53.02120000      51.20910000      56.85620000
C       47.00980000      51.26110000      43.07180000
C       47.01450000      49.00990000      57.11440000
C       56.80310000      52.92160000      48.80660000
C       51.28610000      43.28140000      52.85000000
C       46.85850000      48.87690000      43.42170000
C       57.29790000      46.96520000      51.17680000
C       43.39250000      46.84890000      48.89170000
C       42.83760000      52.97690000      51.07140000
C       51.24290000      56.62020000      47.04750000
C       48.60330000      56.92870000      53.00910000
C       48.88650000      42.81160000      47.00700000
C       46.93490000      51.31060000      56.59800000
C       52.86540000      51.12600000      42.93530000
C       53.09730000      48.84580000      56.54320000
C       55.79320000      52.56970000      53.27480000
C       52.92160000      55.73000000      52.88640000
C       52.78000000      52.95790000      55.33220000
C       55.51450000      47.13820000      47.14320000
C       44.83090000      47.40370000      52.92220000
C       44.32990000      52.60230000      46.83870000
C       53.03830000      44.68700000      47.02960000
C       46.80530000      44.32280000      52.58360000
C       47.24610000      55.50910000      47.23540000
C       52.61300000      46.81340000      44.19700000
C       47.25760000      47.22030000      55.70710000
C       47.22570000      52.99820000      44.77110000
C       44.25170000      52.77440000      52.84940000
C       47.00690000      55.24880000      52.67160000
C       47.32420000      53.36850000      55.78580000
C       44.05400000      47.18560000      46.74340000
C       55.82930000      47.20140000      52.88170000
C       55.17390000      52.59010000      47.14570000
C       47.10620000      44.20470000      47.21920000
C       52.98680000      44.84690000      52.61170000
C       53.25840000      55.70960000      47.52420000
C       47.16940000      46.94610000      44.74820000
C       52.61470000      46.77870000      55.69910000
C       52.72960000      52.84880000      44.37810000
C       45.37610000      54.39970000      48.01260000
C       47.94750000      45.49610000      54.37050000
C       54.37650000      47.98830000      45.32440000
C       45.02650000      45.32370000      51.61670000
C       55.41480000      45.22170000      48.56310000
C       54.61750000      54.39800000      52.17510000
C       48.86790000      55.23120000      45.55980000
C       51.80480000      54.93120000      54.61210000
C       51.68500000      44.92400000      45.12300000
C       54.79060000      51.57900000      55.04940000
C       45.29590000      51.63570000      44.96420000
C       45.65760000      48.48040000      54.83000000
C       54.98350000      54.64330000      48.50310000
C       51.61630000      45.05060000      54.64610000
C       45.01320000      48.07040000      44.93190000
C       54.98200000      45.57060000      51.60650000
C       45.36570000      45.51600000      47.91090000
C       45.11230000      54.38940000      51.58280000
C       52.08740000      54.56860000      45.71730000
C       48.27750000      55.16140000      54.80180000
C       48.25810000      45.01660000      45.50870000
C       45.60080000      52.13270000      54.57010000
C       54.32670000      51.55370000      45.21520000
C       54.45440000      47.89860000      54.56960000
C       51.71440000      49.31530000      56.58810000
C       56.71960000      51.56580000      49.29780000
C       49.16270000      56.82360000      51.68020000
C       51.50210000      50.69470000      43.19200000
C       48.32320000      50.85630000      56.66260000
C       48.24650000      49.31010000      43.48010000
C       57.07360000      48.34440000      50.72220000
C       43.35990000      48.25420000      49.29280000
C       43.07770000      51.60600000      50.65410000
C       49.36140000      43.11730000      48.34960000
C       50.79570000      43.42380000      51.49760000
C       50.76710000      56.68800000      48.43080000
C       48.38480000      49.42770000      56.87110000
C       43.26100000      51.64520000      49.21900000
C       50.59830000      56.83290000      51.77480000
C       48.33100000      50.76440000      43.35670000
C       51.65680000      50.74930000      56.71190000
C       51.56510000      49.25630000      43.33330000
C       43.29660000      48.35830000      50.73340000
C       56.94320000      48.30520000      49.27570000
C       56.64250000      51.64720000      50.73710000
C       50.79760000      43.29440000      48.26300000
C       49.35840000      43.51570000      51.61470000
C       49.33470000      56.89990000      48.46530000
C       44.58460000      50.58830000      45.73040000
C       45.88070000      44.75550000      50.49590000
C       50.60520000      45.72360000      44.54360000
C       44.96560000      49.50590000      54.07330000
C       55.08130000      49.10840000      45.98390000
C       55.33720000      50.46800000      54.17030000
C       45.96470000      55.12440000      49.15400000
C       54.03030000      55.16350000      51.00770000
C       54.30730000      44.75140000      49.17160000
C       50.77210000      54.21520000      55.30610000
C       49.47290000      54.18460000      45.01340000
C       49.12370000      46.03310000      55.14360000
C       55.02970000      50.51620000      45.95660000
C       54.21630000      44.85340000      50.60050000
C       49.22040000      45.78060000      44.73900000
C       55.24710000      49.07560000      54.05030000
C       44.45220000      49.20510000      45.73250000
C       44.87780000      50.91630000      54.02840000
C       54.12620000      55.23240000      49.61700000
C       45.88370000      55.08570000      50.56120000
C       45.96010000      44.80360000      49.10030000
C       49.38640000      54.30680000      55.40570000
C       50.90480000      54.03680000      44.96330000
C       50.51300000      45.91710000      55.22110000
C       57.93620000      46.17870000      49.60400000
C       49.46630000      58.14100000      46.28380000
C       46.19190000      49.55460000      58.14470000
C       57.27470000      53.90820000      50.32900000
C       42.52420000      53.91360000      49.51700000
C       42.18250000      46.05950000      50.92240000
C       49.76740000      42.79540000      53.84640000
C       50.37050000      42.37010000      46.08750000
C       50.03560000      57.58000000      53.99720000
C       46.15710000      50.79950000      42.01890000
C       53.92150000      50.76660000      57.88040000
C       53.80080000      49.60530000      42.53330000
C       42.71010000      46.01240000      49.77710000
C       50.52340000      57.44640000      46.16660000
C       53.96250000      49.64950000      57.29430000
C       41.78740000      53.79270000      50.54110000
C       57.81090000      53.87810000      49.18710000
C       58.39760000      46.12260000      50.77400000
C       50.89310000      42.23040000      53.74130000
C       49.32340000      41.67760000      46.23010000
C       48.85250000      58.00900000      53.94380000
C       53.64660000      50.65200000      41.83260000
C       46.07420000      50.56780000      57.39280000
C       46.07060000      49.68800000      42.59830000
