240
Lattice="100.0 0.0 0.0 0.0 100.0 0.0 0.0 0.0 100.0" Properties=species:S:1:pos:R:3 name=C-97510-5923-631 pressure=0.00447506878596167 spacegroup=C1 times_found=1 energy=-1764.80046569786 pbc="T T T"
C       48.59450000      51.78210000      56.71520000
C       51.77020000      56.71900000      48.58180000
C       57.25700000      48.48160000      51.66790000
C       51.43820000      48.28890000      57.25270000
C       48.59370000      48.31900000      42.98170000
C       51.50000000      51.81900000      42.69290000
C       48.12580000      42.82270000      48.76930000
C       51.69760000      43.30300000      51.45460000
C       48.23840000      56.97760000      51.33970000
C       42.73590000      51.22030000      51.76010000
C       57.28530000      51.52110000      48.31500000
C       43.11800000      48.55250000      48.22460000
C       48.64180000      51.82010000      42.63510000
C       51.77130000      57.00450000      51.35930000
C       57.29610000      48.69130000      48.17940000
C       51.39400000      48.34300000      43.23200000
C       48.58820000      48.28100000      57.26130000
C       51.42200000      51.79030000      56.71560000
C       48.19000000      43.10690000      51.59120000
C       51.64150000      43.05470000      48.66730000
C       48.27430000      56.69140000      48.56300000
C       42.93920000      51.35080000      48.25630000
C       57.33260000      51.30890000      51.80560000
C       42.79850000      48.40860000      51.71370000
C       54.63030000      54.61790000      52.04160000
C       54.84790000      51.58100000      54.43820000
C       51.77390000      54.99670000      54.94610000
C       44.94910000      44.87170000      51.78460000
C       54.50640000      45.44430000      47.96030000
C       45.15390000      54.83250000      48.34840000
C       45.27300000      47.89140000      54.55020000
C       54.79440000      48.48400000      45.55990000
C       45.37710000      52.04760000      45.41690000
C       48.24760000      45.35840000      55.06130000
C       51.55380000      45.26630000      45.17820000
C       48.31650000      54.62480000      44.98620000
C       54.92790000      54.92170000      48.40300000
C       54.76130000      52.10990000      45.50760000
C       51.79990000      54.65290000      45.00430000
C       45.25640000      45.04480000      48.30250000
C       54.83700000      45.12420000      51.59180000
C       45.40440000      54.55400000      51.99920000
C       45.09670000      48.39130000      45.17460000
C       54.72380000      47.94230000      54.47680000
C       45.16860000      51.54200000      54.44030000
C       47.89430000      45.48920000      45.42640000
C       51.74680000      45.40820000      55.00500000
C       48.22400000      54.97700000      54.93070000
C       43.11980000      47.03570000      51.68350000
C       47.28850000      51.86000000      43.14250000
C       51.54930000      43.34630000      47.27340000
C       56.86570000      52.67550000      51.86040000
C       43.24030000      52.74080000      48.35050000
C       56.79300000      47.33700000      48.12690000
C       52.71300000      48.38620000      43.79560000
C       47.24360000      48.22830000      56.75080000
C       52.75560000      51.73130000      56.18550000
C       48.28400000      56.19540000      47.23200000
C       51.74300000      56.78730000      52.75900000
C       48.20280000      43.67270000      52.89720000
C       43.60050000      47.21090000      48.22280000
C       47.26190000      51.71280000      56.18480000
C       51.72090000      43.80290000      52.78500000
C       56.91890000      52.89710000      48.41600000
C       43.19290000      52.58810000      51.80710000
C       56.86240000      47.11350000      51.56670000
C       52.77630000      48.24710000      56.72090000
C       47.19820000      48.40250000      43.26570000
C       52.83280000      51.84770000      43.23950000
C       48.25570000      56.76290000      52.74010000
C       51.78450000      56.22340000      47.25070000
C       48.09110000      43.26820000      47.39530000
C       46.89790000      47.26540000      44.09270000
C       47.01330000      44.16370000      47.26320000
C       44.58920000      47.05450000      47.14430000
C       52.93720000      52.95140000      44.11270000
C       47.05310000      52.83530000      55.25160000
C       52.88410000      47.12810000      55.86720000
C       52.91660000      55.31370000      47.06650000
C       47.12670000      55.91980000      53.03600000
C       52.84480000      44.72850000      52.94730000
C       56.08830000      53.17880000      47.26830000
C       44.13100000      52.68770000      52.84820000
C       56.03330000      46.84850000      52.71910000
C       47.12460000      47.09180000      55.91870000
C       47.04240000      44.56610000      53.08260000
C       43.93910000      46.76660000      52.83900000
C       52.96060000      52.86190000      55.26080000
C       47.19190000      52.93360000      44.05420000
C       52.86420000      47.28170000      44.75460000
C       52.87940000      55.95730000      53.06520000
C       47.16780000      55.26880000      47.03350000
C       52.69070000      44.16420000      46.96390000
C       55.90430000      52.74940000      52.88140000
C       44.06520000      53.04560000      47.21230000
C       55.81980000      47.28830000      47.11590000
C       49.27820000      52.93140000      56.15090000
C       52.88590000      56.17130000      49.31460000
C       56.58340000      49.09580000      52.81970000
C       50.72560000      47.12150000      56.75800000
C       49.20220000      47.20360000      43.73200000
C       50.78210000      52.97040000      43.20970000
C       46.98660000      43.41440000      49.47770000
C       52.79110000      43.86860000      50.70170000
C       47.12220000      56.23160000      50.72490000
C       43.39290000      50.46910000      52.83890000
C       56.59530000      50.92130000      47.16600000
C       43.74180000      49.30030000      47.14960000
C       49.35530000      52.96340000      43.19060000
C       52.90460000      56.27590000      50.75590000
C       56.63070000      49.48540000      47.14200000
C       50.64900000      47.24850000      43.83010000
C       49.29910000      47.11360000      56.76590000
C       50.73190000      52.93710000      56.15320000
C       47.00920000      43.55700000      50.90860000
C       52.78810000      43.77720000      49.25840000
C       47.15890000      56.12640000      49.28320000
C       43.67490000      50.74740000      47.12790000
C       56.65220000      50.53090000      52.84590000
C       43.45700000      49.03740000      52.85570000
C       45.32180000      49.54180000      44.39990000
C       48.96970000      44.56030000      45.53720000
C       44.24850000      45.14190000      49.23050000
C       54.61990000      50.99020000      44.63290000
C       45.38890000      50.48780000      55.28690000
C       54.59050000      49.06940000      55.34240000
C       50.78260000      55.57040000      45.17170000
C       49.27430000      55.91490000      54.80320000
C       50.73830000      44.47820000      54.86090000
C       55.70230000      54.71590000      49.56160000
C       44.46340000      54.45740000      50.93100000
C       55.60420000      45.31770000      50.42770000
C       45.41910000      49.03960000      55.38610000
C       49.27580000      44.44990000      54.90000000
C       44.07460000      45.02450000      50.66930000
C       54.62760000      50.51840000      55.27080000
C       45.46190000      50.97710000      44.47840000
C       54.61250000      49.54300000      44.71290000
C       50.71450000      55.92360000      54.81060000
C       49.31950000      55.55600000      45.16630000
C       50.40590000      44.48300000      45.39670000
C       55.59050000      54.54340000      50.98960000
C       44.37480000      54.60940000      49.49880000
C       55.48250000      45.49300000      49.00090000
C       51.73980000      53.67710000      44.01470000
C       53.55520000      44.59180000      51.68560000
C       44.16220000      51.45700000      53.50470000
C       48.07130000      46.52450000      44.42520000
C       51.68730000      46.40150000      55.97610000
C       48.23870000      53.66820000      55.44670000
C       46.42770000      55.56050000      51.84290000
C       53.64460000      55.45570000      48.31980000
C       46.27800000      44.11970000      48.45480000
C       55.77480000      48.03320000      53.47150000
C       44.49040000      48.30920000      46.42530000
C       55.80640000      51.99930000      46.51630000
C       51.76820000      53.68510000      55.45610000
C       53.45490000      44.46510000      48.13120000
C       44.38260000      51.87510000      46.45990000
C       48.32750000      46.37430000      56.00960000
C       51.63210000      46.53140000      44.59790000
C       48.39050000      53.65790000      43.98810000
C       46.42400000      55.39790000      48.27870000
C       53.59570000      55.61180000      51.87870000
C       46.24490000      44.32110000      51.87640000
C       55.81290000      48.53130000      46.48250000
C       44.23070000      47.97370000      53.54730000
C       55.86410000      51.50650000      53.51340000
C       56.73850000      46.22690000      50.50000000
C       46.38380000      50.65720000      56.30910000
C       50.77620000      56.41410000      46.33510000
C       43.30910000      53.56880000      50.86510000
C       56.81950000      53.78550000      49.48300000
C       43.33760000      46.25310000      49.17870000
C       53.68060000      49.22910000      56.46580000
C       46.28070000      49.45120000      43.30860000
C       53.72410000      50.85270000      43.49440000
C       49.04220000      43.40950000      46.43030000
C       50.73090000      43.60510000      53.71980000
C       49.25890000      56.85380000      53.69290000
C       56.67400000      46.33520000      49.04720000
C       46.33400000      50.90550000      43.31210000
C       50.72910000      56.86360000      53.70110000
C       43.28700000      53.64570000      49.40920000
C       56.76290000      53.67690000      50.93670000
C       43.14080000      46.13170000      50.63800000
C       53.63370000      49.40700000      43.66990000
C       46.33830000      49.21130000      56.49770000
C       53.63730000      50.67660000      56.29920000
C       49.25700000      43.56620000      53.76780000
C       50.49580000      43.39820000      46.36400000
C       49.30010000      56.40020000      46.32860000
C       42.36410000      49.15910000      49.20940000
C       49.34170000      49.28080000      42.33720000
C       49.19950000      42.32320000      49.46920000
C       57.92180000      50.75620000      49.28230000
C       42.16210000      50.57440000      50.68970000
C       57.90780000      49.23180000      50.69900000
C       50.80710000      50.73540000      42.19130000
C       49.28620000      50.83180000      57.44070000
C       50.74520000      49.39130000      57.71420000
C       50.74870000      57.42420000      49.18260000
C       49.26540000      57.54970000      50.61470000
C       50.68830000      42.57040000      50.87080000
C       42.23050000      49.12330000      50.67180000
C       49.28110000      49.38780000      57.71450000
C       49.22550000      42.47510000      50.91900000
C       57.94650000      50.68190000      50.75110000
C       42.29270000      50.60240000      49.21910000
C       57.92910000      49.30540000      49.23020000
C       50.73470000      50.83570000      57.43980000
C       49.34440000      50.73820000      42.13240000
C       50.78370000      49.28500000      42.42750000
C       50.74380000      57.56120000      50.62300000
C       49.27820000      57.41270000      49.17460000
C       50.67060000      42.43840000      49.43050000
C       52.98740000      54.44820000      45.89870000
C       55.31350000      45.71730000      52.77210000
C       45.93620000      52.81160000      54.32190000
C       46.74710000      45.26690000      46.42140000
C       52.92930000      45.60310000      54.10520000
C       47.04530000      55.30310000      54.23010000
C       45.22590000      53.53730000      53.11680000
C       55.38980000      54.32410000      47.21810000
C       45.48350000      45.91220000      47.11010000
C       53.68350000      46.83500000      54.73420000
C       45.72360000      47.20990000      44.74480000
C       53.73380000      53.22540000      45.25450000
C       52.95610000      55.33760000      54.25810000
C       54.69240000      46.47700000      46.85760000
C       46.38820000      53.18290000      45.19240000
C       47.02360000      45.50690000      54.19930000
C       52.73730000      44.82870000      45.79670000
C       47.12130000      54.40600000      45.86330000
C       44.71910000      54.21940000      47.16030000
C       54.80240000      53.59260000      53.14760000
C       44.58920000      45.59550000      52.93060000
C       53.98670000      47.24540000      45.67580000
C       46.29720000      46.77010000      54.81560000
C       54.08130000      52.85140000      54.33420000
