240
Lattice="100.0 0.0 0.0 0.0 100.0 0.0 0.0 0.0 100.0" Properties=species:S:1:pos:R:3 name=C-97510-5923-996 pressure=-22.0704232734595 spacegroup=Cs times_found=1 energy=-1772.10745315778 pbc="T T T"
C       58.17420000      49.28940000      50.73390000
C       50.73050000      58.15980000      49.30390000
C       49.45760000      50.73390000      58.24350000
C       58.17130000      50.70970000      49.26110000
C       41.81320000      50.71070000      50.70580000
C       41.82060000      49.29020000      49.23300000
C       50.72750000      41.84620000      50.72480000
C       49.25670000      41.84200000      49.30270000
C       49.25580000      58.15170000      50.72250000
C       49.29800000      49.26310000      41.83060000
C       50.87060000      49.26480000      58.20910000
C       50.71840000      50.73630000      41.83330000
C       41.81310000      49.29030000      50.70580000
C       49.25760000      58.15800000      49.30220000
C       50.87070000      50.73570000      58.20900000
C       41.82070000      50.71070000      49.23290000
C       58.17430000      50.70980000      50.73390000
C       58.17130000      49.28930000      49.26110000
C       49.25480000      41.84850000      50.72310000
C       50.72960000      41.84010000      49.30450000
C       50.72840000      58.15380000      50.72420000
C       50.71830000      49.26300000      41.83330000
C       49.45750000      49.26670000      58.24360000
C       49.29810000      50.73640000      41.83050000
C       52.62200000      56.48960000      49.28150000
C       49.25390000      52.55250000      56.49910000
C       56.50680000      49.27260000      52.62630000
C       52.61880000      43.51590000      50.73650000
C       47.36930000      43.51580000      49.27540000
C       47.36820000      56.47790000      50.72940000
C       49.27790000      47.36770000      43.49750000
C       50.72950000      47.40030000      56.49840000
C       50.73230000      52.63190000      43.50000000
C       56.49690000      50.72690000      47.37370000
C       43.46490000      50.72570000      52.61130000
C       43.49880000      49.27290000      47.34970000
C       47.37010000      56.48450000      49.27500000
C       50.72980000      52.60010000      56.49820000
C       43.46480000      49.27520000      52.61130000
C       47.36750000      43.52240000      50.72980000
C       52.62130000      43.51010000      49.28200000
C       52.61960000      56.48390000      50.73600000
C       50.73200000      47.36750000      43.50020000
C       49.25360000      47.44800000      56.49930000
C       49.27820000      52.63190000      43.49730000
C       43.49890000      50.72760000      47.34970000
C       56.50690000      50.72690000      52.62620000
C       56.49680000      49.27220000      47.37370000
C       54.68250000      46.11340000      52.67600000
C       52.67250000      54.68660000      46.10740000
C       46.05140000      52.68480000      54.68360000
C       54.68470000      53.89460000      47.33160000
C       45.29100000      53.88600000      52.66260000
C       45.31200000      46.10710000      47.31570000
C       52.65890000      45.34130000      53.89760000
C       47.32830000      45.31460000      46.09850000
C       47.31220000      54.65550000      53.89800000
C       46.10670000      47.32710000      45.30100000
C       53.90330000      47.33830000      54.69420000
C       53.89640000      52.67300000      45.31550000
C       45.29060000      46.11470000      52.66290000
C       47.32880000      54.68540000      46.09820000
C       53.90360000      52.66160000      54.69400000
C       45.31250000      53.89330000      47.31540000
C       54.68290000      53.88620000      52.67570000
C       54.68430000      46.10470000      47.33190000
C       47.31170000      45.34510000      53.89830000
C       52.67190000      45.31280000      46.10770000
C       52.65950000      54.65870000      53.89720000
C       53.89610000      47.32620000      45.31570000
C       46.05110000      47.31590000      54.68380000
C       46.10700000      52.67300000      45.30080000
C       52.77240000      51.44850000      57.21040000
C       57.20160000      52.70650000      51.42160000
C       51.40260000      57.16990000      52.71550000
C       52.71220000      48.57540000      42.80300000
C       47.53890000      49.26020000      57.17490000
C       47.30060000      51.42400000      42.79270000
C       57.19680000      47.29360000      48.58230000
C       42.78120000      47.29420000      51.39790000
C       42.79420000      52.70740000      48.55430000
C       51.41560000      42.80520000      47.30520000
C       48.56770000      42.84180000      52.71390000
C       48.57850000      57.19250000      47.30050000
C       47.53900000      50.74060000      57.17480000
C       42.78150000      52.70670000      51.39770000
C       48.56850000      57.15850000      52.71340000
C       47.30040000      48.57580000      42.79280000
C       52.77220000      48.55170000      57.21050000
C       52.71240000      51.42380000      42.80290000
C       42.79390000      47.29340000      48.55450000
C       57.20130000      47.29270000      51.42180000
C       57.19710000      52.70550000      48.58210000
C       48.57770000      42.80740000      47.30100000
C       51.40180000      42.83020000      52.71600000
C       51.41650000      57.19440000      47.30460000
C       53.45850000      55.57800000      51.47860000
C       51.46180000      53.43660000      55.58870000
C       55.60460000      51.47150000      53.46880000
C       53.46220000      44.41200000      48.53450000
C       46.52670000      44.42900000      51.47070000
C       46.53240000      55.58290000      48.52390000
C       51.47540000      46.52820000      44.40640000
C       48.50160000      46.59160000      55.60100000
C       48.53130000      53.47100000      44.40070000
C       55.59100000      48.52710000      46.53570000
C       44.36000000      48.53370000      53.46830000
C       44.40720000      51.47240000      46.51430000
C       46.52730000      55.57150000      51.47030000
C       48.50200000      53.40890000      55.60070000
C       44.36020000      51.46720000      53.46820000
C       46.53180000      44.41740000      48.52430000
C       53.45790000      44.42170000      51.47900000
C       53.46280000      55.58750000      48.53410000
C       48.53090000      46.52870000      44.40090000
C       51.46140000      46.56360000      55.58900000
C       51.47580000      53.47120000      44.40610000
C       44.40700000      48.52790000      46.51440000
C       55.60440000      48.52810000      53.46890000
C       55.59120000      51.47200000      46.53560000
C       48.58260000      44.72210000      54.16020000
C       54.14960000      48.59490000      44.67960000
C       44.67350000      54.14440000      48.58260000
C       48.59680000      55.32300000      45.84830000
C       51.38440000      55.28360000      54.14760000
C       51.40430000      44.67580000      45.85350000
C       54.18270000      51.40210000      55.33820000
C       45.85520000      51.40470000      44.66340000
C       45.75820000      48.55460000      55.35380000
C       44.66240000      45.85950000      51.39070000
C       55.31960000      45.85260000      48.60080000
C       55.31970000      54.14330000      51.40860000
C       51.38380000      44.71650000      54.14790000
C       45.85510000      48.59540000      44.66350000
C       55.32010000      54.14670000      48.60050000
C       51.40490000      55.32370000      45.85320000
C       48.58320000      55.27840000      54.15980000
C       48.59620000      44.67690000      45.84870000
C       45.75840000      51.44620000      55.35370000
C       54.14980000      51.40430000      44.67950000
C       54.18260000      48.59780000      55.33830000
C       55.31930000      45.85620000      51.40890000
C       44.67310000      45.85610000      48.58290000
C       44.66280000      54.14120000      51.39040000
C       55.08730000      49.30310000      54.52860000
C       54.51530000      55.05510000      49.30940000
C       49.28330000      54.46540000      55.07190000
C       55.05900000      50.69620000      45.48350000
C       44.85980000      50.70100000      54.53860000
C       44.94250000      49.30350000      45.46360000
C       54.51340000      44.94750000      50.70280000
C       45.47730000      44.95030000      49.29580000
C       45.47480000      55.04670000      50.68840000
C       49.30550000      45.47670000      44.93620000
C       50.67700000      45.52510000      55.05600000
C       50.69910000      54.52320000      44.93840000
C       44.85970000      49.29990000      54.53870000
C       45.47790000      55.05010000      49.29550000
C       50.67750000      54.47520000      55.05570000
C       44.94260000      50.69670000      45.46360000
C       55.08740000      50.69660000      54.52850000
C       55.05890000      49.30290000      45.48350000
C       45.47420000      44.95390000      50.68870000
C       54.51470000      44.94440000      49.30980000
C       54.51400000      55.05200000      50.70240000
C       50.69860000      45.47630000      44.93870000
C       49.28280000      45.53510000      55.07230000
C       49.30600000      54.52300000      44.93590000
C       46.45340000      54.83980000      47.20540000
C       47.17880000      46.47410000      54.83770000
C       54.84290000      47.21150000      46.45610000
C       46.43780000      45.17830000      52.78510000
C       53.54440000      45.15740000      47.21730000
C       53.53750000      54.82620000      52.79220000
C       47.21480000      53.54830000      45.14710000
C       52.78320000      53.52220000      54.84770000
C       52.78920000      46.45050000      45.15760000
C       54.84730000      52.78090000      53.54950000
C       45.15610000      52.78760000      46.43790000
C       45.11780000      47.21550000      53.54330000
C       53.54490000      54.84200000      47.21700000
C       52.78280000      46.47780000      54.84790000
C       45.15580000      47.21270000      46.43810000
C       53.53690000      45.17360000      52.79260000
C       46.45280000      45.16040000      47.20580000
C       46.43840000      54.82230000      52.78480000
C       52.78960000      53.54890000      45.15730000
C       47.17920000      53.52650000      54.83740000
C       47.21440000      46.45160000      45.14740000
C       45.11810000      52.78530000      53.54310000
C       54.84320000      52.78770000      46.45590000
C       54.84690000      47.21880000      53.54970000
C       42.60880000      51.40920000      51.63950000
C       51.65370000      42.65260000      51.42100000
C       51.41440000      51.66780000      42.63420000
C       42.62670000      48.59140000      48.30840000
C       57.37300000      48.59090000      51.66290000
C       57.36630000      51.40830000      48.33520000
C       51.65940000      57.36000000      48.60290000
C       48.33020000      57.34230000      51.41660000
C       48.33160000      42.64330000      48.59910000
C       51.47180000      48.31340000      57.36460000
C       48.59900000      48.33180000      42.62910000
C       48.68020000      51.50170000      57.36140000
C       57.37320000      51.40830000      51.66280000
C       48.32940000      42.65800000      51.41720000
C       48.59920000      51.66780000      42.62900000
C       57.36620000      48.59080000      48.33530000
C       42.60870000      48.59180000      51.63960000
C       42.62690000      51.40930000      48.30830000
C       48.33250000      57.35670000      48.59860000
C       51.65460000      57.34730000      51.42050000
C       51.65860000      42.63970000      48.60340000
C       48.68000000      48.49890000      57.36150000
C       51.41420000      48.33150000      42.63430000
C       51.47200000      51.68690000      57.36450000
C       46.49350000      49.26100000      43.60400000
C       43.60740000      46.49030000      49.24230000
C       49.25970000      43.61830000      46.49140000
C       46.36940000      50.73660000      56.35310000
C       53.51580000      50.73850000      43.61760000
C       53.57200000      49.26250000      56.41350000
C       43.60170000      53.51060000      50.71970000
C       56.38200000      53.51070000      49.26470000
C       56.38250000      46.48850000      50.74280000
C       49.24510000      56.34050000      53.52050000
C       50.73840000      56.38210000      46.49320000
C       50.72180000      43.65210000      53.51640000
C       53.51570000      49.26060000      43.61760000
C       56.38160000      46.48850000      49.26500000
C       50.73770000      43.61760000      46.49360000
C       53.57210000      50.73760000      56.41340000
C       46.49350000      50.73890000      43.60390000
C       46.36930000      49.26420000      56.35310000
C       56.38290000      53.51090000      50.74260000
C       43.60780000      53.51040000      49.24200000
C       43.60130000      46.49020000      50.71990000
C       50.72250000      56.34810000      53.51600000
C       49.26050000      56.38150000      46.49100000
C       49.24440000      43.65980000      53.52100000
