240
Lattice="100.0 0.0 0.0 0.0 100.0 0.0 0.0 0.0 100.0" Properties=species:S:1:pos:R:3 name=C-97510-5923-29 pressure=-0.534573626653431 spacegroup=Td times_found=1 energy=-1746.56786763911 pbc="T T T"
C       53.89150000      50.07720000      45.13180000
C       50.07710000      45.13180000      53.89150000
C       45.13210000      53.89180000      50.07740000
C       53.89160000      49.92240000      54.86810000
C       46.10850000      50.07750000      54.86820000
C       46.10830000      49.92290000      45.13190000
C       50.07750000      54.86820000      46.10850000
C       49.92240000      45.13190000      46.10840000
C       49.92300000      54.86810000      53.89160000
C       45.13170000      46.10870000      49.92270000
C       54.86830000      53.89130000      49.92260000
C       54.86790000      46.10820000      50.07720000
C       53.89130000      45.13170000      50.07720000
C       50.07750000      53.89160000      45.13190000
C       45.13190000      50.07760000      53.89170000
C       53.89180000      54.86790000      49.92270000
C       46.10870000      54.86830000      50.07740000
C       46.10820000      45.13210000      49.92270000
C       50.07720000      46.10840000      54.86810000
C       49.92240000      46.10850000      45.13180000
C       49.92290000      53.89150000      54.86820000
C       45.13180000      49.92300000      46.10850000
C       54.86820000      49.92240000      53.89150000
C       54.86810000      50.07710000      46.10830000
C       52.88450000      48.99010000      45.27400000
C       48.99000000      45.27410000      52.88460000
C       45.27420000      52.88490000      48.99030000
C       52.88470000      51.00960000      54.72590000
C       47.11540000      48.99030000      54.72590000
C       47.11540000      51.01000000      45.27410000
C       48.99040000      54.72600000      47.11550000
C       51.00950000      45.27410000      47.11530000
C       51.01010000      54.72580000      52.88460000
C       45.27390000      47.11560000      51.00980000
C       54.72610000      52.88430000      51.00970000
C       54.72570000      47.11520000      48.99010000
C       52.88430000      45.27390000      48.99010000
C       48.99030000      52.88470000      45.27410000
C       45.27410000      48.99040000      52.88470000
C       52.88490000      54.72580000      51.00980000
C       47.11560000      54.72610000      48.99030000
C       47.11520000      45.27420000      51.00980000
C       48.99010000      47.11540000      54.72590000
C       51.00960000      47.11540000      45.27400000
C       51.01000000      52.88450000      54.72590000
C       45.27410000      51.01010000      47.11550000
C       54.72600000      51.00950000      52.88450000
C       54.72580000      48.99000000      47.11530000
C       52.24260000      54.70990000      44.29050000
C       54.70970000      44.29030000      52.24230000
C       44.29070000      52.24260000      54.71000000
C       52.24220000      45.28990000      55.70940000
C       47.75790000      54.71000000      55.70950000
C       47.75730000      45.29020000      44.29050000
C       54.71020000      55.70920000      47.75760000
C       45.28970000      44.29080000      47.75760000
C       45.29040000      55.70970000      52.24250000
C       44.29030000      47.75800000      45.29010000
C       55.70950000      52.24210000      45.29000000
C       55.70940000      47.75730000      54.70980000
C       52.24210000      44.29040000      54.70990000
C       54.71000000      52.24220000      44.29050000
C       44.29080000      54.71020000      52.24250000
C       52.24260000      55.70940000      45.29010000
C       47.75800000      55.70960000      54.71000000
C       47.75720000      44.29070000      45.29000000
C       54.70990000      47.75730000      55.70940000
C       45.28990000      47.75790000      44.29060000
C       45.29030000      52.24260000      55.70960000
C       44.29020000      45.29040000      47.75770000
C       55.70930000      45.28970000      52.24230000
C       55.70970000      54.70960000      47.75760000
C       47.48020000      48.51320000      43.67250000
C       48.51270000      43.67260000      47.48030000
C       43.67230000      47.48070000      48.51310000
C       47.48050000      51.48700000      56.32750000
C       52.51970000      48.51280000      56.32750000
C       52.51970000      51.48690000      43.67250000
C       48.51340000      56.32760000      52.51980000
C       51.48670000      43.67240000      52.51960000
C       51.48730000      56.32740000      47.48040000
C       43.67270000      52.52000000      51.48710000
C       56.32740000      47.48000000      51.48690000
C       56.32760000      52.51940000      48.51300000
C       47.48000000      43.67260000      48.51300000
C       48.51280000      47.48050000      43.67250000
C       43.67240000      48.51340000      47.48040000
C       47.48070000      56.32760000      51.48710000
C       52.52000000      56.32740000      48.51310000
C       52.51940000      43.67240000      51.48690000
C       48.51330000      52.51970000      56.32750000
C       51.48700000      52.51970000      43.67250000
C       51.48690000      47.48020000      56.32750000
C       43.67260000      51.48730000      52.51980000
C       56.32750000      51.48660000      47.48020000
C       56.32750000      48.51270000      52.51960000
C       54.45430000      52.41240000      53.42920000
C       52.41290000      53.42910000      54.45410000
C       53.42950000      54.45390000      52.41270000
C       54.45390000      47.58710000      46.57070000
C       45.54600000      52.41300000      46.57080000
C       45.54580000      47.58750000      53.42930000
C       52.41250000      46.57070000      45.54580000
C       47.58740000      53.42940000      45.54600000
C       47.58720000      46.57080000      54.45410000
C       53.42900000      45.54570000      47.58720000
C       46.57100000      54.45430000      47.58740000
C       46.57060000      45.54610000      52.41270000
C       54.45430000      53.42900000      52.41270000
C       52.41300000      54.45390000      53.42920000
C       53.42940000      52.41250000      54.45410000
C       54.45390000      46.57050000      47.58720000
C       45.54580000      46.57100000      52.41270000
C       45.54610000      53.42950000      47.58740000
C       52.41240000      45.54580000      46.57070000
C       47.58710000      45.54600000      53.42920000
C       47.58750000      54.45420000      46.57080000
C       53.42910000      47.58720000      45.54580000
C       46.57070000      47.58740000      54.45410000
C       46.57080000      52.41290000      45.54600000
C       44.36250000      51.74680000      49.22690000
C       51.74640000      49.22680000      44.36230000
C       49.22650000      44.36240000      51.74650000
C       44.36230000      48.25380000      50.77320000
C       55.63770000      51.74620000      50.77310000
C       55.63750000      48.25320000      49.22670000
C       51.74660000      50.77300000      55.63760000
C       48.25350000      49.22690000      55.63760000
C       48.25340000      50.77330000      44.36240000
C       49.22710000      55.63770000      48.25350000
C       50.77290000      44.36230000      48.25340000
C       50.77350000      55.63760000      51.74660000
C       44.36240000      49.22710000      51.74660000
C       51.74620000      44.36230000      49.22670000
C       49.22680000      51.74660000      44.36240000
C       44.36240000      50.77350000      48.25360000
C       55.63770000      50.77290000      51.74650000
C       55.63760000      49.22650000      48.25340000
C       51.74680000      55.63750000      50.77320000
C       48.25380000      55.63770000      49.22690000
C       48.25320000      44.36250000      50.77320000
C       49.22680000      48.25350000      55.63760000
C       50.77300000      48.25350000      44.36230000
C       50.77340000      51.74640000      55.63760000
C       49.52500000      56.22530000      51.50520000
C       56.22530000      51.50480000      49.52460000
C       51.50520000      49.52450000      56.22520000
C       49.52430000      43.77480000      48.49480000
C       50.47570000      56.22520000      48.49490000
C       50.47510000      43.77470000      51.50510000
C       56.22520000      48.49450000      50.47530000
C       43.77480000      51.50550000      50.47550000
C       43.77470000      48.49520000      49.52470000
C       51.50510000      50.47530000      43.77470000
C       48.49470000      49.52480000      43.77480000
C       48.49490000      50.47540000      56.22530000
C       49.52480000      51.50510000      56.22530000
C       56.22520000      49.52430000      51.50510000
C       51.50550000      56.22520000      49.52470000
C       49.52450000      48.49490000      43.77470000
C       50.47540000      48.49480000      56.22520000
C       50.47540000      51.50520000      43.77480000
C       56.22530000      50.47500000      48.49470000
C       43.77480000      50.47570000      51.50530000
C       43.77470000      49.52500000      48.49490000
C       51.50480000      43.77470000      50.47530000
C       48.49450000      43.77480000      49.52460000
C       48.49520000      56.22530000      50.47540000
C       46.29650000      54.67810000      55.74120000
C       54.67820000      55.74090000      46.29620000
C       55.74100000      46.29580000      54.67780000
C       46.29590000      45.32230000      44.25890000
C       53.70400000      54.67780000      44.25890000
C       53.70360000      45.32180000      55.74100000
C       54.67770000      44.25860000      53.70370000
C       45.32240000      55.74130000      53.70390000
C       45.32170000      44.25920000      46.29620000
C       55.74130000      53.70350000      45.32200000
C       44.25860000      46.29650000      45.32210000
C       44.25910000      53.70410000      54.67800000
C       46.29660000      55.74130000      54.67800000
C       54.67780000      46.29590000      55.74100000
C       55.74130000      54.67760000      46.29610000
C       46.29580000      44.25910000      45.32210000
C       53.70360000      44.25860000      54.67780000
C       53.70410000      55.74100000      45.32210000
C       54.67800000      53.70360000      44.25890000
C       45.32240000      53.70400000      55.74120000
C       45.32180000      46.29650000      44.25890000
C       55.74090000      45.32170000      53.70370000
C       44.25860000      45.32240000      46.29620000
C       44.25920000      54.67820000      53.70390000
C       46.24250000      51.23400000      55.75220000
C       51.23410000      55.75210000      46.24240000
C       55.75190000      46.24200000      51.23370000
C       46.24220000      48.76640000      44.24790000
C       53.75770000      51.23370000      44.24780000
C       53.75770000      48.76590000      55.75210000
C       51.23360000      44.24780000      53.75760000
C       48.76650000      55.75220000      53.75770000
C       48.76580000      44.24800000      46.24230000
C       55.75230000      53.75740000      48.76610000
C       44.24770000      46.24260000      48.76620000
C       44.24810000      53.75800000      51.23400000
C       46.24260000      55.75230000      51.23390000
C       51.23370000      46.24220000      55.75210000
C       55.75210000      51.23360000      46.24230000
C       46.24200000      44.24810000      48.76620000
C       53.75740000      44.24770000      51.23370000
C       53.75800000      55.75190000      48.76620000
C       51.23400000      53.75770000      44.24790000
C       48.76640000      53.75770000      55.75220000
C       48.76590000      46.24240000      44.24790000
C       55.75210000      48.76580000      53.75760000
C       44.24780000      48.76650000      46.24240000
C       44.24800000      51.23410000      53.75780000
C       48.76370000      53.26350000      47.73640000
C       53.26320000      47.73620000      48.76350000
C       47.73630000      48.76360000      53.26340000
C       48.76340000      46.73670000      52.26360000
C       51.23670000      53.26330000      52.26370000
C       51.23630000      46.73660000      47.73630000
C       53.26350000      52.26350000      51.23640000
C       46.73650000      47.73650000      51.23650000
C       46.73670000      52.26380000      48.76360000
C       47.73640000      51.23660000      46.73670000
C       52.26350000      48.76340000      46.73660000
C       52.26380000      51.23630000      53.26340000
C       48.76340000      47.73640000      53.26340000
C       53.26330000      48.76340000      47.73630000
C       47.73650000      53.26350000      48.76360000
C       48.76360000      52.26370000      46.73670000
C       51.23660000      52.26350000      53.26340000
C       51.23630000      47.73630000      46.73660000
C       53.26350000      51.23630000      52.26360000
C       46.73670000      51.23670000      47.73640000
C       46.73660000      48.76370000      52.26370000
C       47.73620000      46.73670000      51.23650000
C       52.26350000      46.73650000      48.76350000
C       52.26380000      53.26320000      51.23650000
