240
Lattice="100.0 0.0 0.0 0.0 100.0 0.0 0.0 0.0 100.0" Properties=species:S:1:pos:R:3 name=C-97510-5923-872 pressure=19.8510441659616 energy=-1743.86021051502 spacegroup=C1 times_found=1 pbc="T T T"
C       53.59010000      45.17780000      52.88460000
C       52.43850000      54.15830000      45.18070000
C       45.33520000      52.99120000      53.42630000
C       45.83370000      54.08520000      52.55610000
C       46.33810000      46.33760000      47.71830000
C       53.78750000      53.82620000      47.52570000
C       47.84850000      46.28390000      45.66750000
C       47.48670000      54.23560000      54.65650000
C       52.71180000      45.68010000      53.96080000
C       54.81060000      47.34110000      54.19410000
C       54.31400000      52.79080000      46.64970000
C       45.82110000      47.40190000      46.85090000
C       54.06510000      45.49110000      47.69530000
C       52.64270000      53.94760000      54.00190000
C       45.46950000      52.76820000      46.58110000
C       45.86710000      53.94820000      47.37610000
C       46.32770000      45.72970000      52.88350000
C       53.46300000      54.37660000      52.85980000
C       46.45500000      46.79030000      53.93740000
C       47.45290000      53.97820000      45.31530000
C       52.81250000      46.75100000      45.63800000
C       53.80220000      47.63250000      46.25220000
C       54.84390000      52.39790000      54.13460000
C       45.39540000      47.74950000      54.02850000
C       52.99600000      55.68610000      52.43400000
C       52.57540000      53.09900000      55.28390000
C       56.01790000      52.27850000      53.38830000
C       47.02820000      44.38160000      52.58960000
C       46.73660000      55.22060000      47.47920000
C       53.40380000      44.26710000      47.69800000
C       47.42890000      47.09990000      54.99710000
C       47.53750000      53.22040000      44.15390000
C       52.51960000      47.22100000      44.29310000
C       44.10960000      47.83700000      53.39070000
C       44.11770000      52.38330000      46.95840000
C       55.11590000      47.68240000      47.06200000
C       53.04380000      55.16930000      47.56490000
C       52.32800000      53.43550000      43.98750000
C       55.62640000      52.40910000      47.14730000
C       47.12050000      45.01550000      47.76310000
C       46.73250000      55.37400000      52.39710000
C       53.21500000      43.81610000      52.50780000
C       47.85850000      46.92850000      44.44070000
C       47.65610000      53.42530000      55.78230000
C       52.51150000      46.70060000      55.11320000
C       44.45020000      47.65490000      47.24040000
C       43.98280000      52.63100000      53.01300000
C       55.97120000      47.42510000      53.42110000
C       54.72910000      48.49570000      55.01710000
C       54.50340000      53.82820000      48.85660000
C       48.65710000      55.02970000      54.47930000
C       45.62660000      51.81900000      54.51890000
C       46.07190000      48.58440000      45.77570000
C       54.05800000      51.73540000      45.49720000
C       45.50960000      46.22660000      48.96850000
C       44.98440000      54.17560000      51.32750000
C       54.64570000      45.51960000      51.71940000
C       51.49050000      44.81140000      54.09310000
C       51.28210000      54.97160000      45.31100000
C       48.99850000      45.46620000      45.78200000
C       53.84510000      48.93990000      45.50680000
C       54.53860000      54.03740000      51.70220000
C       48.54760000      54.87900000      45.36240000
C       45.88730000      51.50690000      45.62830000
C       45.51900000      48.98360000      54.78040000
C       54.73100000      51.25670000      54.97300000
C       45.35640000      45.92020000      51.73390000
C       44.96670000      54.11570000      48.56120000
C       54.82040000      45.59090000      48.89420000
C       51.76760000      45.61150000      45.83150000
C       51.41320000      54.80750000      54.14410000
C       48.83750000      44.05180000      54.45540000
C       51.87510000      42.27820000      51.37130000
C       51.38040000      51.84920000      42.59790000
C       42.36160000      51.53240000      51.72810000
C       48.20910000      56.94710000      51.31470000
C       48.42960000      43.21150000      48.57960000
C       51.67940000      56.90480000      48.44400000
C       48.62940000      48.34830000      42.82410000
C       48.66930000      51.77150000      57.03300000
C       51.45750000      48.22000000      56.64000000
C       57.30590000      48.38470000      51.81660000
C       57.23080000      51.32800000      48.39700000
C       42.65420000      48.52840000      48.40430000
C       51.85940000      42.75980000      48.51540000
C       51.58860000      51.65560000      56.88780000
C       42.44140000      51.37230000      48.23920000
C       48.19890000      56.82890000      48.44480000
C       48.32610000      42.75790000      51.40070000
C       51.68690000      57.23840000      51.31740000
C       48.57520000      48.37980000      56.61920000
C       48.48710000      51.72070000      42.72100000
C       51.50590000      48.44760000      42.63360000
C       56.92090000      48.48480000      48.37580000
C       57.37800000      51.29040000      51.80420000
C       42.56640000      48.67160000      51.86030000
C       51.26460000      54.04680000      43.21320000
C       43.37240000      51.63510000      53.80050000
C       53.95650000      43.26410000      51.44010000
C       48.87460000      46.23280000      43.66090000
C       48.80970000      53.97200000      56.47920000
C       51.33600000      46.18860000      55.76980000
C       56.78510000      48.46380000      54.03680000
C       56.23490000      51.41530000      46.34840000
C       43.81520000      48.59890000      46.41190000
C       46.11090000      56.11320000      51.32060000
C       46.40780000      44.19590000      48.70960000
C       53.69520000      55.91020000      48.62470000
C       51.58740000      53.75910000      56.11860000
C       43.62780000      51.26620000      46.25050000
C       54.03800000      43.46750000      48.72660000
C       48.51370000      46.31730000      55.54750000
C       48.49250000      53.92070000      43.30450000
C       51.60140000      46.38940000      43.61290000
C       55.89540000      48.68830000      46.37780000
C       56.80800000      51.23700000      54.01910000
C       43.39620000      48.92130000      53.99730000
C       46.10600000      56.03230000      48.49670000
C       46.32440000      43.83670000      51.46730000
C       53.73160000      56.23010000      51.35840000
C       47.00130000      49.25890000      44.82540000
C       44.52720000      47.04110000      49.59900000
C       49.59140000      44.81380000      46.87810000
C       53.07230000      51.13530000      44.55620000
C       53.54850000      49.12760000      55.47820000
C       46.69630000      51.15370000      55.31280000
C       55.41010000      52.94430000      49.53030000
C       55.43510000      46.62100000      51.09650000
C       44.06210000      53.27470000      50.70620000
C       50.67800000      55.48980000      46.49170000
C       50.96670000      43.78350000      53.28040000
C       49.18460000      55.62270000      53.30990000
C       46.66740000      49.57900000      55.30000000
C       44.46610000      46.93390000      51.11460000
C       49.50030000      43.59720000      53.39430000
C       53.54990000      50.65560000      55.49200000
C       52.99670000      49.59730000      44.55930000
C       46.90870000      50.85550000      44.75940000
C       55.43690000      53.02190000      51.08440000
C       55.38690000      46.70310000      49.53550000
C       44.06030000      53.23260000      49.20710000
C       50.70460000      55.64070000      53.20980000
C       51.12420000      44.74610000      46.85660000
C       49.16690000      55.45370000      46.50200000
C       47.56740000      52.00610000      56.05700000
C       56.23890000      47.37940000      51.99940000
C       51.71530000      55.82910000      47.43590000
C       52.57830000      48.09650000      55.70600000
C       52.37890000      52.02490000      43.68900000
C       47.71770000      48.30910000      44.00440000
C       43.38370000      52.58020000      51.71000000
C       43.80630000      47.63480000      48.53070000
C       56.15890000      52.33290000      48.48380000
C       48.48530000      44.37830000      47.69310000
C       48.12250000      55.96300000      52.41560000
C       51.94040000      43.18700000      52.49770000
C       47.54580000      51.79440000      43.86910000
C       55.76750000      47.57950000      48.43080000
C       51.68850000      56.26890000      52.41840000
C       52.44350000      48.55260000      43.76550000
C       52.62550000      51.70890000      55.84010000
C       47.50850000      48.46050000      55.65120000
C       43.43700000      52.44360000      48.22430000
C       43.67720000      47.69570000      52.02070000
C       56.29790000      52.30730000      51.97150000
C       48.31260000      43.58540000      52.60050000
C       48.12240000      55.79060000      47.41970000
C       52.01230000      43.90520000      47.58490000
C       50.57260000      54.93300000      44.05780000
C       44.37620000      51.09130000      54.60680000
C       54.73050000      44.30710000      50.92870000
C       49.66010000      45.44070000      44.52760000
C       49.48030000      54.86340000      55.63020000
C       50.64430000      45.21950000      55.11460000
C       55.99040000      49.16730000      54.96210000
C       55.23890000      50.90710000      45.51900000
C       44.81740000      49.26320000      45.69430000
C       45.18400000      55.35570000      50.62230000
C       45.55720000      44.94910000      49.51060000
C       54.45930000      55.07890000      49.44910000
C       50.85580000      54.71140000      55.41940000
C       44.72620000      50.66820000      45.61760000
C       54.81640000      44.32470000      49.53260000
C       49.21450000      45.14200000      55.14220000
C       49.17920000      54.87350000      44.08340000
C       51.05930000      45.53060000      44.57030000
C       55.10850000      49.50840000      45.56240000
C       55.98800000      50.56180000      54.94250000
C       44.31400000      49.69990000      54.73830000
C       45.17020000      55.32380000      49.22260000
C       45.47620000      44.78000000      50.89440000
C       54.50610000      55.19770000      50.84660000
C       49.42390000      47.11280000      42.74590000
C       42.75100000      49.19380000      47.10660000
C       47.16910000      43.17610000      49.26660000
C       50.60510000      53.07020000      42.45770000
C       50.63980000      47.06550000      56.57250000
C       49.49110000      52.96740000      57.14910000
C       57.11520000      50.63920000      47.12290000
C       57.52710000      49.11820000      53.05480000
C       42.44690000      50.89020000      53.02280000
C       52.91260000      56.92500000      49.17800000
C       53.13180000      42.39720000      50.66320000
C       46.97420000      56.94860000      50.59890000
C       49.23130000      47.12840000      56.45590000
C       42.49700000      49.47310000      53.08260000
C       47.11560000      42.97350000      50.67500000
C       50.92550000      52.90940000      57.01140000
C       50.86110000      47.14930000      42.68180000
C       49.16340000      52.99920000      42.51490000
C       57.55010000      50.55910000      53.05020000
C       56.93410000      49.21890000      47.13530000
C       42.65030000      50.59690000      47.02130000
C       52.93480000      57.10270000      50.59380000
C       53.11240000      42.57020000      49.25050000
C       46.97030000      56.90230000      49.16620000
C       57.84450000      50.56720000      49.34540000
C       49.22290000      57.53560000      50.58390000
C       50.80650000      49.22510000      57.30480000
C       41.94620000      49.21570000      49.35690000
C       41.83180000      50.75520000      50.72080000
C       57.81430000      49.06990000      50.74900000
C       50.76930000      41.96130000      50.61470000
C       50.64950000      57.55660000      49.08460000
C       49.36900000      42.41220000      49.17970000
C       49.36600000      50.68560000      57.48770000
C       49.24790000      49.33090000      42.09820000
C       50.69350000      50.80180000      42.03270000
C       57.89900000      50.56010000      50.76170000
C       49.22510000      57.44870000      49.10490000
C       50.73960000      49.38900000      42.01070000
C       41.94690000      49.27650000      50.79190000
C       41.84710000      50.69210000      49.28310000
C       57.70490000      49.08380000      49.33330000
C       50.78190000      42.18710000      49.14610000
C       50.64470000      57.69990000      50.56510000
C       49.34790000      42.19660000      50.63910000
C       49.20120000      50.74270000      42.09070000
C       49.32420000      49.27420000      57.33810000
C       50.85580000      50.63800000      57.44080000
