240
Lattice="100.0 0.0 0.0 0.0 100.0 0.0 0.0 0.0 100.0" Properties=species:S:1:pos:R:3 name=C-97510-5923-1346 pressure=-0.0148205633004466 spacegroup=C1 times_found=1 energy=-1764.68085252534 pbc="T T T"
C       52.85080000      48.31360000      56.72170000
C       56.13160000      52.59300000      48.39030000
C       48.00620000      56.85600000      52.67980000
C       47.19750000      48.33070000      43.70810000
C       52.83620000      51.46840000      43.21630000
C       47.13610000      51.70110000      56.73180000
C       43.47020000      52.94350000      51.84090000
C       56.48760000      47.15240000      51.80440000
C       43.40800000      47.46460000      48.34790000
C       51.77000000      56.61580000      47.30760000
C       48.37580000      43.29990000      47.16070000
C       52.01250000      43.18380000      52.62030000
C       52.65380000      51.79090000      56.33160000
C       56.76940000      47.09700000      48.30310000
C       48.55490000      43.31000000      52.69040000
C       47.28850000      51.80940000      43.32580000
C       52.68010000      48.00710000      43.18070000
C       47.34610000      48.24540000      56.26210000
C       43.42560000      47.41040000      51.75710000
C       56.58770000      52.67520000      51.86950000
C       43.13580000      53.02130000      48.35180000
C       51.86290000      43.47730000      47.09980000
C       48.27730000      56.35800000      47.18420000
C       51.46560000      56.83360000      52.85260000
C       49.12830000      57.81380000      50.62120000
C       50.72670000      49.27290000      57.52720000
C       57.46830000      50.65790000      49.32450000
C       50.65180000      57.75180000      49.24610000
C       49.40890000      42.34490000      49.16570000
C       50.91110000      42.20470000      50.56610000
C       49.17100000      49.19370000      42.32590000
C       50.69760000      50.59900000      42.21770000
C       49.25710000      50.73100000      57.53470000
C       42.29170000      50.93050000      50.82790000
C       57.60190000      49.18690000      50.77660000
C       42.20950000      49.48080000      49.35530000
C       49.43980000      42.30480000      50.60470000
C       50.70290000      50.74740000      57.51200000
C       57.53820000      49.21410000      49.30810000
C       50.87640000      42.29070000      49.11290000
C       49.18540000      57.69760000      49.17040000
C       50.59620000      57.79520000      50.69660000
C       49.24660000      50.65840000      42.25250000
C       50.62250000      49.13070000      42.21640000
C       49.28090000      49.25720000      57.49520000
C       42.23410000      49.47490000      50.82740000
C       57.60880000      50.64450000      50.79160000
C       42.24210000      50.93270000      49.36340000
C       42.82140000      51.64400000      48.32920000
C       48.47740000      43.00310000      51.30580000
C       51.30390000      48.06300000      42.74650000
C       57.08580000      51.32570000      51.86130000
C       42.86200000      48.75340000      51.81360000
C       56.97730000      48.49310000      48.27940000
C       51.89170000      42.94030000      48.42160000
C       48.21030000      56.99470000      48.47190000
C       51.56810000      57.17550000      51.47070000
C       48.68220000      48.25350000      56.75480000
C       51.30900000      51.76810000      56.80110000
C       48.64180000      51.73590000      42.84210000
C       42.86050000      48.81430000      48.34440000
C       48.05770000      57.29360000      51.30480000
C       51.46260000      51.57410000      42.84200000
C       56.98060000      48.49220000      51.80990000
C       42.95670000      51.60940000      51.84040000
C       56.69800000      51.27610000      48.35580000
C       51.71680000      57.13100000      48.65090000
C       48.38840000      43.02090000      48.54060000
C       51.97930000      42.73190000      51.25190000
C       48.52530000      51.75510000      56.97410000
C       51.46120000      48.25680000      56.95480000
C       48.47450000      48.23730000      43.05520000
C       54.60220000      53.64520000      53.23470000
C       52.65010000      55.32150000      54.30170000
C       53.96760000      52.94570000      54.49100000
C       44.64500000      54.43820000      47.12060000
C       55.38860000      45.57090000      47.05870000
C       45.46700000      46.49470000      53.06480000
C       47.12050000      54.45350000      45.95540000
C       52.97360000      45.36520000      45.80750000
C       47.35700000      44.78190000      54.15030000
C       46.36380000      53.23000000      45.29770000
C       53.65280000      46.63790000      45.16390000
C       46.07280000      47.15320000      54.35750000
C       54.62750000      45.82990000      52.92560000
C       53.35820000      45.17650000      53.60200000
C       54.39010000      47.10680000      55.32450000
C       45.40700000      46.55800000      46.96800000
C       54.28200000      53.87220000      47.21280000
C       45.37130000      54.22090000      52.96410000
C       47.13680000      44.78380000      45.74510000
C       53.10310000      54.56420000      46.42910000
C       46.64550000      54.86640000      53.65020000
C       46.01700000      47.25650000      45.68710000
C       54.24420000      52.64210000      44.77440000
C       45.60710000      52.92770000      55.33980000
C       45.38250000      49.56300000      44.72140000
C       44.88510000      45.74860000      49.28600000
C       49.32290000      44.13130000      45.06400000
C       54.88380000      49.37470000      55.86550000
C       45.10350000      50.65570000      55.84630000
C       54.66730000      50.31500000      44.41350000
C       55.81880000      45.10200000      50.75430000
C       44.19980000      54.96970000      50.79480000
C       55.19910000      54.49330000      49.53900000
C       51.12050000      44.46780000      54.47170000
C       48.87600000      55.57570000      54.54210000
C       50.93900000      55.30020000      45.45620000
C       45.42950000      51.01150000      44.64550000
C       44.07750000      55.04960000      49.34880000
C       49.49010000      55.30130000      45.38190000
C       54.75230000      50.81600000      55.71400000
C       45.24620000      49.22090000      55.65090000
C       54.52940000      48.87780000      44.47680000
C       55.24990000      54.49270000      50.98970000
C       44.90590000      45.73300000      50.74610000
C       55.94850000      45.02310000      49.30730000
C       50.31160000      55.65570000      54.69360000
C       49.68210000      44.40400000      54.59210000
C       50.77520000      44.21720000      45.09480000
C       56.83080000      46.17200000      49.33240000
C       49.36040000      56.37090000      46.33170000
C       46.37910000      49.18550000      56.53620000
C       43.66700000      46.50300000      50.76140000
C       56.37370000      53.57610000      50.87150000
C       43.13550000      53.94880000      49.37770000
C       50.40200000      56.75640000      53.74610000
C       49.59420000      43.32470000      53.62000000
C       50.83460000      43.30540000      46.20360000
C       53.65600000      48.95190000      43.31350000
C       46.32650000      50.85680000      43.51110000
C       53.61240000      50.83530000      56.58950000
C       56.23380000      53.50400000      49.42150000
C       49.36050000      43.21720000      46.18710000
C       46.24370000      50.64140000      56.74100000
C       43.27300000      53.87290000      50.84580000
C       56.69780000      46.23750000      50.80040000
C       43.65040000      46.52150000      49.31370000
C       51.05090000      43.32070000      53.57600000
C       48.94730000      56.73180000      53.65880000
C       50.81860000      56.44760000      46.34340000
C       53.73210000      50.40800000      43.30240000
C       46.33450000      49.40220000      43.65630000
C       53.74060000      49.37330000      56.75590000
C       53.44290000      55.68620000      48.49740000
C       47.98330000      53.59660000      55.61360000
C       55.71110000      48.18400000      53.72110000
C       46.21750000      55.98200000      51.59090000
C       53.81590000      44.05100000      51.55190000
C       46.65940000      44.54300000      48.17530000
C       51.93140000      53.37340000      44.31400000
C       48.19370000      46.35030000      44.36720000
C       52.01200000      46.43440000      55.56920000
C       44.26740000      48.59410000      46.58050000
C       55.38890000      51.52910000      46.50230000
C       44.26780000      51.87300000      53.72780000
C       53.79780000      44.21780000      48.12140000
C       48.44900000      46.44710000      55.38910000
C       55.78620000      51.62180000      53.70470000
C       46.73960000      44.51610000      51.77060000
C       53.36770000      55.70660000      51.97520000
C       46.28320000      55.73830000      48.18430000
C       51.58620000      46.22200000      44.06190000
C       48.46210000      53.51590000      44.22260000
C       51.55730000      53.61040000      55.48330000
C       44.27250000      52.06050000      46.51550000
C       55.60600000      47.96870000      46.44500000
C       44.23110000      48.45580000      53.60850000
C       54.83420000      44.98220000      51.70630000
C       52.02700000      54.37660000      45.35930000
C       44.88920000      51.77490000      54.99320000
C       45.69000000      45.58970000      48.11590000
C       54.37630000      54.67860000      48.45940000
C       45.18640000      55.06650000      51.74460000
C       47.79930000      54.64640000      54.63920000
C       52.19950000      45.39310000      54.58560000
C       48.25470000      45.06460000      44.94810000
C       54.85230000      51.45720000      45.21730000
C       45.22360000      48.51350000      45.59270000
C       55.10150000      48.26850000      54.99380000
C       54.36860000      54.65700000      52.10190000
C       51.73910000      45.19010000      44.97770000
C       45.16810000      48.31330000      54.62000000
C       44.98420000      55.18340000      48.25800000
C       55.06960000      44.82830000      48.20540000
C       45.74980000      45.55280000      51.88720000
C       48.53540000      45.19170000      54.79660000
C       51.46540000      54.87720000      54.90990000
C       48.39880000      54.49380000      45.18880000
C       54.63180000      47.79290000      45.39520000
C       45.31420000      52.13820000      45.51640000
C       54.85250000      51.75980000      54.72010000
C       47.42960000      44.15550000      52.96660000
C       52.79680000      46.92540000      44.07730000
C       43.98000000      53.27500000      47.21160000
C       52.99300000      44.42010000      46.91650000
C       47.11560000      55.45140000      47.01740000
C       52.60960000      56.00450000      53.14760000
C       47.20110000      47.17550000      55.26560000
C       52.81580000      52.89420000      55.37230000
C       47.21110000      52.89320000      44.21780000
C       55.71310000      52.81070000      52.96220000
C       44.33200000      47.29750000      52.82450000
C       55.96580000      46.78200000      47.15600000
C       46.92830000      55.95620000      52.79730000
C       53.11040000      52.60780000      44.05830000
C       44.30720000      47.38290000      47.27280000
C       52.81380000      55.67900000      47.24890000
C       47.26700000      44.17620000      46.93470000
C       53.08950000      44.08220000      52.74960000
C       46.80750000      52.85380000      55.94200000
C       53.18490000      47.17250000      55.91680000
C       47.04750000      47.20720000      44.66200000
C       55.54390000      46.96210000      52.93310000
C       44.43440000      53.10420000      52.95970000
C       55.20450000      52.75270000      47.26090000
C       49.14440000      47.05000000      43.53280000
C       43.47810000      49.56650000      47.24520000
C       47.34120000      43.78690000      49.23460000
C       50.87040000      47.12410000      56.23410000
C       49.12200000      52.89990000      56.27700000
C       50.86450000      52.73640000      43.51620000
C       56.45500000      49.17170000      52.97070000
C       43.50460000      50.90060000      52.97030000
C       56.13770000      50.54440000      47.23070000
C       53.10410000      43.33110000      50.53310000
C       46.94650000      56.68610000      50.57450000
C       52.76190000      56.49400000      49.45000000
C       49.43080000      52.79470000      43.46540000
C       43.50150000      51.00210000      47.20830000
C       47.01700000      56.53530000      49.14410000
C       50.56670000      52.86610000      56.20610000
C       49.42930000      47.16660000      56.14670000
C       50.57060000      46.95990000      43.36520000
C       56.52490000      50.60890000      53.00140000
C       43.44730000      49.45950000      52.95460000
C       56.25180000      49.10290000      47.16110000
C       52.72300000      56.47770000      50.88530000
C       47.38000000      43.77540000      50.67420000
C       53.06080000      43.44390000      49.09900000
