240
Lattice="100.0 0.0 0.0 0.0 100.0 0.0 0.0 0.0 100.0" Properties=species:S:1:pos:R:3 name=C-97510-5923-388 pressure=41.8831450172451 spacegroup=Td times_found=1 energy=-1720.07009148557 pbc="T T T"
C       44.28320000      51.97380000      54.74810000
C       54.74760000      44.28280000      51.97400000
C       51.97760000      54.75130000      44.28720000
C       55.71860000      51.96980000      45.25240000
C       44.28740000      48.03150000      45.24460000
C       55.71080000      48.02490000      54.75480000
C       45.24710000      44.28780000      48.02440000
C       54.75540000      55.71270000      48.03200000
C       45.25000000      55.71670000      51.96960000
C       48.02680000      54.75160000      55.71410000
C       51.96600000      45.24680000      55.71530000
C       48.02960000      45.25020000      44.28340000
C       54.75600000      51.97030000      44.28860000
C       51.96610000      44.28370000      54.75190000
C       44.28630000      54.75390000      51.96880000
C       45.24580000      51.97320000      55.71200000
C       45.25120000      48.03120000      44.28200000
C       54.74690000      48.02520000      55.71740000
C       48.02850000      44.28690000      45.24650000
C       48.02790000      55.71500000      54.75100000
C       51.97750000      55.71440000      45.25050000
C       55.71820000      54.74910000      48.03250000
C       55.71120000      45.24560000      51.97480000
C       44.28430000      45.25150000      48.02390000
C       47.39360000      54.61940000      46.41120000
C       46.40810000      47.39020000      54.61510000
C       54.61770000      46.41040000      47.39160000
C       52.61070000      54.61600000      53.59010000
C       47.38480000      45.38300000      53.58550000
C       52.61090000      45.38160000      46.41320000
C       53.58950000      47.38810000      45.38420000
C       46.41630000      52.61310000      45.38040000
C       53.58610000      52.60850000      54.62030000
C       45.37900000      46.41400000      52.60740000
C       54.61770000      53.58530000      52.61420000
C       45.38560000      53.59030000      47.38680000
C       46.41600000      54.61970000      47.38760000
C       54.61870000      47.38750000      46.41480000
C       47.38460000      46.41280000      54.61560000
C       53.58830000      54.61570000      52.61370000
C       53.58730000      45.38100000      47.39080000
C       46.40840000      45.38360000      52.60790000
C       45.37880000      47.39090000      53.58450000
C       45.38580000      52.61350000      46.40960000
C       54.61670000      52.60820000      53.59110000
C       52.61200000      46.41160000      45.38350000
C       52.60960000      53.58590000      54.61980000
C       47.39380000      53.58970000      45.38110000
C       56.19080000      51.66860000      49.37350000
C       49.37120000      56.18970000      51.67190000
C       51.66720000      49.36770000      56.19060000
C       43.81080000      51.67420000      50.62700000
C       56.18840000      48.32560000      50.63440000
C       43.81000000      48.33160000      49.36520000
C       50.63460000      56.18950000      48.32980000
C       49.36750000      43.81090000      48.32730000
C       50.62670000      43.80990000      51.67100000
C       48.33220000      49.37090000      43.80930000
C       51.67560000      50.63070000      43.81150000
C       48.32500000      50.63060000      56.18860000
C       49.36620000      51.67090000      56.18940000
C       51.67470000      56.18890000      49.37120000
C       56.18820000      49.36620000      51.67520000
C       50.63540000      51.67200000      43.81100000
C       50.62600000      48.32740000      56.18980000
C       49.37240000      48.32970000      43.80980000
C       48.33110000      56.19030000      50.63050000
C       48.32610000      43.81130000      49.36740000
C       51.66810000      43.80950000      50.63090000
C       43.81120000      49.37240000      48.32460000
C       43.80960000      50.63340000      51.66760000
C       56.19100000      50.62800000      48.33260000
C       47.44980000      53.49660000      56.24860000
C       56.24630000      47.44870000      53.49990000
C       53.50080000      56.24840000      47.45510000
C       52.55350000      53.49590000      43.75240000
C       47.45440000      46.50580000      43.74820000
C       52.54230000      46.50170000      56.25080000
C       43.75130000      47.45550000      46.49940000
C       56.25310000      52.54550000      46.50800000
C       43.74930000      52.55040000      53.49270000
C       46.50500000      56.25100000      52.54660000
C       53.49170000      43.74830000      52.54930000
C       46.50240000      43.75230000      47.44900000
C       56.25300000      53.49370000      47.45650000
C       53.49110000      47.44960000      56.25160000
C       47.45280000      56.25040000      53.49550000
C       43.75030000      53.49890000      52.54440000
C       43.75030000      46.50700000      47.44770000
C       56.24650000      46.50040000      52.55140000
C       46.50650000      47.45460000      43.74770000
C       46.50100000      52.54870000      56.24790000
C       53.50140000      52.54710000      43.75280000
C       52.55310000      56.24900000      46.50620000
C       52.54280000      43.74860000      53.49700000
C       47.45140000      43.75200000      46.50130000
C       44.32350000      49.24700000      51.73230000
C       51.73380000      44.32420000      49.24490000
C       49.24890000      51.73710000      44.32470000
C       55.67580000      49.24210000      48.26750000
C       44.32640000      50.75830000      48.26060000
C       55.67430000      50.75260000      51.73970000
C       48.26090000      44.32560000      50.75360000
C       51.73820000      55.67410000      50.75730000
C       48.26720000      55.67600000      49.24420000
C       50.75270000      51.73480000      55.67580000
C       49.24020000      48.26360000      55.67440000
C       50.75820000      48.26450000      44.32520000
C       51.73920000      49.24450000      44.32590000
C       49.24080000      44.32510000      51.73470000
C       44.32620000      51.73870000      49.24120000
C       48.26010000      49.24460000      55.67390000
C       48.26800000      50.75700000      44.32390000
C       51.73270000      50.75390000      55.67630000
C       50.75390000      44.32480000      48.26370000
C       50.75700000      55.67450000      51.73720000
C       49.24830000      55.67570000      48.26430000
C       55.67540000      51.73320000      50.75930000
C       55.67470000      48.26150000      49.24790000
C       44.32360000      48.26660000      50.75160000
C       55.10300000      50.40100000      54.13260000
C       54.13150000      55.10340000      50.40730000
C       50.40270000      54.12850000      55.10620000
C       44.89740000      50.40700000      45.86750000
C       55.10780000      49.59420000      45.87380000
C       44.89180000      49.59780000      54.12610000
C       45.87330000      55.10740000      49.59410000
C       54.12720000      44.89270000      49.59790000
C       45.86800000      44.89650000      50.40070000
C       49.60120000      54.13020000      44.89490000
C       50.40530000      45.87120000      44.89430000
C       49.59080000      45.87010000      55.10460000
C       54.12630000      50.40140000      55.10810000
C       50.40380000      55.10460000      54.13030000
C       55.10710000      54.12690000      50.40780000
C       45.87410000      50.40660000      44.89210000
C       45.86720000      49.59720000      55.10270000
C       54.13240000      49.59480000      44.89720000
C       49.60100000      55.10610000      45.87110000
C       49.59100000      44.89420000      54.12840000
C       50.40420000      44.89500000      45.87020000
C       44.89680000      54.13180000      49.59330000
C       44.89240000      45.87300000      50.40020000
C       55.10370000      45.86830000      49.59870000
C       47.06030000      43.55990000      48.82670000
C       48.83220000      47.06400000      43.55720000
C       43.55970000      48.83290000      47.05840000
C       52.93360000      43.55680000      51.17150000
C       47.06490000      56.44290000      51.16960000
C       52.94120000      56.44040000      48.83220000
C       51.16510000      47.06120000      56.44200000
C       48.82680000      52.93710000      56.44130000
C       51.17600000      52.93770000      43.55950000
C       56.43920000      48.82600000      52.94130000
C       43.55710000      51.17320000      52.93350000
C       56.44400000      51.16790000      47.06680000
C       48.82830000      43.55930000      47.06100000
C       43.55770000      47.06580000      48.82500000
C       47.06610000      48.83170000      43.55630000
C       51.16570000      43.55740000      52.93730000
C       51.17540000      56.44150000      47.06420000
C       48.83060000      56.44180000      52.93750000
C       56.43950000      47.05940000      51.17420000
C       56.44380000      52.93450000      48.83390000
C       43.55900000      52.94030000      51.16690000
C       52.93280000      48.82720000      56.44330000
C       52.94200000      51.17000000      43.56040000
C       47.05910000      51.17100000      56.44000000
C       54.15940000      56.00280000      49.37010000
C       49.36480000      54.15560000      56.00480000
C       56.00170000      49.36330000      54.15990000
C       45.84620000      56.00650000      50.63150000
C       54.15300000      43.99330000      50.63510000
C       45.84140000      43.99740000      49.36320000
C       50.63910000      54.15670000      43.99630000
C       49.36850000      45.84490000      43.99440000
C       50.62760000      45.84270000      56.00450000
C       43.99770000      49.37000000      45.84000000
C       56.00760000      50.63110000      45.84770000
C       43.99300000      50.63560000      54.15250000
C       49.36690000      56.00440000      54.15660000
C       56.00700000      54.15340000      49.37100000
C       54.15210000      49.36390000      56.00720000
C       50.63880000      56.00490000      45.84500000
C       50.62790000      43.99450000      54.15570000
C       49.36650000      43.99620000      45.84260000
C       43.99690000      54.15890000      50.63010000
C       43.99380000      45.84670000      49.36230000
C       56.00230000      45.84090000      50.63660000
C       45.84730000      49.36940000      43.99260000
C       45.84030000      50.63450000      56.00210000
C       54.16030000      50.63220000      43.99810000
C       51.20190000      47.04150000      45.15990000
C       45.16200000      51.20290000      47.03860000
C       47.03840000      45.16080000      51.19770000
C       48.79530000      47.04130000      54.83930000
C       51.19860000      52.95730000      54.84160000
C       48.80420000      52.95980000      45.15920000
C       54.83910000      51.19760000      52.96180000
C       45.15710000      48.80160000      52.95530000
C       54.84170000      48.79790000      47.04430000
C       52.95700000      45.15840000      48.80090000
C       47.04450000      54.84200000      48.79850000
C       52.96010000      54.83890000      51.20280000
C       45.15740000      47.04360000      51.19680000
C       47.04510000      51.20230000      45.15790000
C       51.19990000      45.15940000      47.04150000
C       54.83980000      47.03930000      48.80240000
C       54.84110000      52.95610000      51.20370000
C       45.16170000      52.96100000      48.79710000
C       52.95610000      51.19820000      54.84250000
C       52.96100000      48.79900000      45.16130000
C       47.03780000      48.80050000      54.83840000
C       48.79560000      45.15970000      52.95710000
C       48.80390000      54.84140000      47.04130000
C       51.20070000      54.83950000      52.96000000
C       46.65070000      51.34100000      47.63640000
C       47.63590000      46.64950000      51.33720000
C       51.34010000      47.63810000      46.64910000
C       53.35060000      51.33720000      52.36400000
C       46.64640000      48.66210000      52.35940000
C       53.35230000      48.65960000      47.64020000
C       52.36100000      46.64760000      48.66190000
C       47.64070000      53.35280000      48.65990000
C       52.36240000      53.35020000      51.34110000
C       48.65770000      47.63850000      53.35030000
C       51.33810000      52.36060000      53.35260000
C       48.66410000      52.36280000      46.64800000
C       47.64100000      51.34070000      46.64720000
C       51.33900000      46.64820000      47.63870000
C       46.64660000      47.63970000      51.33670000
C       52.36020000      51.33750000      53.35310000
C       52.36320000      48.66020000      46.64990000
C       47.63550000      48.66150000      53.34980000
C       48.65780000      46.64880000      52.36040000
C       48.66390000      53.35240000      47.63790000
C       51.33920000      53.35050000      52.36300000
C       53.35120000      47.63690000      48.66270000
C       53.35170000      52.36000000      51.34160000
C       46.65050000      52.36350000      48.65910000
