240
Lattice="100.0 0.0 0.0 0.0 100.0 0.0 0.0 0.0 100.0" Properties=species:S:1:pos:R:3 name=C-97510-5923-998 pressure=-0.291980517516484 energy=-1724.5134943573 spacegroup=C1 times_found=1 pbc="T T T"
C       48.36410000      53.64160000      55.88320000
C       55.79740000      48.54000000      53.72990000
C       53.67650000      55.60750000      48.30250000
C       51.59680000      46.32870000      55.74540000
C       51.61510000      53.55170000      44.10640000
C       48.28100000      46.31100000      44.34460000
C       44.15440000      51.64470000      53.68550000
C       44.07480000      48.38250000      46.37930000
C       55.96510000      51.60410000      46.12640000
C       46.14810000      44.11240000      48.42440000
C       46.40970000      55.77980000      51.61600000
C       53.75530000      44.37290000      51.48240000
C       53.64850000      48.35810000      55.88800000
C       48.43200000      55.76810000      53.68380000
C       55.92560000      53.62630000      48.11340000
C       46.31090000      51.60380000      55.83440000
C       53.67900000      51.52910000      44.04230000
C       46.26500000      48.31930000      44.22560000
C       51.58000000      44.39490000      53.40550000
C       48.12180000      44.10800000      46.38730000
C       51.67540000      55.73190000      46.28430000
C       44.00730000      46.34000000      48.42710000
C       55.78530000      46.61670000      51.56590000
C       44.19750000      53.68620000      51.63290000
C       50.96090000      49.92730000      57.79350000
C       57.34830000      51.97970000      50.75050000
C       50.14240000      57.58780000      51.01200000
C       48.92950000      49.92770000      57.74450000
C       48.92540000      49.85600000      42.26230000
C       50.96270000      49.83310000      42.28740000
C       42.15640000      49.04080000      50.03720000
C       42.21190000      51.08270000      50.02040000
C       57.38350000      49.57310000      49.95050000
C       49.98780000      42.76790000      50.46470000
C       50.12230000      57.65800000      48.96750000
C       50.78340000      42.75690000      48.06360000
C       49.95270000      50.95360000      57.78870000
C       51.15880000      57.64250000      49.99010000
C       57.28650000      50.55330000      50.96940000
C       49.93690000      48.90140000      57.74040000
C       49.94250000      48.81450000      42.26660000
C       49.94610000      50.86590000      42.28570000
C       48.75760000      42.30940000      50.17460000
C       51.01050000      42.84220000      49.48780000
C       49.11560000      57.60910000      49.99060000
C       42.18740000      50.06080000      51.04980000
C       57.82510000      49.87670000      48.71770000
C       42.18230000      50.06300000      49.00740000
C       49.75310000      47.64160000      42.95550000
C       42.85410000      49.85620000      47.83790000
C       47.60300000      42.88150000      49.88190000
C       50.13830000      52.05400000      42.93050000
C       50.13460000      47.74180000      57.04340000
C       49.77890000      52.14760000      57.14750000
C       57.25950000      50.17730000      47.56290000
C       56.82810000      50.12930000      52.20920000
C       42.87160000      50.23210000      52.21750000
C       52.33450000      56.96430000      49.78990000
C       52.25160000      43.30670000      49.90510000
C       47.92960000      56.96150000      50.16850000
C       47.74390000      49.70680000      42.93200000
C       49.56360000      42.86270000      47.32610000
C       42.79580000      47.84990000      49.85520000
C       52.15580000      50.04350000      42.91120000
C       47.77010000      50.13810000      57.06240000
C       52.15200000      49.75050000      57.15570000
C       50.27620000      57.01050000      47.77180000
C       49.93050000      56.93400000      52.19090000
C       50.16560000      43.37870000      51.72820000
C       57.21470000      52.72030000      49.53590000
C       42.91620000      52.23680000      50.20050000
C       56.81150000      48.29360000      50.14470000
C       47.13560000      46.20140000      45.28180000
C       45.04210000      47.24760000      46.27470000
C       46.02600000      45.12480000      47.33470000
C       52.75890000      53.68200000      45.06170000
C       52.73450000      46.26760000      54.76420000
C       47.26220000      53.76810000      54.86620000
C       54.91680000      52.66360000      46.02300000
C       54.83110000      47.38260000      53.80320000
C       45.16590000      52.74730000      53.80460000
C       53.80180000      54.68720000      47.14750000
C       53.82550000      45.32950000      52.64430000
C       46.25570000      54.80860000      52.75140000
C       46.10690000      47.23170000      45.24520000
C       47.09910000      45.12980000      46.30530000
C       45.01050000      46.19330000      47.32360000
C       53.82960000      52.64840000      45.02600000
C       46.20570000      52.73240000      54.85220000
C       53.78610000      47.30090000      54.84120000
C       52.76950000      54.71720000      46.12180000
C       47.29080000      54.80100000      53.81010000
C       52.73630000      45.30390000      53.64790000
C       54.89490000      53.68750000      47.09910000
C       45.18890000      53.78960000      52.75510000
C       54.84240000      46.39380000      52.70140000
C       54.20580000      45.10740000      47.08130000
C       47.14350000      53.82840000      45.06090000
C       44.95710000      47.14550000      53.89630000
C       46.15170000      54.90800000      47.13050000
C       45.96850000      45.08740000      52.84840000
C       53.88800000      54.78950000      52.99810000
C       52.97760000      46.12190000      45.11360000
C       52.88140000      53.86640000      55.15330000
C       47.07640000      46.11770000      54.87260000
C       55.00240000      52.88420000      54.22120000
C       55.13220000      47.15170000      45.97060000
C       45.05640000      52.85090000      46.12520000
C       45.07600000      53.87580000      47.13680000
C       54.02730000      47.10480000      44.97250000
C       47.05930000      45.10800000      53.77760000
C       55.19290000      46.21220000      47.05570000
C       44.91540000      46.13120000      52.88270000
C       54.96160000      53.79490000      53.11510000
C       46.11380000      52.82310000      45.07180000
C       53.91330000      52.86220000      55.22880000
C       46.04020000      47.12650000      54.92440000
C       52.89430000      54.87600000      54.04890000
C       47.16810000      54.88720000      46.11220000
C       53.10670000      45.09520000      46.15460000
C       43.83770000      45.01420000      50.85420000
C       50.76390000      44.25850000      45.76590000
C       44.98150000      50.77260000      44.08690000
C       55.76510000      54.20830000      50.76380000
C       56.18090000      45.25650000      49.21220000
C       44.09130000      55.01590000      49.19610000
C       49.23050000      55.85580000      44.98870000
C       49.17840000      44.08530000      54.72730000
C       50.81430000      55.93110000      55.09140000
C       55.07060000      49.14510000      43.83270000
C       55.00820000      50.74890000      56.19240000
C       44.94780000      49.18750000      55.97310000
C       44.78510000      44.04260000      50.84570000
C       44.00420000      50.80750000      45.02830000
C       50.70330000      45.19590000      44.80400000
C       54.79000000      55.13090000      50.71990000
C       45.06980000      55.95790000      49.18960000
C       55.32260000      44.20650000      49.21570000
C       56.06800000      49.19140000      44.75230000
C       43.98080000      49.21410000      55.02020000
C       56.02960000      50.78930000      55.30610000
C       49.19800000      54.90980000      44.01490000
C       50.77940000      54.99010000      56.07140000
C       49.17630000      44.97090000      55.75920000
C       43.36810000      46.91360000      50.71360000
C       51.89960000      43.15630000      47.34920000
C       46.86070000      50.59500000      43.55190000
C       56.94650000      52.68100000      51.87710000
C       56.48820000      47.21790000      49.30750000
C       43.53490000      53.14140000      49.33940000
C       49.39670000      56.40250000      46.86980000
C       49.31170000      43.75020000      52.77720000
C       50.74040000      56.37950000      53.17640000
C       53.14400000      49.22730000      43.44800000
C       53.09750000      50.62230000      56.62460000
C       46.84330000      49.29660000      56.45680000
C       46.65890000      43.50940000      50.70230000
C       43.47500000      50.69470000      46.91290000
C       50.61580000      46.76640000      43.62420000
C       53.20590000      56.28810000      50.64810000
C       46.97380000      56.41090000      49.31810000
C       53.43520000      43.57730000      49.21960000
C       56.66000000      49.34710000      46.60950000
C       43.45490000      49.36280000      53.13780000
C       56.57470000      50.80910000      53.39760000
C       49.30530000      53.01450000      43.50630000
C       50.63930000      53.10210000      56.60800000
C       49.29380000      46.82370000      56.41320000
C       43.91830000      46.14210000      51.80680000
C       52.03430000      44.11160000      46.40210000
C       46.11140000      51.71310000      44.11280000
C       55.94860000      53.58100000      52.03220000
C       56.08930000      46.34640000      48.20500000
C       44.10890000      53.89340000      48.23870000
C       48.28470000      55.83800000      46.11460000
C       48.19870000      44.19650000      53.63330000
C       51.80250000      55.83850000      53.99130000
C       53.96260000      48.16660000      43.97550000
C       53.89150000      51.73090000      56.15690000
C       46.05980000      48.21400000      55.90230000
C       45.91940000      44.09590000      51.78830000
C       44.06370000      51.77420000      46.14000000
C       51.71080000      46.13200000      44.39120000
C       53.85140000      55.51780000      51.73560000
C       46.18520000      55.87910000      48.22600000
C       54.27000000      44.16270000      48.18630000
C       56.08580000      48.24670000      45.88660000
C       43.99930000      48.25540000      53.90140000
C       56.00040000      51.82480000      54.25980000
C       48.22880000      53.80040000      44.07950000
C       51.74380000      53.87280000      56.07940000
C       48.20420000      46.08180000      55.80520000
C       52.45390000      48.42120000      56.64630000
C       56.92330000      52.57590000      48.11380000
C       48.57050000      56.49880000      52.48060000
C       47.48310000      51.49350000      56.61820000
C       47.42660000      48.36370000      43.40620000
C       52.45870000      51.40120000      43.33880000
C       43.25440000      47.53580000      48.51040000
C       43.38760000      52.52900000      51.54730000
C       56.36030000      47.90890000      51.44310000
C       51.46960000      43.80780000      52.11830000
C       51.62200000      56.54300000      47.45280000
C       48.14060000      43.14770000      47.47180000
C       48.44420000      52.45430000      56.65060000
C       52.59200000      56.51460000      48.41110000
C       56.37950000      48.79510000      52.46390000
C       51.48950000      47.46330000      56.58540000
C       48.38100000      47.38920000      43.42820000
C       51.49390000      52.35710000      43.35810000
C       47.29270000      43.27190000      48.51460000
C       52.49890000      43.76790000      51.23780000
C       47.61720000      56.50830000      51.51350000
C       43.36670000      51.56990000      52.51210000
C       56.82430000      51.53460000      47.26020000
C       43.28400000      48.49610000      47.54760000
C       54.15990000      49.62600000      56.27300000
C       56.30630000      53.81890000      49.54120000
C       49.70960000      56.10220000      54.22570000
C       45.78880000      50.31030000      56.14850000
C       45.78660000      49.62460000      43.90820000
C       54.20870000      50.25490000      43.68590000
C       43.66300000      45.83750000      49.71840000
C       43.88840000      54.19800000      50.33260000
C       56.23950000      46.13740000      50.31200000
C       50.29770000      43.98220000      53.86770000
C       50.37260000      56.04760000      45.79940000
C       49.55080000      43.72860000      46.19350000
C       49.64610000      54.16080000      56.24880000
C       54.13410000      55.70090000      49.63900000
C       56.27090000      49.72940000      54.37960000
C       50.29950000      45.79120000      56.02060000
C       49.61440000      45.84230000      44.23430000
C       50.31740000      54.07190000      43.79710000
C       45.61040000      43.81540000      49.71400000
C       54.41320000      43.93300000      50.28440000
C       45.90460000      56.12250000      50.32080000
C       43.80810000      50.35280000      54.19680000
C       56.29450000      50.32820000      45.57310000
C       43.78290000      49.68460000      45.85960000
