240
Lattice="100.0 0.0 0.0 0.0 100.0 0.0 0.0 0.0 100.0" Properties=species:S:1:pos:R:3 name=C-97510-5923-1368 pressure=-0.00527333742944435 spacegroup=Th times_found=1 energy=-1788.47672935069 pbc="T T T"
C       55.29050000      46.59340000      53.78070000
C       46.59270000      53.78020000      55.29040000
C       53.78030000      55.29080000      46.59350000
C       44.70920000      53.40640000      53.78040000
C       55.29040000      53.40730000      46.21980000
C       44.70990000      46.59290000      46.21910000
C       53.40690000      46.21950000      55.29050000
C       46.59360000      46.21940000      44.70930000
C       53.40680000      53.78090000      44.70980000
C       46.22000000      44.70940000      46.59290000
C       53.78070000      44.70970000      53.40690000
C       46.21900000      55.29010000      53.40680000
C       55.29080000      46.59360000      46.21960000
C       46.59310000      53.78050000      44.70950000
C       53.78000000      55.29060000      53.40710000
C       44.70950000      53.40660000      46.21930000
C       55.29010000      53.40710000      53.78090000
C       44.70960000      46.59270000      53.78020000
C       53.40730000      46.21980000      44.70960000
C       46.59320000      46.21910000      55.29020000
C       53.40640000      53.78060000      55.29070000
C       46.21970000      44.70920000      53.40650000
C       53.78100000      44.70990000      46.59320000
C       46.21930000      55.29030000      46.59310000
C       51.65370000      55.47300000      45.63570000
C       55.47290000      45.63590000      51.65400000
C       45.63520000      51.65350000      55.47260000
C       48.34670000      44.52730000      45.63530000
C       51.65410000      44.52730000      54.36440000
C       48.34560000      55.47250000      54.36450000
C       44.52690000      54.36410000      51.65380000
C       55.47250000      54.36490000      48.34650000
C       44.52760000      45.63520000      48.34580000
C       54.36430000      48.34620000      55.47290000
C       45.63590000      48.34600000      44.52700000
C       54.36460000      51.65430000      44.52750000
C       51.65330000      55.47270000      54.36470000
C       55.47310000      45.63590000      48.34620000
C       45.63570000      51.65380000      44.52710000
C       48.34630000      44.52700000      54.36430000
C       51.65440000      44.52750000      45.63550000
C       48.34590000      55.47270000      45.63560000
C       44.52710000      54.36410000      48.34600000
C       55.47240000      54.36480000      51.65420000
C       44.52750000      45.63510000      51.65350000
C       54.36480000      48.34650000      44.52740000
C       45.63540000      48.34570000      55.47250000
C       54.36410000      51.65400000      55.47300000
C       48.68580000      52.99710000      43.47260000
C       52.99750000      43.47280000      48.68570000
C       43.47250000      48.68520000      52.99670000
C       51.31480000      47.00320000      43.47260000
C       48.68560000      47.00270000      56.52730000
C       51.31380000      52.99700000      56.52760000
C       47.00260000      56.52730000      48.68570000
C       52.99660000      56.52760000      51.31460000
C       47.00330000      43.47230000      51.31400000
C       56.52720000      51.31470000      52.99740000
C       43.47260000      51.31400000      47.00270000
C       56.52760000      48.68620000      47.00320000
C       48.68520000      52.99680000      56.52740000
C       52.99740000      43.47270000      51.31430000
C       43.47280000      48.68530000      47.00260000
C       51.31420000      47.00290000      56.52740000
C       48.68620000      47.00300000      43.47240000
C       51.31440000      52.99730000      43.47270000
C       47.00250000      56.52720000      51.31430000
C       52.99670000      56.52770000      48.68600000
C       47.00340000      43.47240000      48.68540000
C       56.52750000      51.31480000      47.00330000
C       43.47240000      51.31380000      52.99680000
C       56.52740000      48.68600000      52.99730000
C       50.72090000      44.77340000      44.67210000
C       44.77350000      44.67190000      50.72000000
C       44.67240000      50.72020000      44.77300000
C       49.27950000      55.22690000      44.67230000
C       50.71980000      55.22670000      55.32790000
C       49.27970000      44.77300000      55.32760000
C       55.22640000      55.32810000      50.72070000
C       44.77290000      55.32740000      49.27950000
C       55.22720000      44.67260000      49.27970000
C       55.32800000      49.28010000      44.77340000
C       44.67200000      49.27910000      55.22660000
C       55.32750000      50.72060000      55.22710000
C       50.72050000      44.77310000      55.32770000
C       44.77360000      44.67190000      49.27930000
C       44.67200000      50.71990000      55.22660000
C       49.27910000      55.22660000      55.32790000
C       50.72030000      55.22700000      44.67240000
C       49.28020000      44.77330000      44.67210000
C       55.22650000      55.32810000      49.28000000
C       44.77280000      55.32740000      50.72030000
C       55.22710000      44.67260000      50.72050000
C       55.32760000      49.27980000      55.22700000
C       44.67250000      49.27940000      44.77290000
C       55.32800000      50.72090000      44.77340000
C       47.09340000      56.10880000      52.62290000
C       56.10900000      52.62330000      47.09420000
C       52.62280000      47.09390000      56.10910000
C       52.90640000      43.89110000      52.62280000
C       47.09440000      43.89090000      47.37690000
C       52.90580000      56.10930000      47.37740000
C       43.89130000      47.37680000      47.09360000
C       56.10910000      47.37750000      52.90630000
C       43.89070000      52.62240000      52.90590000
C       47.37670000      52.90580000      56.10900000
C       52.62290000      52.90640000      43.89120000
C       47.37760000      47.09390000      43.89080000
C       47.09360000      56.10890000      47.37720000
C       56.10870000      52.62320000      52.90640000
C       52.62330000      47.09420000      43.89100000
C       52.90660000      43.89120000      47.37710000
C       47.09420000      43.89070000      52.62260000
C       52.90560000      56.10910000      52.62310000
C       43.89100000      47.37670000      52.90580000
C       56.10930000      47.37760000      47.09410000
C       43.89090000      52.62250000      47.09370000
C       47.37720000      52.90610000      43.89090000
C       52.62240000      52.90610000      56.10920000
C       47.37710000      47.09360000      56.10880000
C       48.42690000      43.90900000      46.94690000
C       43.90930000      46.94670000      48.42600000
C       46.94740000      48.42630000      43.90890000
C       51.57340000      56.09110000      46.94730000
C       48.42580000      56.09080000      53.05300000
C       51.57390000      43.90910000      53.05280000
C       56.09080000      53.05340000      48.42670000
C       43.90880000      53.05250000      51.57340000
C       56.09110000      46.94740000      51.57380000
C       53.05310000      51.57400000      43.90920000
C       46.94670000      51.57330000      56.09090000
C       53.05280000      48.42640000      56.09100000
C       48.42660000      43.90890000      53.05270000
C       43.90920000      46.94660000      51.57330000
C       46.94690000      48.42600000      56.09080000
C       51.57310000      56.09100000      53.05310000
C       48.42610000      56.09090000      46.94720000
C       51.57420000      43.90920000      46.94700000
C       56.09070000      53.05330000      51.57400000
C       43.90890000      53.05260000      48.42620000
C       56.09120000      46.94750000      48.42660000
C       53.05260000      51.57370000      56.09110000
C       46.94720000      51.57360000      43.90900000
C       53.05330000      48.42670000      43.90910000
C       50.71200000      45.76220000      43.57400000
C       45.76230000      43.57380000      50.71110000
C       43.57420000      50.71120000      45.76170000
C       49.28850000      54.23820000      43.57420000
C       50.71090000      54.23790000      56.42600000
C       49.28850000      45.76170000      56.42580000
C       54.23760000      56.42620000      50.71180000
C       45.76160000      56.42560000      49.28850000
C       54.23850000      43.57440000      49.28850000
C       56.42610000      49.28910000      45.76220000
C       43.57400000      49.28800000      54.23780000
C       56.42570000      50.71180000      54.23830000
C       50.71150000      45.76180000      56.42580000
C       45.76240000      43.57380000      49.28820000
C       43.57390000      50.71090000      54.23780000
C       49.28800000      54.23780000      56.42600000
C       50.71150000      54.23830000      43.57420000
C       49.28910000      45.76210000      43.57400000
C       54.23770000      56.42620000      49.28890000
C       45.76150000      56.42560000      50.71150000
C       54.23840000      43.57440000      50.71150000
C       56.42580000      49.28880000      54.23830000
C       43.57430000      49.28820000      45.76170000
C       56.42600000      50.71200000      45.76220000
C       49.29130000      43.60260000      51.89100000
C       43.60270000      51.89080000      49.29070000
C       51.89150000      49.29120000      43.60280000
C       50.70860000      56.39730000      51.89140000
C       49.29060000      56.39730000      48.10890000
C       50.70960000      43.60280000      48.10870000
C       56.39740000      48.10920000      49.29120000
C       43.60280000      48.10840000      50.70870000
C       56.39710000      51.89160000      50.70940000
C       48.10900000      50.70910000      43.60270000
C       51.89090000      50.70900000      56.39740000
C       48.10860000      49.29060000      56.39720000
C       49.29140000      43.60270000      48.10860000
C       43.60260000      51.89080000      50.70880000
C       51.89100000      49.29090000      56.39730000
C       50.70870000      56.39740000      48.10900000
C       49.29040000      56.39720000      51.89130000
C       50.70940000      43.60270000      51.89110000
C       56.39730000      48.10920000      50.70930000
C       43.60290000      48.10840000      49.29060000
C       56.39720000      51.89160000      49.29130000
C       48.10850000      50.70880000      56.39720000
C       51.89140000      50.70940000      43.60280000
C       48.10910000      49.29100000      43.60260000
C       50.71630000      48.34810000      56.61890000
C       48.34780000      56.61870000      50.71660000
C       56.61890000      50.71690000      48.34850000
C       49.28320000      51.65160000      56.61890000
C       50.71660000      51.65200000      43.38120000
C       49.28390000      48.34840000      43.38100000
C       51.65220000      43.38120000      50.71640000
C       48.34870000      43.38100000      49.28330000
C       51.65140000      56.61900000      49.28380000
C       43.38120000      49.28320000      48.34790000
C       56.61890000      49.28390000      51.65200000
C       43.38100000      50.71600000      51.65150000
C       50.71680000      48.34840000      43.38110000
C       48.34780000      56.61880000      49.28360000
C       56.61880000      50.71680000      51.65210000
C       49.28370000      51.65190000      43.38110000
C       50.71610000      51.65160000      56.61900000
C       49.28340000      48.34800000      56.61880000
C       51.65220000      43.38130000      49.28340000
C       48.34860000      43.38100000      50.71620000
C       51.65130000      56.61900000      50.71670000
C       43.38110000      49.28310000      51.65150000
C       56.61900000      49.28400000      48.34850000
C       43.38110000      50.71610000      48.34800000
C       45.11070000      54.52610000      52.99440000
C       54.52650000      52.99490000      45.11140000
C       52.99460000      45.11120000      54.52650000
C       54.88900000      45.47380000      52.99460000
C       45.11150000      45.47330000      47.00520000
C       54.88870000      54.52690000      47.00580000
C       45.47390000      47.00530000      45.11080000
C       54.52650000      47.00570000      54.88900000
C       45.47310000      52.99410000      54.88880000
C       47.00500000      54.88860000      54.52650000
C       52.99440000      54.88920000      45.47380000
C       47.00600000      45.11100000      45.47330000
C       45.11100000      54.52620000      47.00540000
C       54.52610000      52.99470000      54.88920000
C       52.99500000      45.11140000      45.47350000
C       54.88930000      45.47390000      47.00560000
C       45.11130000      45.47310000      52.99420000
C       54.88850000      54.52670000      52.99480000
C       45.47350000      47.00510000      54.88860000
C       54.52690000      47.00590000      45.11120000
C       45.47350000      52.99430000      45.11100000
C       47.00540000      54.88880000      45.47350000
C       52.99400000      54.88900000      54.52670000
C       47.00560000      45.11080000      54.52620000
