240
Lattice="100.0 0.0 0.0 0.0 100.0 0.0 0.0 0.0 100.0" Properties=species:S:1:pos:R:3 name=C-97510-5923-256 pressure=3.84963796211703 spacegroup=C1 times_found=1 energy=-1743.9776335442 pbc="T T T"
C       45.16120000      56.17350000      51.45630000
C       50.44410000      44.69970000      56.89270000
C       56.91920000      50.87750000      44.61660000
C       44.98720000      44.38940000      49.67270000
C       54.53200000      44.51010000      50.98960000
C       54.63740000      56.28490000      48.59870000
C       50.85820000      54.66840000      44.31660000
C       49.43990000      54.39620000      55.43590000
C       50.00350000      44.95920000      44.33970000
C       55.42050000      49.48180000      54.31450000
C       44.53510000      49.86160000      45.27290000
C       43.70100000      50.24890000      54.95370000
C       54.94840000      56.45150000      49.95730000
C       49.04580000      44.72250000      56.88030000
C       44.42170000      51.29740000      45.35920000
C       54.50320000      44.60170000      49.54110000
C       44.96370000      44.20360000      51.10000000
C       44.88290000      56.52300000      50.11780000
C       49.44120000      54.55270000      44.59880000
C       50.85050000      54.39820000      55.52170000
C       51.43000000      45.06300000      44.26340000
C       43.75550000      48.87150000      54.70560000
C       56.98280000      49.48130000      44.63720000
C       55.57230000      50.92270000      54.34060000
C       50.68810000      53.30690000      56.50980000
C       56.47990000      50.92080000      53.18110000
C       53.74230000      57.33330000      50.18650000
C       51.33720000      46.20050000      43.34390000
C       49.03050000      46.06200000      57.58980000
C       49.48900000      53.44040000      43.62700000
C       57.70350000      49.53240000      45.95700000
C       42.77490000      49.08300000      53.62350000
C       43.40010000      51.25010000      46.40350000
C       53.46790000      43.56130000      49.60710000
C       46.15260000      43.35250000      51.04410000
C       46.10920000      57.37920000      50.04060000
C       49.27450000      53.30270000      56.39530000
C       42.75120000      50.47470000      53.79080000
C       46.37990000      57.06030000      51.40830000
C       49.92670000      46.08000000      43.35930000
C       50.45090000      46.01560000      57.61870000
C       50.87240000      53.51270000      43.41080000
C       43.38830000      49.85150000      46.23650000
C       56.40450000      49.52040000      53.21520000
C       57.63710000      50.95230000      45.94870000
C       46.14270000      43.49580000      49.63250000
C       53.44710000      43.51540000      51.01010000
C       53.49900000      57.20930000      48.80740000
C       47.46150000      46.04470000      55.97850000
C       56.20520000      47.82000000      45.96640000
C       46.06640000      56.01110000      48.21500000
C       47.64990000      53.15020000      44.89470000
C       52.57190000      52.98390000      55.25670000
C       53.13240000      46.51090000      44.75250000
C       55.09370000      52.71770000      52.97950000
C       44.84830000      52.97980000      46.85670000
C       44.07940000      47.27830000      53.15500000
C       46.30040000      44.71840000      52.89020000
C       53.26340000      44.58990000      47.59100000
C       53.83460000      55.82510000      51.84760000
C       52.11150000      45.98880000      56.05940000
C       44.45600000      47.90710000      46.38150000
C       53.01680000      55.72830000      47.16270000
C       52.79130000      53.44430000      44.65490000
C       47.67590000      53.05330000      54.76060000
C       48.12370000      46.20460000      44.73890000
C       44.34720000      52.04160000      53.71980000
C       55.98770000      52.48350000      45.89010000
C       55.25310000      47.59350000      53.01720000
C       53.22360000      44.82820000      52.87310000
C       46.35400000      44.98100000      47.83050000
C       46.96490000      54.98090000      52.09750000
C       52.20470000      54.88530000      53.39950000
C       53.67520000      50.92880000      55.65220000
C       55.16120000      54.14710000      51.06140000
C       51.28350000      44.02570000      46.42370000
C       48.14850000      44.54720000      54.41880000
C       47.80550000      55.19980000      46.66320000
C       54.57710000      48.42170000      44.49700000
C       46.01570000      47.73240000      54.98510000
C       46.55050000      51.08260000      44.49540000
C       55.20740000      46.47790000      47.77600000
C       43.59950000      46.19630000      51.10960000
C       44.71640000      54.25930000      48.85890000
C       48.94830000      54.48650000      53.07830000
C       46.06610000      51.26400000      54.98650000
C       44.96930000      53.62150000      52.08010000
C       48.34250000      44.72410000      46.45600000
C       51.42390000      44.53650000      54.44730000
C       50.84360000      55.93910000      46.23310000
C       46.58090000      48.03880000      45.08400000
C       53.47160000      47.77630000      55.04780000
C       54.42220000      51.69290000      44.44360000
C       44.29060000      46.41150000      48.23940000
C       55.73470000      46.45340000      51.00110000
C       54.98780000      53.95780000      47.55680000
C       48.54370000      52.50480000      43.97190000
C       43.08930000      48.17070000      52.62370000
C       52.61490000      43.70830000      48.53280000
C       48.03850000      46.85830000      56.92310000
C       52.36000000      47.11410000      43.69820000
C       51.69330000      52.38370000      56.21230000
C       43.75090000      52.21100000      47.39710000
C       56.10130000      51.97000000      52.29670000
C       57.11660000      48.50150000      46.74510000
C       53.03930000      56.83000000      51.33850000
C       46.82800000      56.97590000      48.84730000
C       46.98740000      43.70650000      52.13480000
C       52.02420000      52.72380000      43.67690000
C       56.15800000      48.48090000      52.34440000
C       46.98840000      43.92450000      48.61400000
C       51.48330000      46.77440000      57.00370000
C       48.82590000      46.87010000      43.72010000
C       48.24250000      52.43190000      55.92670000
C       56.95670000      51.95730000      46.71030000
C       43.25420000      51.57070000      53.01160000
C       43.45020000      48.71520000      46.99910000
C       47.45730000      56.29240000      51.90910000
C       52.46460000      56.73850000      48.00160000
C       52.59390000      43.78080000      52.11210000
C       50.53670000      43.90720000      53.47870000
C       53.49540000      50.74170000      43.84600000
C       44.03050000      52.98740000      51.11610000
C       50.09820000      56.38500000      47.21640000
C       49.74740000      55.61760000      52.62920000
C       49.02610000      43.93350000      47.43080000
C       52.66940000      48.65240000      55.97280000
C       47.54910000      48.81560000      44.25920000
C       46.92720000      50.31530000      55.66870000
C       43.41700000      47.33430000      48.96380000
C       56.10860000      47.34970000      50.11620000
C       55.83940000      53.20080000      48.62250000
C       49.05050000      43.90720000      53.47560000
C       47.50500000      50.26280000      44.11640000
C       55.78870000      53.22480000      50.13960000
C       48.66210000      56.19610000      47.40830000
C       51.18380000      55.76370000      52.65610000
C       50.44980000      43.70270000      47.40130000
C       46.85110000      48.80180000      55.78190000
C       53.56980000      49.25810000      43.86370000
C       52.73180000      50.10780000      56.05760000
C       56.07360000      47.34370000      48.65300000
C       43.19260000      47.22410000      50.37170000
C       44.03620000      53.22090000      49.64000000
C       52.51680000      45.28990000      45.12440000
C       45.24220000      52.39250000      45.64080000
C       45.08130000      45.01850000      52.23360000
C       51.94440000      54.16860000      54.63770000
C       48.26670000      54.39220000      45.46390000
C       48.20910000      44.86020000      55.78470000
C       44.71730000      47.89330000      54.34140000
C       55.94800000      48.55790000      44.78040000
C       54.79610000      52.07820000      54.20310000
C       44.97310000      55.62340000      49.04530000
C       54.89090000      55.50590000      50.95820000
C       54.40570000      45.30440000      48.26210000
C       48.87440000      45.09190000      45.19590000
C       55.79890000      51.68780000      44.73290000
C       54.36640000      45.26240000      52.16030000
C       48.61670000      54.08810000      54.36080000
C       52.05930000      54.59210000      45.02490000
C       51.33890000      44.82010000      55.82540000
C       54.63290000      48.25020000      54.21210000
C       45.28290000      48.62570000      45.44540000
C       44.69810000      51.18450000      54.78400000
C       54.28590000      55.22700000      47.71280000
C       45.57040000      54.88190000      51.90520000
C       45.10000000      45.29210000      48.59050000
C       43.46160000      52.19030000      48.77060000
C       48.36120000      43.47030000      52.27210000
C       52.40070000      48.49120000      43.44740000
C       42.79730000      48.31980000      51.24460000
C       56.87700000      48.43350000      48.12450000
C       56.33730000      52.09780000      50.91640000
C       48.20690000      56.95500000      48.55560000
C       51.66630000      56.73990000      51.64880000
C       51.23330000      43.36440000      48.57230000
C       51.65040000      51.00520000      56.51150000
C       48.60380000      51.12230000      43.66480000
C       47.91280000      48.24780000      56.66520000
C       56.71610000      52.12170000      48.09570000
C       51.22680000      43.47610000      52.26910000
C       48.70340000      48.25490000      43.62380000
C       56.50140000      48.48050000      50.97070000
C       43.06490000      48.55430000      48.34410000
C       43.22800000      51.87500000      51.62340000
C       51.08260000      56.96510000      48.16610000
C       48.85150000      56.51890000      51.90470000
C       48.34250000      43.56720000      48.60040000
C       48.05740000      51.06680000      56.23540000
C       52.23990000      51.35330000      43.43440000
C       51.58390000      48.15250000      56.79250000
C       45.36640000      52.86420000      53.28500000
C       52.62530000      45.30920000      54.01780000
C       53.94700000      52.90210000      45.17230000
C       44.68770000      46.73670000      46.96850000
C       55.12800000      46.42780000      52.22470000
C       54.89730000      53.26230000      46.26090000
C       52.11090000      55.42950000      46.13000000
C       47.84500000      53.99570000      52.36230000
C       47.07510000      45.50200000      46.69490000
C       52.92100000      46.40320000      54.99010000
C       47.05550000      46.64100000      45.53870000
C       46.49150000      52.50510000      54.25490000
C       54.51660000      53.78620000      52.34570000
C       46.93190000      45.28980000      53.97510000
C       46.48400000      52.35520000      44.99910000
C       55.16370000      46.98160000      46.38930000
C       44.24730000      46.14250000      52.31450000
C       45.42840000      53.98730000      47.58440000
C       46.48360000      55.02900000      47.30240000
C       53.48300000      54.78780000      52.70660000
C       52.51990000      44.61290000      46.36340000
C       46.66080000      46.41720000      54.90690000
C       54.19960000      47.20350000      45.27840000
C       53.69620000      52.15850000      55.05020000
C       50.51070000      42.98370000      51.16920000
C       51.16840000      50.56300000      43.00880000
C       42.65090000      50.95850000      50.74200000
C       50.56130000      57.50760000      49.32710000
C       49.35780000      57.38230000      50.94040000
C       49.05590000      43.03090000      49.70130000
C       50.48550000      48.95460000      57.18310000
C       49.76770000      49.04230000      43.11650000
C       49.06620000      50.41790000      56.93620000
C       42.62030000      49.63460000      49.15230000
C       57.03160000      49.58630000      50.32510000
C       57.16140000      51.03980000      48.87200000
C       49.07090000      42.99990000      51.16400000
C       49.71070000      50.48940000      43.12860000
C       56.97940000      51.04170000      50.29090000
C       49.12400000      57.49300000      49.49790000
C       50.78300000      57.40050000      50.77450000
C       50.51190000      42.99030000      49.70020000
C       49.01280000      48.99680000      57.10810000
C       51.23140000      49.12480000      43.00620000
C       50.52050000      50.39290000      57.02450000
C       57.22170000      49.56510000      48.89150000
C       42.48160000      49.50820000      50.59730000
C       42.79610000      51.07800000      49.31470000
