240
Lattice="100.0 0.0 0.0 0.0 100.0 0.0 0.0 0.0 100.0" Properties=species:S:1:pos:R:3 name=C-97510-5923-1457 pressure=-0.0161608573805491 spacegroup=C1 times_found=1 energy=-1730.82375406257 pbc="T T T"
C       50.89870000      44.75660000      46.50320000
C       46.56730000      50.73170000      44.91960000
C       44.72230000      46.48510000      50.54390000
C       50.52240000      55.26290000      53.59020000
C       49.30610000      55.09100000      46.41860000
C       49.12030000      44.82040000      53.58520000
C       46.47000000      49.15260000      55.20970000
C       53.63160000      49.29960000      44.64380000
C       53.55350000      50.71790000      54.96750000
C       44.74100000      53.60030000      49.44190000
C       55.02990000      53.57630000      50.72350000
C       55.08910000      46.37170000      49.27960000
C       49.47570000      44.72140000      46.47910000
C       53.65030000      50.71990000      44.63350000
C       55.11020000      46.42460000      50.71340000
C       49.10700000      55.19300000      53.57360000
C       50.74620000      55.12770000      46.47680000
C       50.56000000      44.70900000      53.58440000
C       53.58750000      49.25010000      54.96750000
C       46.52490000      49.28200000      44.93880000
C       46.42650000      50.57000000      55.29140000
C       55.00760000      53.62230000      49.29180000
C       44.81340000      53.60650000      50.88390000
C       44.80490000      46.51570000      49.12310000
C       55.60390000      53.65810000      52.98540000
C       52.73000000      55.86000000      53.83760000
C       53.77520000      53.07380000      55.25640000
C       55.36200000      46.12400000      46.95000000
C       44.10690000      46.23370000      52.75330000
C       44.19700000      53.82070000      47.19240000
C       53.17080000      44.24060000      46.39800000
C       46.78400000      44.65710000      53.81500000
C       46.95930000      55.30590000      46.16060000
C       53.92240000      47.08460000      44.13630000
C       46.33070000      46.87970000      55.67460000
C       46.45630000      53.01340000      44.34320000
C       44.62670000      53.83410000      53.22050000
C       46.83960000      55.67880000      53.71210000
C       46.16420000      52.76770000      55.91900000
C       44.35830000      46.40780000      46.83620000
C       55.67450000      46.35760000      52.98200000
C       55.30440000      53.89820000      46.96790000
C       47.25390000      44.16770000      46.19110000
C       52.80420000      44.12850000      53.81520000
C       53.01570000      55.72290000      46.41620000
C       46.27840000      46.93430000      44.69330000
C       53.85300000      46.90230000      55.25110000
C       53.91820000      52.94190000      44.13290000
C       54.45080000      43.82240000      46.71150000
C       46.74260000      54.29360000      43.90820000
C       44.69610000      46.14150000      54.04610000
C       54.01030000      55.24360000      53.86060000
C       45.59310000      55.08560000      46.34490000
C       45.43020000      44.90000000      53.59930000
C       46.57260000      45.59770000      56.12020000
C       53.97760000      45.81660000      44.77640000
C       53.57950000      54.44460000      55.07630000
C       44.82970000      53.84870000      45.91550000
C       56.03830000      53.34640000      54.25320000
C       55.17590000      46.28760000      45.57780000
C       45.97650000      44.78740000      46.09620000
C       53.92110000      54.20120000      44.79090000
C       56.11740000      46.66610000      54.24770000
C       45.56450000      56.13530000      53.44930000
C       54.28860000      56.15410000      46.74350000
C       54.08670000      44.74860000      53.84060000
C       53.66160000      45.53270000      55.06440000
C       46.45600000      45.56240000      44.89100000
C       46.08270000      54.06160000      55.33320000
C       55.13150000      53.74630000      45.59210000
C       44.85030000      53.61870000      54.57860000
C       43.95980000      46.70790000      45.54760000
C       47.73610000      43.90480000      48.54520000
C       48.61980000      47.63670000      44.08800000
C       43.87200000      48.64290000      47.67510000
C       47.68230000      56.11200000      51.45130000
C       52.19580000      56.19510000      48.64310000
C       52.22560000      43.80380000      51.52160000
C       48.52110000      52.21420000      56.09480000
C       51.59030000      52.30130000      43.79880000
C       51.55170000      47.64120000      55.93350000
C       43.98420000      51.50550000      52.44650000
C       55.84060000      51.52970000      47.71730000
C       56.18940000      48.56170000      52.12400000
C       52.31820000      43.78000000      48.63460000
C       51.55840000      47.64620000      43.85250000
C       55.85730000      48.49790000      47.71560000
C       52.14740000      56.22980000      51.52500000
C       47.68720000      55.96210000      48.48500000
C       47.54370000      44.01370000      51.47980000
C       51.45970000      52.33120000      55.95270000
C       48.69990000      52.23370000      43.86730000
C       48.60050000      47.68610000      56.17320000
C       56.15710000      51.46340000      52.12610000
C       43.89140000      51.52450000      47.76290000
C       43.89290000      48.57600000      52.24530000
C       50.90100000      46.57720000      44.61350000
C       44.61970000      50.83610000      46.68340000
C       46.50900000      44.60490000      50.60330000
C       50.59060000      53.39750000      55.39280000
C       49.45170000      53.32940000      44.51230000
C       49.29160000      46.60890000      55.48350000
C       44.59970000      49.20230000      53.37040000
C       55.35550000      49.30250000      46.60060000
C       55.48100000      50.71390000      53.17370000
C       46.59310000      55.44140000      49.31380000
C       53.22140000      55.48340000      50.84060000
C       53.37680000      44.43410000      49.40700000
C       49.46690000      46.55100000      44.63710000
C       55.35670000      50.72420000      46.59620000
C       53.32200000      44.50550000      50.83400000
C       49.15610000      53.33680000      55.40700000
C       50.88200000      53.35890000      44.53300000
C       50.70870000      46.55990000      55.41950000
C       55.50240000      49.29760000      53.17490000
C       44.55960000      49.41070000      46.63310000
C       44.56200000      50.63010000      53.49010000
C       53.25100000      55.52420000      49.40920000
C       46.60580000      55.48280000      50.73050000
C       46.62240000      44.63060000      49.17250000
C       52.90040000      47.96120000      55.48350000
C       55.49550000      52.91300000      48.01450000
C       47.95530000      55.78510000      52.82950000
C       52.97080000      51.93890000      44.04230000
C       47.14220000      51.78650000      55.88150000
C       47.24970000      47.97720000      44.48740000
C       55.77120000      47.19290000      51.82920000
C       44.23000000      47.26980000      47.95930000
C       44.36960000      52.88600000      52.16600000
C       48.22670000      44.13540000      47.17570000
C       51.78240000      44.08530000      52.88410000
C       51.87370000      55.77690000      47.26410000
C       47.21490000      47.99290000      55.80810000
C       44.15330000      52.88970000      48.21260000
C       51.72050000      55.91610000      52.89290000
C       47.32840000      51.89030000      44.28240000
C       52.82910000      52.00490000      55.49120000
C       52.94880000      48.06800000      44.05050000
C       44.12270000      47.20340000      51.76770000
C       55.54240000      47.10380000      48.00420000
C       55.71210000      52.82430000      51.83360000
C       52.04480000      44.14700000      47.25930000
C       47.83350000      44.39450000      52.86300000
C       48.00730000      55.55820000      47.12190000
C       42.03080000      48.81020000      50.69900000
C       50.47480000      42.14640000      48.74070000
C       48.73620000      50.59690000      42.03170000
C       42.08710000      51.43840000      49.39380000
C       58.16890000      51.41020000      50.56370000
C       57.51110000      48.77610000      49.51080000
C       50.57940000      58.19150000      51.35470000
C       49.46850000      57.68570000      48.61920000
C       49.34590000      42.31470000      51.46310000
C       48.90050000      49.29500000      58.04370000
C       51.30110000      49.24260000      42.02640000
C       51.49230000      50.67980000      57.79000000
C       58.19540000      48.65660000      50.55950000
C       49.25060000      42.01400000      48.79380000
C       51.42400000      50.46250000      42.14970000
C       57.49060000      51.27350000      49.51330000
C       42.32890000      51.48840000      50.60220000
C       42.19180000      48.75030000      49.47850000
C       49.40850000      57.80340000      51.21390000
C       50.63480000      58.11240000      48.64700000
C       50.54740000      42.03860000      51.42430000
C       51.53820000      49.45980000      57.59300000
C       48.67740000      49.40310000      42.35410000
C       48.84730000      50.51000000      57.81900000
C       45.54600000      54.77470000      51.36600000
C       51.16460000      45.40130000      54.73480000
C       54.77620000      51.25880000      45.40970000
C       45.60840000      45.42190000      48.51680000
C       54.35490000      45.33570000      51.39810000
C       54.31320000      54.80080000      48.80780000
C       51.43920000      54.39900000      45.36750000
C       48.50330000      54.38380000      54.65930000
C       48.94550000      45.41680000      45.31300000
C       54.75310000      48.72500000      54.24370000
C       45.32080000      48.79680000      45.60040000
C       45.23550000      51.11800000      54.64240000
C       54.25760000      54.65680000      51.40830000
C       48.64400000      45.56520000      54.75480000
C       45.45710000      51.40490000      45.66060000
C       54.42810000      45.16910000      48.79770000
C       45.36840000      45.29790000      51.09530000
C       45.44070000      54.75750000      48.84420000
C       48.82930000      54.37910000      45.24000000
C       51.08630000      54.55240000      54.73150000
C       51.52860000      45.53720000      45.40070000
C       45.38170000      48.54810000      54.39390000
C       54.75880000      48.76580000      45.42250000
C       54.70670000      51.26960000      54.23900000
C       52.41300000      44.87930000      54.97710000
C       55.05630000      52.51340000      44.91400000
C       45.20560000      55.02980000      52.71120000
C       52.79860000      54.81980000      45.33660000
C       47.13750000      54.74990000      54.76160000
C       47.69560000      44.90400000      45.03400000
C       55.02690000      47.40310000      54.63500000
C       45.07040000      47.45200000      45.23080000
C       44.98200000      52.35710000      55.19940000
C       45.26890000      45.34700000      47.14250000
C       54.74840000      45.29730000      52.75390000
C       54.70360000      55.07790000      47.48160000
C       47.30040000      45.23000000      55.01180000
C       45.39690000      52.76390000      45.26210000
C       54.66340000      54.70600000      52.76140000
C       47.48380000      54.72350000      44.97710000
C       52.33060000      55.09120000      54.99010000
C       52.89490000      45.15030000      45.32960000
C       45.28470000      47.18270000      54.74180000
C       55.05820000      47.52490000      44.91260000
C       54.95670000      52.59270000      54.63680000
C       54.80540000      44.91890000      47.45910000
C       44.81340000      45.04750000      52.33690000
C       44.93230000      54.99100000      47.58890000
C       49.45260000      48.39900000      57.06040000
C       56.69070000      49.29400000      48.54910000
C       48.48740000      56.89170000      49.20400000
C       49.41970000      51.52970000      42.89300000
C       50.78870000      51.58950000      56.94170000
C       50.72380000      48.33890000      42.96780000
C       57.15830000      50.72660000      51.42710000
C       42.91850000      50.78270000      48.42810000
C       42.96350000      49.40250000      51.61420000
C       48.35000000      43.06260000      50.80580000
C       51.51370000      42.87120000      49.35800000
C       51.53170000      57.23560000      50.76530000
C       50.87080000      48.43820000      56.89380000
C       42.94050000      49.36540000      48.45400000
C       51.53840000      57.20930000      49.35620000
C       50.83680000      51.52090000      42.89390000
C       49.36090000      51.52230000      56.99100000
C       49.30090000      48.39770000      43.10740000
C       43.05200000      50.83140000      51.61900000
C       56.68080000      50.74220000      48.55050000
C       57.17290000      49.31980000      51.42500000
C       51.53530000      42.84960000      50.77560000
C       48.35410000      42.96960000      49.37670000
C       48.46730000      56.96840000      50.63890000
