240
Lattice="100.0 0.0 0.0 0.0 100.0 0.0 0.0 0.0 100.0" Properties=species:S:1:pos:R:3 name=C-97510-5923-647 pressure=-0.0127157975559861 spacegroup=Td times_found=1 energy=-1735.79857646561 pbc="T T T"
C       45.02460000      55.92820000      49.17900000
C       49.17900000      45.02460000      55.92820000
C       55.92730000      49.17800000      45.02360000
C       54.97650000      55.92740000      50.82020000
C       45.02370000      44.07270000      50.82200000
C       54.97530000      44.07170000      49.17880000
C       50.82010000      45.02370000      44.07240000
C       49.17880000      54.97560000      44.07190000
C       50.82210000      54.97620000      55.92740000
C       44.07260000      49.17980000      54.97650000
C       55.92840000      50.82090000      54.97530000
C       44.07180000      50.82130000      45.02460000
C       49.17900000      55.92760000      45.02380000
C       55.92730000      45.02350000      49.17870000
C       45.02460000      49.17970000      55.92830000
C       50.82210000      55.92810000      54.97540000
C       50.82010000      44.07180000      45.02440000
C       49.17880000      44.07260000      54.97640000
C       44.07180000      45.02470000      50.82200000
C       44.07260000      54.97640000      49.17910000
C       55.92840000      54.97540000      50.82020000
C       54.97520000      49.17810000      44.07180000
C       54.97650000      50.82100000      55.92730000
C       45.02360000      50.82120000      44.07260000
C       53.04730000      44.91680000      45.94110000
C       45.94090000      53.04820000      44.91760000
C       44.91730000      45.94170000      53.04890000
C       46.95180000      44.91790000      54.05950000
C       53.04900000      55.08260000      54.05830000
C       46.95200000      55.08260000      45.94100000
C       54.05970000      53.04810000      55.08200000
C       45.94130000      46.95260000      55.08320000
C       54.05820000      46.95120000      44.91720000
C       55.08190000      45.94040000      46.95170000
C       44.91750000      54.05920000      46.95210000
C       55.08330000      54.05870000      53.04740000
C       45.94090000      44.91800000      53.04880000
C       44.91730000      53.04830000      45.94140000
C       53.04730000      45.94050000      44.91740000
C       54.05820000      44.91680000      46.95180000
C       54.05970000      55.08240000      53.04740000
C       45.94130000      55.08280000      46.95190000
C       55.08330000      53.04790000      54.05820000
C       55.08190000      46.95110000      45.94080000
C       44.91750000      46.95260000      54.05960000
C       46.95200000      45.94170000      55.08320000
C       46.95180000      54.05890000      44.91740000
C       53.04900000      54.05900000      55.08210000
C       49.41270000      51.59420000      57.14800000
C       57.14810000      49.41140000      51.59300000
C       51.59430000      57.14780000      49.41130000
C       50.58750000      51.59310000      42.85180000
C       49.41110000      48.40590000      42.85220000
C       50.58860000      48.40670000      57.14810000
C       42.85180000      49.41250000      48.40710000
C       57.14790000      50.58730000      48.40560000
C       42.85220000      50.58880000      51.59430000
C       48.40700000      57.14820000      50.58780000
C       51.59310000      42.85190000      50.58840000
C       48.40560000      42.85210000      49.41250000
C       57.14810000      51.59300000      49.41110000
C       51.59430000      49.41220000      57.14790000
C       49.41270000      57.14820000      51.59330000
C       42.85220000      51.59440000      50.58870000
C       42.85180000      48.40690000      49.41270000
C       57.14790000      48.40570000      50.58750000
C       48.40560000      49.41160000      42.85220000
C       48.40710000      50.58870000      57.14810000
C       51.59300000      50.58750000      42.85180000
C       50.58860000      57.14790000      48.40580000
C       50.58760000      42.85200000      51.59410000
C       49.41110000      42.85190000      48.40690000
C       49.23160000      48.22800000      56.90060000
C       56.90020000      49.23030000      48.22680000
C       48.22800000      56.90050000      49.23080000
C       50.76810000      48.22690000      43.09960000
C       49.23060000      51.77220000      43.09960000
C       50.76980000      51.77290000      56.90020000
C       43.09970000      49.23180000      51.77330000
C       56.90060000      50.76840000      51.77180000
C       43.09950000      50.76950000      48.22810000
C       51.77330000      56.90030000      50.76830000
C       48.22690000      43.09980000      50.76960000
C       51.77190000      43.09940000      49.23130000
C       56.90020000      48.22680000      49.23050000
C       48.22800000      49.23170000      56.90060000
C       49.23150000      56.90040000      48.22710000
C       43.09950000      48.22810000      50.76970000
C       43.09970000      51.77310000      49.23160000
C       56.90060000      51.77200000      50.76820000
C       51.77180000      49.23040000      43.09950000
C       51.77330000      50.76920000      56.90020000
C       48.22690000      50.76870000      43.09970000
C       50.76970000      56.90040000      51.77200000
C       50.76810000      43.09940000      48.22780000
C       49.23060000      43.09980000      51.77310000
C       46.94330000      49.05790000      56.40760000
C       56.40690000      46.94210000      49.05670000
C       49.05750000      56.40710000      46.94250000
C       53.05650000      49.05650000      43.59250000
C       46.94230000      50.94270000      43.59300000
C       53.05790000      50.94300000      56.40690000
C       43.59250000      46.94340000      50.94370000
C       56.40760000      53.05670000      50.94200000
C       43.59290000      53.05770000      49.05760000
C       50.94370000      56.40740000      53.05670000
C       49.05690000      43.59300000      53.05770000
C       50.94200000      43.59250000      46.94310000
C       56.40690000      49.05640000      46.94220000
C       49.05750000      46.94330000      56.40760000
C       46.94330000      56.40750000      49.05700000
C       43.59290000      49.05790000      53.05790000
C       43.59250000      50.94320000      46.94330000
C       56.40760000      50.94250000      53.05650000
C       50.94200000      46.94230000      43.59280000
C       50.94370000      53.05750000      56.40700000
C       49.05680000      53.05690000      43.59260000
C       53.05790000      56.40700000      50.94210000
C       53.05650000      43.59240000      49.05730000
C       46.94230000      43.59310000      50.94360000
C       48.49400000      53.58800000      55.74590000
C       55.74620000      48.49290000      53.58700000
C       53.58790000      55.74560000      48.49240000
C       51.50660000      53.58700000      44.25360000
C       48.49230000      46.41230000      44.25440000
C       51.50710000      46.41280000      55.74610000
C       44.25350000      48.49340000      46.41320000
C       55.74580000      51.50610000      46.41190000
C       44.25450000      51.50760000      53.58790000
C       46.41320000      55.74640000      51.50680000
C       53.58710000      44.25380000      51.50690000
C       46.41180000      44.25420000      48.49390000
C       55.74620000      53.58690000      48.49240000
C       53.58790000      48.49320000      55.74570000
C       48.49400000      55.74640000      53.58730000
C       44.25450000      53.58810000      51.50720000
C       44.25350000      46.41290000      48.49390000
C       55.74580000      46.41210000      51.50650000
C       46.41180000      48.49310000      44.25440000
C       46.41320000      51.50750000      55.74620000
C       53.58710000      51.50610000      44.25360000
C       51.50700000      55.74560000      46.41200000
C       51.50670000      44.25410000      53.58770000
C       48.49230000      44.25390000      46.41300000
C       45.31380000      47.38260000      46.33930000
C       46.33800000      45.31450000      47.38310000
C       47.38160000      46.33860000      45.31480000
C       54.68580000      47.38220000      53.66110000
C       45.31490000      52.61820000      53.66160000
C       54.68550000      52.61690000      46.33800000
C       53.66120000      45.31420000      52.61750000
C       46.33930000      54.68620000      52.61760000
C       53.66150000      54.68520000      47.38180000
C       52.61770000      46.33870000      54.68560000
C       47.38320000      53.66190000      54.68570000
C       52.61750000      53.66080000      45.31390000
C       46.33800000      47.38250000      45.31490000
C       47.38170000      45.31430000      46.33920000
C       45.31380000      46.33890000      47.38310000
C       53.66150000      47.38240000      54.68550000
C       53.66110000      52.61690000      45.31380000
C       46.33930000      52.61820000      54.68580000
C       52.61750000      45.31430000      53.66140000
C       52.61770000      54.68520000      46.33810000
C       47.38320000      54.68610000      53.66130000
C       54.68560000      46.33840000      52.61740000
C       54.68570000      53.66070000      47.38170000
C       45.31490000      53.66190000      52.61780000
C       53.99790000      48.08030000      44.04320000
C       44.04370000      53.99900000      48.08140000
C       48.08090000      44.04390000      53.99920000
C       46.00180000      48.08180000      55.95700000
C       53.99940000      51.91900000      55.95600000
C       46.00100000      51.91890000      44.04370000
C       55.95710000      53.99820000      51.91810000
C       44.04330000      46.00200000      51.91980000
C       55.95600000      46.00070000      48.08070000
C       51.91800000      44.04300000      46.00160000
C       48.08120000      55.95640000      46.00120000
C       51.91990000      55.95660000      53.99810000
C       44.04370000      48.08190000      53.99930000
C       48.08080000      53.99840000      44.04340000
C       53.99790000      44.04300000      48.08110000
C       55.95600000      48.08020000      46.00090000
C       55.95710000      51.91870000      53.99790000
C       44.04330000      51.91920000      46.00180000
C       51.91990000      53.99880000      55.95610000
C       51.91800000      46.00080000      44.04360000
C       48.08130000      46.00190000      55.95700000
C       46.00100000      44.04400000      51.91970000
C       46.00170000      55.95680000      48.08100000
C       53.99940000      55.95630000      51.91820000
C       43.30030000      47.42170000      48.41480000
C       48.41310000      43.30070000      47.42180000
C       47.42050000      48.41370000      43.30100000
C       56.69920000      47.42070000      51.58560000
C       43.30110000      52.57950000      51.58650000
C       56.69940000      52.57800000      48.41310000
C       51.58570000      43.30070000      52.57900000
C       48.41480000      56.69960000      52.57850000
C       51.58640000      56.69900000      47.42070000
C       52.57930000      48.41420000      56.69920000
C       47.42200000      51.58670000      56.69950000
C       52.57830000      51.58540000      43.30030000
C       48.41310000      47.42090000      43.30100000
C       47.42050000      43.30080000      48.41460000
C       43.30030000      48.41440000      47.42200000
C       51.58650000      47.42150000      56.69930000
C       51.58560000      52.57820000      43.30040000
C       48.41480000      52.57930000      56.69930000
C       52.57830000      43.30060000      51.58620000
C       52.57920000      56.69900000      48.41330000
C       47.42200000      56.69970000      51.58590000
C       56.69940000      48.41350000      52.57820000
C       56.69920000      51.58530000      47.42050000
C       43.30110000      51.58680000      52.57930000
C       56.11480000      49.80960000      53.95720000
C       53.95830000      56.11410000      49.80910000
C       49.81080000      53.95820000      56.11420000
C       43.88520000      49.81020000      46.04290000
C       56.11410000      50.18930000      46.04170000
C       43.88590000      50.19090000      53.95830000
C       46.04280000      56.11480000      50.19010000
C       53.95720000      43.88520000      50.19020000
C       46.04170000      43.88590000      49.81060000
C       50.18990000      53.95730000      43.88530000
C       49.80890000      46.04190000      43.88580000
C       50.19040000      46.04260000      56.11470000
C       53.95830000      49.80990000      56.11410000
C       49.81080000      56.11470000      53.95740000
C       56.11480000      53.95720000      49.80900000
C       46.04170000      49.80980000      43.88590000
C       46.04290000      50.19090000      56.11480000
C       53.95720000      50.18940000      43.88520000
C       50.19030000      56.11420000      46.04180000
C       50.18990000      43.88580000      53.95810000
C       49.80890000      43.88530000      46.04270000
C       43.88590000      53.95830000      50.19050000
C       43.88520000      46.04280000      49.81070000
C       56.11410000      46.04170000      50.18980000
