240
Lattice="100.0 0.0 0.0 0.0 100.0 0.0 0.0 0.0 100.0" Properties=species:S:1:pos:R:3 name=C-97510-5923-857 pressure=6.8245472822988 energy=-1713.073145747 spacegroup=Th times_found=1 pbc="T T T"
C       54.05730000      45.14840000      55.17500000
C       55.17630000      54.05870000      45.15100000
C       45.14980000      55.17520000      54.05870000
C       54.05760000      54.85150000      44.82510000
C       45.94250000      54.84890000      55.17740000
C       45.94250000      45.15130000      44.82240000
C       55.17610000      45.94120000      54.84920000
C       44.82380000      45.94390000      45.14870000
C       44.82380000      54.05620000      54.85120000
C       45.14980000      44.82490000      45.94110000
C       54.85000000      44.82270000      54.05620000
C       54.85030000      55.17720000      45.94400000
C       45.94240000      45.14850000      55.17490000
C       44.82390000      54.05880000      45.15080000
C       54.85020000      55.17510000      54.05890000
C       45.94270000      54.85160000      44.82500000
C       54.05740000      54.84880000      55.17750000
C       54.05750000      45.15110000      44.82260000
C       44.82370000      45.94130000      54.84900000
C       55.17620000      45.94380000      45.14880000
C       55.17620000      54.05610000      54.85130000
C       54.85020000      44.82480000      45.94120000
C       45.14970000      44.82280000      54.05600000
C       45.15000000      55.17730000      45.94380000
C       45.59380000      48.32590000      55.03600000
C       55.03640000      45.59430000      48.32600000
C       48.32730000      55.03760000      45.59520000
C       45.59400000      51.67430000      44.96390000
C       54.40600000      51.67150000      55.03700000
C       54.40620000      48.32840000      44.96320000
C       55.03650000      54.40560000      51.67410000
C       44.96360000      54.40660000      48.32820000
C       44.96350000      45.59350000      51.67160000
C       48.32700000      44.96240000      54.40470000
C       51.67290000      44.96470000      45.59260000
C       51.67290000      55.03530000      54.40740000
C       54.40600000      48.32570000      55.03610000
C       44.96350000      45.59440000      48.32590000
C       51.67300000      55.03760000      45.59530000
C       54.40620000      51.67420000      44.96410000
C       45.59390000      51.67160000      55.03680000
C       45.59400000      48.32850000      44.96300000
C       44.96360000      54.40570000      51.67400000
C       55.03650000      54.40650000      48.32840000
C       55.03640000      45.59340000      51.67180000
C       51.67270000      44.96240000      54.40480000
C       48.32710000      44.96470000      45.59250000
C       48.32710000      55.03530000      54.40740000
C       53.01250000      55.62530000      52.51880000
C       52.51730000      53.01090000      55.62680000
C       55.62590000      52.51640000      53.01320000
C       53.01240000      44.37470000      47.48130000
C       46.98750000      44.37340000      52.51580000
C       46.98770000      55.62670000      47.48410000
C       52.51740000      46.98900000      44.37330000
C       47.48260000      46.98610000      55.62510000
C       47.48280000      53.01390000      44.37480000
C       55.62600000      47.48340000      46.98700000
C       44.37400000      47.48200000      53.01170000
C       44.37410000      52.51820000      46.98810000
C       46.98760000      55.62530000      52.51870000
C       47.48260000      53.01100000      55.62670000
C       44.37400000      52.51660000      53.01300000
C       46.98750000      44.37470000      47.48120000
C       53.01230000      44.37330000      52.51590000
C       53.01250000      55.62660000      47.48420000
C       47.48270000      46.98910000      44.37320000
C       52.51720000      46.98610000      55.62520000
C       52.51740000      53.01390000      44.37490000
C       44.37410000      47.48360000      46.98680000
C       55.62590000      47.48180000      53.01190000
C       55.62600000      52.51800000      46.98830000
C       49.29340000      44.14650000      48.06220000
C       48.06390000      49.29500000      44.14580000
C       44.14600000      48.06400000      49.29290000
C       49.29350000      55.85350000      51.93780000
C       50.70660000      55.85450000      48.06530000
C       50.70640000      44.14550000      51.93470000
C       48.06370000      50.70500000      55.85420000
C       51.93630000      50.70800000      44.14620000
C       51.93610000      49.29190000      55.85390000
C       44.14600000      51.93610000      50.70690000
C       55.85400000      51.93630000      49.29410000
C       55.85400000      48.06350000      50.70610000
C       50.70650000      44.14650000      48.06220000
C       51.93630000      49.29500000      44.14580000
C       55.85400000      48.06390000      49.29310000
C       50.70660000      55.85350000      51.93780000
C       49.29360000      55.85450000      48.06530000
C       49.29340000      44.14550000      51.93470000
C       51.93610000      50.70500000      55.85420000
C       48.06390000      50.70810000      44.14610000
C       48.06370000      49.29200000      55.85380000
C       55.85400000      51.93600000      50.70710000
C       44.14600000      51.93650000      49.29390000
C       44.14600000      48.06370000      50.70590000
C       47.09690000      43.72830000      51.29980000
C       51.30160000      47.09860000      43.72780000
C       43.72870000      51.30240000      47.09720000
C       47.09710000      56.27180000      48.70010000
C       52.90310000      56.27100000      51.30320000
C       52.90300000      43.72890000      48.69680000
C       51.30150000      52.90140000      56.27220000
C       48.69860000      52.90470000      43.72930000
C       48.69830000      47.09530000      56.27060000
C       43.72850000      48.69780000      52.90260000
C       56.27140000      48.69910000      47.09670000
C       56.27140000      51.30070000      52.90350000
C       52.90290000      43.72820000      51.29990000
C       48.69850000      47.09860000      43.72780000
C       56.27150000      51.30220000      47.09740000
C       52.90310000      56.27170000      48.70010000
C       47.09700000      56.27110000      51.30320000
C       47.09690000      43.72900000      48.69670000
C       48.69840000      52.90140000      56.27220000
C       51.30170000      52.90470000      43.72940000
C       51.30140000      47.09530000      56.27070000
C       56.27130000      48.69760000      52.90280000
C       43.72860000      48.69930000      47.09650000
C       43.72860000      51.30090000      52.90330000
C       50.71170000      44.86800000      55.38110000
C       55.38250000      50.71310000      44.86970000
C       44.86950000      55.38230000      50.71320000
C       50.71200000      55.13200000      44.61890000
C       49.28810000      55.12910000      55.38380000
C       49.28820000      44.87090000      44.61620000
C       55.38230000      49.28670000      55.13040000
C       44.61770000      49.28960000      44.86920000
C       44.61750000      50.71060000      55.13070000
C       44.86940000      44.61780000      49.28660000
C       55.13050000      44.61730000      50.71050000
C       55.13060000      55.38250000      49.28960000
C       49.28800000      44.86800000      55.38110000
C       44.61770000      50.71330000      44.86960000
C       55.13060000      55.38220000      50.71340000
C       49.28830000      55.13200000      44.61890000
C       50.71180000      55.12910000      55.38380000
C       50.71190000      44.87090000      44.61620000
C       44.61750000      49.28690000      55.13030000
C       55.38250000      49.28940000      44.86930000
C       55.38240000      50.71040000      55.13080000
C       55.13050000      44.61770000      49.28680000
C       44.86940000      44.61750000      50.71040000
C       44.86950000      55.38270000      49.28950000
C       48.29370000      44.49390000      46.93300000
C       46.93450000      48.29520000      44.49260000
C       44.49300000      46.93500000      48.29280000
C       48.29370000      55.50620000      53.06700000
C       51.70640000      55.50770000      46.93590000
C       51.70620000      44.49220000      53.06410000
C       46.93440000      51.70490000      55.50740000
C       53.06570000      51.70770000      44.49360000
C       53.06540000      48.29220000      55.50660000
C       44.49310000      53.06520000      51.70700000
C       55.50700000      53.06590000      48.29460000
C       55.50690000      46.93390000      51.70560000
C       51.70630000      44.49380000      46.93300000
C       53.06560000      48.29510000      44.49270000
C       55.50690000      46.93480000      48.29300000
C       51.70630000      55.50610000      53.06700000
C       48.29380000      55.50780000      46.93590000
C       48.29360000      44.49230000      53.06410000
C       53.06550000      51.70480000      55.50740000
C       46.93460000      51.70780000      44.49350000
C       46.93430000      48.29230000      55.50640000
C       55.50700000      53.06500000      51.70720000
C       44.49310000      53.06610000      48.29440000
C       44.49300000      46.93410000      51.70540000
C       50.73650000      48.44240000      43.76690000
C       43.76740000      50.73700000      48.44080000
C       48.44060000      43.76720000      50.73480000
C       50.73640000      51.55760000      56.23310000
C       49.26370000      51.56090000      43.76770000
C       49.26340000      48.43910000      56.23230000
C       43.76730000      49.26320000      51.55900000
C       56.23270000      49.26390000      48.44060000
C       56.23260000      50.73600000      51.55960000
C       48.44080000      56.23290000      49.26520000
C       51.55930000      56.23250000      50.73810000
C       51.55920000      43.76750000      49.26190000
C       49.26360000      48.44240000      43.76690000
C       56.23270000      50.73680000      48.44100000
C       51.55920000      43.76710000      50.73480000
C       49.26350000      51.55770000      56.23310000
C       50.73660000      51.56090000      43.76780000
C       50.73630000      48.43910000      56.23230000
C       56.23260000      49.26300000      51.55920000
C       43.76730000      49.26400000      48.44040000
C       43.76730000      50.73610000      51.55940000
C       51.55940000      56.23290000      49.26520000
C       48.44080000      56.23250000      50.73810000
C       48.44070000      43.76750000      49.26190000
C       45.69630000      55.05810000      52.79890000
C       52.79750000      45.69490000      55.05770000
C       55.05890000      52.79870000      45.69710000
C       45.69620000      44.94210000      47.20100000
C       54.30370000      44.94040000      52.79630000
C       54.30390000      55.05940000      47.20380000
C       52.79770000      54.30510000      44.94250000
C       47.20240000      54.30250000      55.05980000
C       47.20240000      45.69760000      44.94010000
C       55.05860000      47.20120000      54.30310000
C       44.94130000      47.20360000      45.69540000
C       44.94120000      52.79650000      54.30440000
C       54.30380000      55.05790000      52.79900000
C       47.20230000      45.69500000      55.05750000
C       44.94140000      52.79880000      45.69690000
C       54.30380000      44.94190000      47.20110000
C       45.69610000      44.94060000      52.79620000
C       45.69630000      55.05950000      47.20370000
C       47.20250000      54.30510000      44.94230000
C       52.79760000      54.30240000      55.05990000
C       52.79760000      45.69750000      44.94020000
C       44.94120000      47.20130000      54.30300000
C       55.05880000      47.20350000      45.69560000
C       55.05870000      52.79640000      54.30460000
C       49.30080000      54.13130000      56.47090000
C       56.46970000      49.29960000      54.13290000
C       54.13310000      56.46990000      49.30260000
C       49.30090000      45.86870000      43.52910000
C       50.69900000      45.86530000      56.46870000
C       50.69930000      54.13470000      43.53130000
C       56.46990000      50.70020000      45.86730000
C       43.53010000      50.69820000      54.13310000
C       43.53030000      49.30200000      45.86670000
C       54.13290000      43.53000000      50.69750000
C       45.86690000      43.53040000      49.29900000
C       45.86700000      56.46970000      50.70080000
C       50.69910000      54.13130000      56.47090000
C       43.53010000      49.29980000      54.13280000
C       45.86710000      56.47000000      49.30250000
C       50.69920000      45.86870000      43.52910000
C       49.30070000      45.86530000      56.46870000
C       49.30100000      54.13470000      43.53130000
C       43.53030000      50.70030000      45.86710000
C       56.46970000      50.69800000      54.13330000
C       56.46990000      49.30180000      45.86690000
C       45.86690000      43.53010000      50.69740000
C       54.13300000      43.53030000      49.29920000
C       54.13310000      56.46960000      50.70090000
