240
Lattice="100.0 0.0 0.0 0.0 100.0 0.0 0.0 0.0 100.0" Properties=species:S:1:pos:R:3 name=C-97510-5923-1111 pressure=-27.9275150590248 energy=-1792.85011506628 spacegroup=C1 times_found=1 pbc="T T T"
C       47.12400000      48.80270000      43.90690000
C       43.47080000      46.94360000      48.96340000
C       49.46110000      44.24720000      46.38410000
C       52.57120000      50.65420000      43.56170000
C       53.41880000      49.76130000      56.04020000
C       46.74960000      50.46330000      55.64610000
C       55.71380000      53.44280000      49.65990000
C       55.46490000      46.87810000      50.46570000
C       44.24360000      52.74350000      51.09430000
C       50.80200000      55.67090000      47.64900000
C       50.80390000      44.36990000      52.61660000
C       49.76590000      56.00920000      53.62820000
C       47.19880000      49.03640000      55.84350000
C       43.78450000      46.50220000      50.33320000
C       49.38690000      44.52760000      53.13910000
C       52.99630000      51.10250000      56.43720000
C       52.56810000      49.21150000      43.53560000
C       46.61540000      50.18200000      44.13750000
C       56.09630000      53.06450000      51.05150000
C       55.83940000      47.26490000      49.07650000
C       44.50650000      53.18830000      49.68120000
C       51.14550000      56.27120000      53.15520000
C       50.86600000      44.06580000      46.92800000
C       49.29520000      55.68920000      47.62590000
C       51.40430000      53.61170000      44.46730000
C       44.76980000      51.28920000      53.96840000
C       53.64260000      45.00290000      51.14380000
C       48.70170000      45.99960000      44.45520000
C       49.02530000      54.12170000      55.42040000
C       51.35060000      46.10530000      55.76820000
C       55.17840000      49.10260000      54.11050000
C       55.38490000      51.27620000      46.03110000
C       44.22520000      48.14900000      46.05670000
C       46.09500000      55.83130000      51.62250000
C       45.64530000      44.16210000      48.22800000
C       53.81470000      55.21080000      48.98360000
C       51.80830000      54.07430000      56.00260000
C       44.81600000      50.92850000      46.01690000
C       53.71030000      44.47540000      48.33620000
C       48.62510000      46.16340000      55.18770000
C       48.74160000      53.78920000      44.37800000
C       51.50300000      46.20010000      44.05910000
C       55.36600000      48.41440000      46.05150000
C       55.63830000      51.99020000      54.07490000
C       44.10210000      48.57770000      53.99940000
C       46.26560000      55.11840000      48.93000000
C       45.62960000      44.67210000      51.05180000
C       53.97800000      55.86760000      51.77000000
C       50.74230000      57.15250000      49.54270000
C       49.35990000      50.83770000      57.12260000
C       56.91640000      49.48460000      50.84780000
C       48.98020000      42.93550000      49.09490000
C       49.28170000      57.37820000      50.92480000
C       50.38930000      43.24400000      50.53910000
C       50.65540000      49.30560000      57.29370000
C       50.51930000      50.66970000      42.32080000
C       49.05290000      49.23270000      42.53270000
C       42.97930000      50.74120000      50.66870000
C       42.72150000      49.20830000      49.31120000
C       57.01180000      50.76030000      49.28430000
C       50.71950000      57.31390000      50.97970000
C       49.08400000      50.68190000      42.48080000
C       56.92450000      49.33750000      49.40570000
C       48.95480000      43.08080000      50.52750000
C       49.31840000      57.20180000      49.48660000
C       50.41040000      43.09940000      49.10850000
C       50.48220000      49.24300000      42.34470000
C       50.77810000      50.74110000      57.33170000
C       49.23270000      49.40080000      57.07040000
C       42.98070000      50.61830000      49.23060000
C       42.70370000      49.32660000      50.74990000
C       57.01980000      50.90550000      50.72730000
C       53.42800000      55.80320000      54.26530000
C       54.21240000      53.27510000      56.25320000
C       55.94510000      54.42000000      53.22400000
C       46.90130000      44.45350000      53.19850000
C       47.12140000      54.88710000      46.47690000
C       53.15540000      44.57780000      45.84450000
C       46.10880000      46.78960000      55.11540000
C       46.56480000      52.65260000      44.06350000
C       53.87020000      47.17980000      43.93820000
C       43.75210000      46.47870000      52.77630000
C       44.58460000      53.13560000      47.20830000
C       55.65590000      45.96650000      46.88340000
C       52.99490000      54.95390000      46.50430000
C       53.79170000      52.68950000      44.18370000
C       55.69520000      53.46030000      47.21690000
C       47.00390000      43.96650000      46.15320000
C       47.32180000      56.12310000      53.71980000
C       53.07040000      45.03680000      53.68690000
C       46.15410000      46.50630000      44.54210000
C       46.81660000      52.94390000      55.67760000
C       53.45660000      47.32430000      56.07760000
C       43.80070000      45.73450000      46.77320000
C       44.93440000      53.81000000      53.36460000
C       55.42980000      46.90700000      52.91420000
C       49.33830000      52.72040000      43.66350000
C       43.67920000      49.34190000      52.88370000
C       52.51040000      44.16320000      49.03510000
C       50.69310000      47.27780000      43.59710000
C       51.05900000      52.90980000      56.36920000
C       49.19220000      47.27490000      55.94500000
C       56.03340000      51.21200000      52.92550000
C       55.90570000      49.12290000      47.19790000
C       44.06410000      50.33180000      47.11210000
C       47.32120000      55.92150000      49.48890000
C       46.72530000      43.98010000      50.42940000
C       52.77500000      56.16840000      51.08240000
C       49.62980000      52.99830000      56.11830000
C       43.77550000      48.90530000      47.18700000
C       52.49490000      44.36090000      50.51250000
C       50.60380000      47.21190000      56.24300000
C       50.74650000      52.60030000      43.69500000
C       49.24120000      47.18190000      43.78630000
C       55.94700000      50.57660000      47.13450000
C       55.85470000      49.75390000      53.00430000
C       44.02460000      50.74530000      52.83520000
C       47.21000000      56.28900000      50.88560000
C       46.75570000      43.76750000      49.00000000
C       52.71250000      55.88030000      49.61960000
C       54.71430000      46.40630000      44.79910000
C       44.85220000      54.48380000      47.17380000
C       46.91830000      44.62800000      54.56050000
C       45.71070000      53.09230000      45.13660000
C       44.94300000      46.31920000      54.46500000
C       55.03580000      54.04200000      55.34320000
C       55.37510000      44.60540000      46.59700000
C       55.65230000      55.78240000      53.49210000
C       44.77600000      45.54150000      53.22400000
C       53.98750000      55.09230000      55.34870000
C       53.70730000      45.31710000      44.77360000
C       46.56960000      54.29790000      45.32460000
C       54.36110000      46.90690000      55.02140000
C       45.61050000      54.95400000      53.85670000
C       47.06110000      44.31140000      44.81950000
C       45.44970000      52.96880000      55.52100000
C       44.98430000      45.97200000      45.10780000
C       54.61550000      53.39310000      45.12380000
C       55.22290000      45.54080000      52.87690000
C       55.30170000      54.78840000      47.20530000
C       44.78600000      44.90180000      46.07950000
C       53.55140000      54.39230000      45.34530000
C       53.58150000      45.65990000      54.85400000
C       46.86660000      55.07650000      54.62110000
C       49.36700000      54.51140000      45.45290000
C       45.13260000      49.02930000      54.82080000
C       54.63510000      45.31610000      48.97000000
C       50.97920000      45.25940000      44.94910000
C       51.24920000      55.02860000      55.12480000
C       49.50120000      45.28630000      54.41450000
C       54.91090000      51.30150000      55.08500000
C       54.62010000      49.17310000      45.04260000
C       45.46820000      50.06960000      45.06460000
C       45.31070000      54.43330000      49.78680000
C       44.62830000      45.27590000      50.21630000
C       54.89960000      55.02170000      51.13670000
C       49.87790000      55.09490000      54.79300000
C       45.16580000      48.69700000      45.16010000
C       54.58480000      45.69390000      50.31400000
C       50.86730000      45.31520000      54.72780000
C       50.77500000      54.44990000      45.48300000
C       49.59530000      45.13120000      45.19720000
C       54.61510000      50.58190000      45.04230000
C       54.57030000      49.92530000      55.10140000
C       45.48930000      50.38680000      54.86040000
C       45.29290000      54.79870000      51.14260000
C       44.62340000      44.90820000      48.85320000
C       54.82280000      54.60940000      49.79930000
C       47.22120000      45.88190000      55.08420000
C       55.40330000      46.96660000      45.87980000
C       46.12880000      54.93300000      47.52210000
C       53.17940000      54.27600000      56.22170000
C       52.89480000      46.11980000      43.90570000
C       47.37410000      53.84500000      44.23930000
C       44.97510000      52.36410000      46.06650000
C       43.89710000      47.20350000      54.00340000
C       55.71200000      53.45160000      54.25640000
C       54.04510000      44.29680000      46.92080000
C       54.31910000      56.07220000      53.18150000
C       45.71690000      44.82970000      52.48290000
C       47.29960000      45.63580000      44.46700000
C       55.05390000      47.65720000      54.07160000
C       46.08060000      56.01760000      53.00130000
C       52.76460000      53.69990000      44.36990000
C       52.72920000      46.09560000      55.93440000
C       47.58730000      54.09420000      55.29950000
C       44.92040000      52.68780000      54.26110000
C       44.01260000      46.78800000      45.82140000
C       55.36910000      52.70550000      46.06390000
C       53.94730000      45.05810000      52.55890000
C       53.97520000      55.09140000      47.55180000
C       45.74990000      44.18410000      46.79500000
C       44.24860000      52.51630000      48.43630000
C       48.13040000      44.20420000      52.52430000
C       53.70230000      48.54150000      44.11510000
C       55.50480000      46.18570000      48.25730000
C       55.78210000      54.16720000      51.85500000
C       43.51590000      47.14440000      51.57410000
C       52.02010000      55.79300000      54.18640000
C       51.74740000      44.54990000      45.91580000
C       48.58510000      55.07990000      46.53370000
C       47.15780000      51.43340000      43.74890000
C       46.15740000      48.19080000      55.36080000
C       54.07240000      51.94360000      56.04730000
C       44.71530000      53.77640000      51.95970000
C       48.20200000      43.82830000      46.92890000
C       52.79930000      48.51900000      56.34630000
C       55.72780000      47.55890000      51.69770000
C       55.97810000      52.77940000      48.42570000
C       43.80800000      45.83120000      48.13400000
C       51.52860000      55.05880000      46.56350000
C       51.67140000      44.80690000      53.65940000
C       48.52300000      56.37640000      53.05300000
C       47.43640000      51.69500000      55.93520000
C       46.15850000      47.91920000      44.46270000
C       53.68780000      51.29720000      44.18970000
C       51.38590000      51.41090000      43.11930000
C       43.73350000      51.47460000      51.57110000
C       51.27060000      43.98920000      51.28780000
C       48.40000000      48.35180000      43.38370000
C       48.78110000      51.85750000      56.41630000
C       51.40270000      48.31390000      56.73620000
C       56.19900000      48.91020000      51.86510000
C       56.37240000      51.40250000      48.26020000
C       43.24730000      48.28010000      48.43280000
C       48.30310000      56.79980000      51.67590000
C       47.97660000      43.42600000      48.29980000
C       51.49980000      56.23140000      48.85570000
C       51.69000000      51.62970000      56.79490000
C       43.73840000      51.18450000      48.24220000
C       51.29740000      43.73470000      48.27700000
C       48.47560000      48.53130000      56.30270000
C       48.47330000      51.65710000      43.20210000
C       51.35030000      48.48480000      43.09460000
C       56.26920000      48.51630000      48.51670000
C       56.44680000      51.78890000      51.61300000
C       43.18960000      48.55980000      51.76620000
C       48.56050000      56.28620000      48.77620000
C       47.92680000      43.70950000      51.19210000
C       51.58380000      56.64540000      51.82460000
