240
Lattice="100.0 0.0 0.0 0.0 100.0 0.0 0.0 0.0 100.0" Properties=species:S:1:pos:R:3 name=C-97510-5923-584 pressure=1.49150628464082 energy=-1780.64300900634 spacegroup=Oh times_found=1 pbc="T T T"
C       53.63480000      47.38830000      45.32640000
C       47.38800000      45.32680000      53.63520000
C       45.32700000      53.63610000      47.38890000
C       46.36430000      47.38940000      54.67360000
C       46.36510000      52.61190000      45.32650000
C       53.63580000      52.61050000      54.67360000
C       52.61040000      45.32600000      46.36460000
C       52.61200000      54.67310000      53.63540000
C       47.38960000      54.67410000      46.36480000
C       54.67420000      53.63450000      52.61120000
C       54.67300000      46.36390000      47.38870000
C       45.32580000      46.36550000      52.61110000
C       53.63570000      52.61060000      45.32640000
C       47.38960000      54.67400000      53.63540000
C       45.32580000      46.36550000      47.38880000
C       46.36520000      52.61170000      54.67360000
C       46.36420000      47.38950000      45.32640000
C       53.63490000      47.38810000      54.67350000
C       52.61200000      54.67320000      46.36480000
C       52.61040000      45.32590000      53.63520000
C       47.38800000      45.32690000      46.36460000
C       54.67300000      46.36390000      52.61110000
C       54.67420000      53.63450000      47.38890000
C       45.32700000      53.63610000      52.61120000
C       46.36550000      54.67430000      47.38890000
C       54.67310000      47.38810000      46.36460000
C       47.38820000      46.36510000      54.67350000
C       53.63610000      54.67290000      52.61130000
C       53.63450000      45.32580000      47.38870000
C       46.36390000      45.32700000      52.61110000
C       45.32600000      47.38960000      53.63530000
C       45.32680000      52.61200000      46.36470000
C       54.67410000      52.61030000      53.63530000
C       52.61050000      46.36430000      45.32630000
C       52.61180000      53.63480000      54.67360000
C       47.38940000      53.63580000      45.32650000
C       46.36390000      45.32710000      47.38870000
C       54.67400000      52.61040000      46.36470000
C       47.38950000      53.63570000      54.67370000
C       53.63450000      45.32570000      52.61110000
C       53.63610000      54.67300000      47.38890000
C       46.36550000      54.67420000      52.61130000
C       45.32690000      52.61190000      53.63540000
C       45.32590000      47.38970000      46.36470000
C       54.67320000      47.38800000      53.63530000
C       52.61180000      53.63490000      45.32650000
C       52.61060000      46.36420000      54.67350000
C       47.38820000      46.36520000      45.32640000
C       46.38850000      44.38410000      48.53770000
C       44.38320000      48.53880000      46.38950000
C       48.53710000      46.38980000      44.38340000
C       53.60960000      44.38280000      51.46210000
C       53.61150000      55.61590000      48.53790000
C       46.39050000      55.61710000      51.46230000
C       55.61630000      48.53670000      53.61050000
C       55.61680000      51.46130000      46.38950000
C       44.38370000      51.46310000      53.61050000
C       51.46160000      46.38910000      55.61650000
C       51.46280000      53.61040000      44.38350000
C       48.53840000      53.61070000      55.61660000
C       46.39050000      55.61720000      48.53790000
C       44.38370000      51.46320000      46.38950000
C       48.53840000      53.61090000      44.38350000
C       53.61150000      55.61590000      51.46230000
C       53.60950000      44.38290000      48.53770000
C       46.38850000      44.38410000      51.46210000
C       55.61680000      51.46120000      53.61050000
C       55.61630000      48.53690000      46.38950000
C       44.38320000      48.53870000      53.61050000
C       51.46290000      53.61020000      55.61660000
C       51.46160000      46.38930000      44.38340000
C       48.53720000      46.38960000      55.61650000
C       56.81650000      51.40370000      48.59520000
C       51.40460000      48.59480000      56.81620000
C       48.59630000      56.81650000      51.40500000
C       43.18400000      51.40600000      51.40490000
C       43.18350000      48.59640000      48.59520000
C       56.81600000      48.59400000      51.40480000
C       48.59490000      48.59550000      43.18370000
C       48.59540000      51.40500000      56.81630000
C       51.40510000      51.40470000      43.18380000
C       51.40600000      56.81600000      48.59530000
C       51.40370000      43.18350000      51.40470000
C       48.59400000      43.18400000      48.59510000
C       56.81600000      48.59400000      48.59510000
C       51.40510000      51.40450000      56.81630000
C       48.59400000      43.18400000      51.40470000
C       43.18350000      48.59630000      51.40480000
C       43.18400000      51.40600000      48.59520000
C       56.81650000      51.40360000      51.40490000
C       48.59540000      51.40520000      43.18380000
C       48.59490000      48.59530000      56.81620000
C       51.40460000      48.59500000      43.18370000
C       51.40370000      43.18350000      48.59500000
C       51.40600000      56.81600000      51.40490000
C       48.59630000      56.81650000      48.59530000
C       50.72960000      45.22560000      55.77420000
C       45.22690000      55.77510000      50.73050000
C       55.77440000      50.72940000      45.22590000
C       49.26880000      45.22610000      44.22560000
C       49.27050000      54.77420000      55.77440000
C       50.73120000      54.77410000      44.22580000
C       54.77510000      55.77350000      49.26970000
C       54.77310000      44.22490000      50.73030000
C       45.22490000      44.22650000      49.26960000
C       44.22580000      50.73130000      54.77420000
C       44.22560000      49.27070000      45.22590000
C       55.77420000      49.26860000      54.77410000
C       50.73120000      54.77390000      55.77440000
C       45.22490000      44.22650000      50.73030000
C       55.77420000      49.26870000      45.22580000
C       49.27040000      54.77440000      44.22580000
C       49.26880000      45.22590000      55.77420000
C       50.72950000      45.22580000      44.22560000
C       54.77310000      44.22490000      49.26950000
C       54.77510000      55.77350000      50.73050000
C       45.22690000      55.77510000      49.26970000
C       44.22560000      49.27060000      54.77410000
C       44.22580000      50.73140000      45.22590000
C       55.77440000      50.72930000      54.77410000
C       43.69390000      49.25390000      47.43890000
C       49.25230000      47.43910000      43.69400000
C       47.43780000      43.69450000      49.25270000
C       56.30580000      49.25160000      52.56110000
C       56.30610000      50.74620000      47.43890000
C       43.69420000      50.74830000      52.56110000
C       50.74680000      47.43870000      56.30590000
C       50.74770000      52.56110000      43.69410000
C       49.25320000      52.56110000      56.30600000
C       52.56000000      43.69360000      50.74710000
C       52.56220000      56.30550000      49.25280000
C       47.44000000      56.30640000      50.74740000
C       43.69420000      50.74840000      47.43890000
C       49.25320000      52.56130000      43.69410000
C       47.44000000      56.30640000      49.25290000
C       56.30610000      50.74610000      52.56110000
C       56.30580000      49.25170000      47.43890000
C       43.69390000      49.25380000      52.56110000
C       50.74770000      52.56090000      56.30600000
C       50.74680000      47.43890000      43.69400000
C       49.25230000      47.43890000      56.30590000
C       52.56220000      56.30550000      50.74730000
C       52.56000000      43.69360000      49.25260000
C       47.43780000      43.69450000      50.74720000
C       50.71530000      42.19220000      50.71660000
C       42.19250000      50.71800000      50.71670000
C       50.71680000      50.71670000      42.19240000
C       49.28200000      42.19250000      49.28320000
C       49.28470000      57.80780000      50.71680000
C       50.71800000      57.80750000      49.28340000
C       57.80780000      50.71540000      49.28330000
C       57.80750000      49.28200000      50.71670000
C       42.19220000      49.28470000      49.28330000
C       49.28340000      50.71670000      57.80770000
C       49.28320000      49.28360000      42.19240000
C       50.71660000      49.28310000      57.80760000
C       50.71800000      57.80750000      50.71680000
C       42.19220000      49.28460000      50.71670000
C       50.71660000      49.28330000      42.19230000
C       49.28470000      57.80780000      49.28340000
C       49.28200000      42.19250000      50.71660000
C       50.71530000      42.19220000      49.28320000
C       57.80750000      49.28200000      49.28330000
C       57.80780000      50.71530000      50.71670000
C       42.19250000      50.71800000      49.28330000
C       49.28320000      49.28330000      57.80760000
C       49.28340000      50.71690000      42.19240000
C       50.71680000      50.71640000      57.80760000
C       55.77510000      54.77320000      49.26970000
C       54.77400000      49.26870000      55.77430000
C       49.27060000      55.77430000      54.77420000
C       44.22650000      54.77510000      50.73050000
C       44.22490000      45.22690000      49.26960000
C       55.77350000      45.22490000      50.73030000
C       45.22570000      49.27050000      44.22570000
C       45.22600000      50.73110000      55.77430000
C       54.77430000      50.72960000      44.22570000
C       50.73140000      55.77420000      45.22600000
C       50.72940000      44.22550000      54.77400000
C       49.26860000      44.22590000      45.22580000
C       55.77350000      45.22490000      49.26950000
C       54.77430000      50.72950000      55.77430000
C       49.26860000      44.22580000      54.77400000
C       44.22490000      45.22680000      50.73030000
C       44.22650000      54.77510000      49.26970000
C       55.77510000      54.77310000      50.73040000
C       45.22600000      50.73130000      44.22570000
C       45.22570000      49.27040000      55.77430000
C       54.77400000      49.26890000      44.22570000
C       50.72940000      44.22570000      45.22580000
C       50.73140000      55.77410000      54.77420000
C       49.27060000      55.77450000      45.22600000
C       56.30640000      52.56000000      49.25280000
C       52.56100000      49.25220000      56.30590000
C       49.25380000      56.30600000      52.56120000
C       43.69450000      52.56220000      50.74730000
C       43.69360000      47.44000000      49.25270000
C       56.30550000      47.43780000      50.74720000
C       47.43880000      49.25330000      43.69400000
C       47.43900000      50.74760000      56.30600000
C       52.56120000      50.74690000      43.69410000
C       50.74830000      56.30590000      47.43900000
C       50.74620000      43.69390000      52.56100000
C       49.25170000      43.69420000      47.43880000
C       56.30550000      47.43780000      49.25270000
C       52.56120000      50.74670000      56.30600000
C       49.25170000      43.69410000      52.56100000
C       43.69360000      47.44000000      50.74720000
C       43.69450000      52.56220000      49.25280000
C       56.30640000      52.56000000      50.74730000
C       47.43900000      50.74780000      43.69410000
C       47.43880000      49.25310000      56.30590000
C       52.56100000      49.25240000      43.69400000
C       50.74620000      43.69400000      47.43880000
C       50.74830000      56.30580000      52.56120000
C       49.25380000      56.30610000      47.43900000
C       46.38970000      51.46280000      55.61660000
C       51.46320000      55.61630000      46.38960000
C       55.61590000      46.38850000      51.46220000
C       53.61080000      51.46170000      44.38350000
C       53.61030000      48.53710000      55.61650000
C       46.38920000      48.53850000      44.38350000
C       48.53870000      55.61670000      53.61060000
C       48.53680000      44.38380000      46.38940000
C       51.46130000      44.38320000      53.61040000
C       44.38280000      46.39050000      48.53770000
C       44.38410000      53.61150000      51.46230000
C       55.61720000      53.60960000      48.53780000
C       46.38920000      48.53830000      55.61650000
C       51.46130000      44.38330000      46.38940000
C       55.61720000      53.60950000      51.46230000
C       53.61030000      48.53720000      44.38340000
C       53.61080000      51.46150000      55.61650000
C       46.38970000      51.46290000      44.38350000
C       48.53680000      44.38370000      53.61040000
C       48.53870000      55.61680000      46.38960000
C       51.46320000      55.61620000      53.61060000
C       44.38410000      53.61150000      48.53780000
C       44.38280000      46.39040000      51.46220000
C       55.61590000      46.38850000      48.53770000
