240
Lattice="100.0 0.0 0.0 0.0 100.0 0.0 0.0 0.0 100.0" Properties=species:S:1:pos:R:3 name=C-97510-5923-1446 pressure=-63.2893991090055 spacegroup=C1 times_found=1 energy=-1764.36786130115 pbc="T T T"
C       43.92780000      47.18580000      50.92770000
C       47.31100000      50.67380000      43.83980000
C       50.65240000      43.80900000      47.27270000
C       56.24860000      52.78350000      50.78640000
C       44.12000000      52.61570000      49.22950000
C       55.90920000      47.35530000      49.17110000
C       52.71630000      49.31220000      43.80670000
C       47.23090000      49.27350000      56.15290000
C       52.61540000      50.94050000      55.96770000
C       49.38720000      56.12750000      47.34620000
C       50.75310000      56.28020000      52.79040000
C       49.21030000      43.72190000      52.69490000
C       43.90590000      47.16590000      49.39790000
C       47.20420000      50.77120000      56.16820000
C       50.72270000      43.74530000      52.67410000
C       56.22070000      52.80070000      49.28240000
C       44.07800000      52.65010000      50.79700000
C       55.92840000      47.34130000      50.74160000
C       52.62510000      49.40570000      55.97870000
C       47.33320000      49.16660000      43.82380000
C       52.69350000      50.82140000      43.79950000
C       49.25020000      56.30140000      52.75910000
C       50.92870000      56.06630000      47.36690000
C       49.11120000      43.84790000      47.28430000
C       55.13740000      46.15880000      54.06390000
C       45.80200000      53.98300000      55.19720000
C       54.12410000      55.26710000      46.13420000
C       44.74430000      53.95560000      54.09120000
C       55.21910000      54.20850000      46.11030000
C       44.79650000      45.78790000      46.12680000
C       54.04790000      46.16920000      55.14360000
C       46.31760000      46.21770000      43.73730000
C       53.68090000      53.78710000      43.73640000
C       45.88210000      44.71890000      46.11680000
C       53.66160000      43.79450000      53.66140000
C       46.23830000      56.32090000      53.65590000
C       55.16400000      46.14880000      45.89170000
C       45.92770000      53.84950000      44.85290000
C       53.90630000      55.27770000      54.20670000
C       44.85800000      53.82850000      45.94470000
C       56.29960000      53.76980000      53.80140000
C       44.78230000      46.01050000      54.20670000
C       54.09060000      46.13200000      44.80430000
C       45.88410000      46.03840000      55.26990000
C       53.87840000      54.18950000      55.27220000
C       46.31180000      43.66760000      53.79130000
C       53.66080000      43.77010000      46.30330000
C       46.37030000      56.21010000      46.35460000
C       45.15060000      49.33310000      54.85190000
C       49.36200000      54.63340000      45.40830000
C       54.54240000      45.36110000      49.30050000
C       54.61750000      50.80320000      54.58550000
C       45.34680000      50.51560000      45.31190000
C       54.72010000      49.46930000      45.22940000
C       50.65770000      45.30840000      45.33700000
C       49.30190000      45.32140000      54.58930000
C       50.55500000      54.86480000      54.80540000
C       45.51570000      54.58990000      49.34310000
C       54.81000000      54.78620000      50.79600000
C       45.25180000      45.13940000      50.79400000
C       45.38940000      49.18370000      45.33430000
C       49.22080000      54.83830000      54.74520000
C       54.54700000      45.35860000      50.64180000
C       54.67900000      50.80270000      45.25910000
C       45.14350000      50.66070000      54.83950000
C       54.62850000      49.47180000      54.61190000
C       50.64220000      45.34190000      54.56750000
C       49.31580000      45.31010000      45.32220000
C       50.70240000      54.63020000      45.38700000
C       45.49060000      54.61380000      50.68200000
C       54.83900000      54.83600000      49.46060000
C       45.20720000      45.11290000      49.45890000
C       47.41800000      56.17490000      49.25480000
C       56.03990000      49.39220000      47.26670000
C       49.18400000      47.32210000      55.95170000
C       52.62140000      43.79850000      49.20470000
C       47.23710000      43.67290000      50.79480000
C       52.78970000      56.15170000      50.93550000
C       44.02820000      50.57430000      47.34800000
C       56.16410000      50.81840000      52.67190000
C       43.83250000      49.21750000      52.78470000
C       50.59240000      52.81420000      56.11190000
C       49.16110000      52.68950000      43.92910000
C       50.85600000      47.28710000      43.89930000
C       47.38320000      56.21380000      50.76840000
C       56.10240000      49.31360000      52.65020000
C       49.31700000      47.26000000      43.84070000
C       52.63690000      43.78310000      50.72250000
C       47.22540000      43.70020000      49.29060000
C       52.80830000      56.17350000      49.40570000
C       43.85260000      50.71430000      52.75330000
C       56.04430000      50.92730000      47.27320000
C       44.04450000      49.03800000      47.36110000
C       50.69850000      52.71800000      43.86110000
C       49.06550000      52.79770000      56.07800000
C       50.75270000      47.35500000      55.91100000
C       55.55780000      54.56350000      47.43830000
C       54.39150000      47.50300000      55.45400000
C       47.24060000      55.67510000      54.30610000
C       44.46690000      45.43310000      47.45810000
C       55.11180000      45.63930000      52.77540000
C       44.82410000      54.42930000      52.79030000
C       45.44350000      52.66240000      55.54560000
C       54.30110000      52.78680000      44.41150000
C       45.71620000      47.21310000      44.43530000
C       52.64350000      44.46330000      54.26160000
C       47.16610000      44.76800000      45.58600000
C       52.84170000      55.20380000      45.61560000
C       55.63170000      54.37690000      52.78560000
C       54.45510000      47.45940000      44.47280000
C       47.38630000      55.53690000      45.75700000
C       44.79670000      45.47370000      52.93200000
C       55.11580000      45.63110000      47.17260000
C       44.91220000      54.34420000      47.22550000
C       45.57030000      52.51850000      44.52830000
C       54.39210000      52.90900000      55.20060000
C       45.49860000      47.35490000      55.59920000
C       52.64530000      44.43320000      45.69810000
C       47.32280000      44.37950000      54.35240000
C       52.57370000      55.60420000      54.55660000
C       46.02280000      51.39280000      55.66340000
C       51.52440000      55.42300000      46.22780000
C       55.32060000      46.22790000      51.42510000
C       53.78130000      48.76790000      55.47300000
C       46.21020000      48.53860000      44.40660000
C       53.82700000      51.45270000      44.36280000
C       48.49720000      44.51320000      46.16530000
C       51.31410000      44.39210000      53.78170000
C       48.59000000      55.73700000      53.87750000
C       44.67360000      53.78270000      51.46220000
C       55.68280000      53.98550000      48.70740000
C       44.38860000      45.99770000      48.74600000
C       46.15690000      51.25400000      44.42220000
C       51.31070000      55.72480000      53.97160000
C       55.31090000      46.22880000      48.51080000
C       53.88250000      48.73080000      44.36370000
C       46.05350000      48.63320000      55.67670000
C       53.75930000      51.59250000      55.37430000
C       48.63520000      44.35100000      53.82370000
C       51.30000000      44.39420000      46.16620000
C       48.72930000      55.55160000      46.23960000
C       44.72920000      53.73410000      48.56090000
C       55.69570000      53.91740000      51.44190000
C       44.52270000      46.04290000      51.59570000
C       48.47400000      48.53240000      56.48950000
C       48.62590000      56.63210000      48.52030000
C       56.42220000      48.58910000      48.46760000
C       51.37830000      51.60460000      56.48230000
C       48.48670000      51.45990000      43.41130000
C       51.53110000      48.52540000      43.39170000
C       51.42210000      43.32570000      48.45710000
C       48.45510000      43.22650000      51.51520000
C       51.54880000      56.66720000      51.59630000
C       43.62560000      51.37140000      48.54050000
C       56.66540000      51.54610000      51.48840000
C       43.45030000      48.44740000      51.57960000
C       48.54800000      48.44640000      43.36290000
C       48.54820000      56.72870000      51.52560000
C       56.48070000      48.54540000      51.43990000
C       51.46850000      51.54060000      43.36200000
C       48.40850000      51.53810000      56.55560000
C       51.43880000      48.60620000      56.39390000
C       51.46160000      43.27960000      51.47390000
C       48.42360000      43.31090000      48.50350000
C       51.61880000      56.57520000      48.60240000
C       43.52410000      51.44990000      51.50630000
C       56.57760000      51.58640000      48.50310000
C       43.53810000      48.37470000      48.60590000
C       50.73810000      49.28430000      42.55830000
C       49.24190000      42.43970000      50.69760000
C       42.75140000      50.64170000      49.29790000
C       49.27370000      50.70640000      42.56630000
C       50.65780000      50.77970000      57.30560000
C       49.24970000      49.31140000      57.30750000
C       50.80740000      57.47870000      50.76890000
C       49.39610000      57.46870000      49.29880000
C       50.66210000      42.48750000      49.24130000
C       57.30120000      49.30720000      49.22870000
C       42.66960000      49.22670000      50.75920000
C       57.42470000      50.72660000      50.67970000
C       50.68130000      49.33820000      57.26670000
C       49.22440000      42.47770000      49.25270000
C       42.70560000      50.67220000      50.72900000
C       49.22200000      50.75700000      57.34230000
C       50.70830000      50.72960000      42.55340000
C       49.30330000      49.26140000      42.55370000
C       50.83370000      57.43400000      49.32760000
C       49.36560000      57.51360000      50.73560000
C       50.67930000      42.45750000      50.68180000
C       57.33740000      49.28700000      50.66340000
C       42.71290000      49.20000000      49.32380000
C       57.38160000      50.74750000      49.24070000
C       51.25270000      53.97980000      55.63690000
C       53.91350000      55.52910000      51.59720000
C       55.57260000      51.44770000      53.79560000
C       48.51730000      46.18140000      55.37330000
C       51.47720000      46.16590000      44.55880000
C       48.54070000      53.79930000      44.60900000
C       46.11270000      44.24210000      51.43710000
C       53.74930000      44.41940000      48.62810000
C       46.29940000      55.54000000      48.67270000
C       44.32820000      48.60020000      53.97180000
C       55.54850000      48.75650000      46.10300000
C       44.51110000      51.21940000      46.18420000
C       51.34010000      53.83160000      44.44360000
C       53.95920000      55.66870000      48.75690000
C       55.43450000      51.59680000      46.14570000
C       48.67230000      46.13750000      44.40740000
C       51.42650000      46.22860000      55.31880000
C       48.40870000      53.94080000      55.47170000
C       46.05760000      44.25860000      48.71680000
C       53.75680000      44.41160000      51.31160000
C       46.25040000      55.59140000      51.34330000
C       44.63340000      48.38610000      46.21420000
C       55.52630000      48.73820000      53.80860000
C       44.32630000      51.36000000      53.92950000
C       45.78260000      55.50860000      47.35780000
C       55.48830000      47.47620000      45.52950000
C       47.18160000      45.55380000      55.20730000
C       54.25350000      44.46250000      47.30740000
C       45.67280000      44.31130000      52.78210000
C       54.46310000      55.25160000      52.93630000
C       44.54420000      52.49500000      45.59380000
C       55.56940000      52.75860000      54.33890000
C       44.43680000      47.33360000      54.55820000
C       52.54130000      54.54310000      55.58490000
C       47.21130000      54.38230000      44.87800000
C       52.81060000      45.59480000      44.82880000
C       45.69340000      55.59360000      52.64520000
C       55.45250000      47.48670000      54.41950000
C       47.33480000      45.64080000      44.42540000
C       54.25160000      44.46850000      52.63970000
C       45.50520000      44.38300000      47.44080000
C       54.50000000      55.59370000      47.46270000
C       44.40710000      52.64100000      54.47930000
C       55.18300000      52.93340000      45.57260000
C       44.84570000      47.06350000      45.60380000
C       52.66960000      54.34530000      44.44610000
C       47.07830000      54.51570000      55.18600000
C       52.77090000      45.64000000      55.11450000
