240
Lattice="100.0 0.0 0.0 0.0 100.0 0.0 0.0 0.0 100.0" Properties=species:S:1:pos:R:3 name=C-97510-5923-76 pressure=-0.0142523968670279 spacegroup=C1 times_found=1 energy=-1784.62009195012 pbc="T T T"
C       50.52850000      48.39220000      43.53180000
C       43.44870000      50.55780000      48.29910000
C       48.31870000      43.40050000      50.68990000
C       50.62300000      51.63460000      56.54850000
C       49.62560000      52.04300000      43.20300000
C       49.37440000      48.34620000      56.56160000
C       43.46380000      49.32480000      51.64930000
C       56.47690000      49.40690000      48.33660000
C       56.49230000      50.63940000      51.63560000
C       48.38490000      56.53470000      49.38470000
C       51.66490000      56.57630000      50.63810000
C       51.63240000      43.43590000      49.39630000
C       50.60390000      43.40810000      48.38060000
C       43.42280000      48.27940000      50.64980000
C       48.71140000      51.06840000      43.00110000
C       50.64130000      56.52820000      51.65850000
C       49.35420000      43.42810000      51.70060000
C       49.40870000      56.61480000      48.35920000
C       43.50230000      51.59130000      49.31070000
C       56.47540000      48.38020000      49.35560000
C       56.50210000      51.66890000      50.61930000
C       48.35310000      49.37000000      56.54990000
C       51.64520000      50.61230000      56.55420000
C       51.54760000      49.45440000      43.47660000
C       42.54010000      52.26630000      46.61510000
C       46.70790000      42.37840000      52.39290000
C       52.20130000      46.76530000      42.47080000
C       42.42090000      47.68740000      53.31920000
C       57.50770000      47.73650000      46.70070000
C       57.55270000      52.29000000      53.27370000
C       46.72760000      57.59950000      47.76300000
C       53.27770000      57.59490000      52.33970000
C       53.26550000      42.42340000      47.70620000
C       52.29260000      53.26210000      57.58850000
C       47.69970000      53.49630000      42.39270000
C       47.69950000      46.73310000      57.61150000
C       42.39590000      46.68630000      52.36750000
C       46.66210000      52.64280000      42.10180000
C       52.28690000      42.41010000      46.73040000
C       42.53080000      53.23630000      47.59930000
C       57.51600000      46.75920000      47.67830000
C       57.55920000      53.27440000      52.30450000
C       46.72340000      47.71280000      57.60120000
C       53.27180000      52.28600000      57.58920000
C       53.17100000      47.74720000      42.44290000
C       52.29150000      57.56960000      53.30750000
C       47.69720000      42.39930000      53.35690000
C       47.70510000      57.67700000      46.78930000
C       50.86360000      54.97330000      47.20760000
C       47.32330000      50.72100000      54.75620000
C       54.72150000      47.32170000      50.73830000
C       50.73010000      45.21130000      52.72010000
C       49.18980000      45.12290000      47.34050000
C       49.27950000      54.73160000      52.67850000
C       47.13390000      48.97610000      45.27690000
C       52.68060000      49.24050000      54.78240000
C       52.67150000      50.85720000      45.18750000
C       54.77390000      52.75770000      49.22850000
C       45.28100000      52.61910000      50.69470000
C       45.12270000      47.17260000      49.26990000
C       50.74170000      47.29360000      54.79460000
C       47.36180000      54.71100000      50.71390000
C       54.73750000      50.81060000      47.28600000
C       50.93740000      52.99420000      45.05180000
C       49.15270000      47.23250000      45.26160000
C       49.26260000      52.66600000      54.76290000
C       47.23150000      45.10620000      49.28750000
C       52.73570000      54.86680000      49.22360000
C       52.66150000      45.22120000      50.75930000
C       54.73270000      49.25870000      52.68640000
C       45.25730000      50.69680000      52.66020000
C       45.09460000      49.05900000      47.26370000
C       53.67310000      47.30450000      51.70270000
C       51.81620000      53.91340000      47.19270000
C       47.32850000      51.66060000      53.68580000
C       53.74300000      52.80480000      48.24500000
C       46.33600000      52.63150000      51.65700000
C       46.15480000      47.12150000      48.30170000
C       51.68150000      46.27410000      52.71660000
C       48.19840000      46.13440000      47.32120000
C       48.33290000      53.66390000      52.67230000
C       47.12610000      48.04080000      46.29340000
C       52.67830000      48.28830000      53.72250000
C       52.74130000      51.85790000      46.20540000
C       53.72480000      51.81100000      47.24870000
C       51.68760000      47.28870000      53.72950000
C       47.35090000      53.64940000      51.66430000
C       53.67980000      48.29770000      52.69900000
C       46.32370000      51.64670000      52.66150000
C       46.11760000      48.07590000      47.28570000
C       51.83090000      52.92960000      46.15500000
C       48.17740000      47.12600000      46.30000000
C       48.32220000      52.65790000      53.69150000
C       47.19380000      46.13160000      48.30910000
C       52.76110000      53.84740000      48.23140000
C       52.66750000      46.28140000      51.71270000
C       48.92650000      56.98680000      47.04730000
C       47.02290000      48.89410000      56.86000000
C       56.79020000      47.05330000      48.87120000
C       48.88030000      43.13010000      53.03810000
C       51.09050000      43.11730000      47.04080000
C       51.11160000      56.83080000      52.99280000
C       47.73680000      50.49740000      43.68280000
C       52.97510000      51.09610000      56.86220000
C       52.87200000      48.93710000      43.17510000
C       56.82940000      52.99150000      51.11320000
C       43.22330000      52.92490000      48.81120000
C       43.10920000      46.95560000      51.16560000
C       48.89040000      47.02060000      56.88130000
C       47.04900000      56.82870000      48.91850000
C       56.77930000      48.92350000      47.00520000
C       48.98540000      53.29350000      42.99690000
C       51.03470000      47.06530000      43.23820000
C       51.10400000      52.96410000      56.85830000
C       46.99130000      43.08900000      51.19200000
C       52.99120000      56.88750000      51.13680000
C       52.96390000      43.14600000      48.89960000
C       56.81410000      51.10950000      52.96740000
C       43.16070000      48.86350000      52.99040000
C       43.17070000      51.04750000      46.94770000
C       46.18940000      49.86930000      54.80870000
C       54.77320000      46.18890000      49.88470000
C       50.04050000      55.07400000      46.05020000
C       46.12370000      49.93280000      45.20790000
C       53.81040000      50.09940000      54.82670000
C       53.75560000      49.94260000      45.18200000
C       54.82890000      53.87890000      50.10030000
C       45.24220000      53.75710000      49.84520000
C       45.10300000      46.06400000      50.15430000
C       49.88270000      45.16560000      53.86110000
C       50.05770000      45.12640000      46.21310000
C       50.11890000      54.79080000      53.82250000
C       46.23230000      54.75680000      49.85810000
C       54.75610000      49.93620000      46.16770000
C       49.88690000      46.16200000      54.85200000
C       46.10560000      45.07570000      50.15850000
C       53.84870000      54.88330000      50.10440000
C       53.78940000      45.18490000      49.89470000
C       54.79300000      50.10650000      53.82430000
C       45.20090000      49.85970000      53.80910000
C       45.09570000      49.92560000      46.12890000
C       50.08040000      54.13440000      45.00320000
C       50.04940000      46.13980000      45.23430000
C       50.11340000      53.80100000      54.81840000
C       46.90220000      54.26840000      43.39720000
C       43.27250000      46.82170000      54.24920000
C       54.17120000      43.28980000      46.82970000
C       46.82700000      45.80730000      56.76470000
C       53.09490000      45.83810000      43.29810000
C       53.16470000      54.18350000      56.73490000
C       43.47780000      53.09060000      45.73510000
C       56.70560000      53.16240000      54.20210000
C       56.64660000      46.86370000      45.78660000
C       54.19600000      56.72920000      53.20620000
C       45.83510000      56.75390000      46.85620000
C       45.78940000      43.24190000      53.26330000
C       46.82650000      43.25960000      54.27450000
C       43.42670000      54.13440000      46.75070000
C       54.10900000      46.87120000      43.28250000
C       46.86450000      56.83350000      45.83590000
C       53.14470000      43.28370000      45.80740000
C       53.16420000      56.71270000      54.22420000
C       43.25460000      45.77320000      53.24990000
C       56.71080000      54.19420000      53.18470000
C       56.66010000      45.83690000      46.81010000
C       54.19080000      53.15880000      56.73310000
C       45.80270000      46.83470000      56.75490000
C       45.95350000      53.19180000      43.35450000
C       53.85180000      48.98900000      44.17560000
C       44.23470000      53.89040000      48.89840000
C       48.94530000      44.14690000      53.99890000
C       53.94090000      51.03590000      55.84830000
C       46.41040000      50.94520000      44.27450000
C       46.05850000      48.94700000      55.84410000
C       44.10470000      45.96790000      51.11420000
C       55.78860000      46.07610000      48.93950000
C       55.83530000      53.97600000      51.05550000
C       49.04230000      56.04960000      46.00630000
C       51.04940000      55.81680000      53.95620000
C       51.01780000      44.13460000      46.07680000
C       53.92070000      44.16750000      48.95490000
C       44.17530000      48.93080000      53.95240000
C       49.07410000      54.22750000      44.03340000
C       53.96490000      55.88140000      51.06660000
C       46.00520000      44.08400000      51.12510000
C       46.10300000      55.79580000      48.94270000
C       44.18270000      50.93970000      45.98230000
C       55.76200000      48.98410000      46.04470000
C       55.81320000      51.04470000      53.94480000
C       48.95130000      46.04470000      55.87690000
C       51.04350000      53.93140000      55.84600000
C       50.99860000      46.06980000      44.22360000
C       44.21610000      49.29180000      48.37140000
C       48.34920000      44.20830000      49.45680000
C       49.27520000      48.35920000      44.32990000
C       44.32680000      50.52860000      51.56730000
C       55.65200000      50.63040000      48.38530000
C       55.64540000      49.43000000      51.58570000
C       48.44470000      55.65580000      50.56950000
C       51.63710000      55.77850000      49.39520000
C       51.57620000      44.28230000      50.60980000
C       49.41620000      51.58250000      55.69700000
C       50.75410000      51.90520000      44.13140000
C       50.58510000      48.38760000      55.71790000
C       44.21960000      48.29220000      49.41250000
C       48.15580000      49.24670000      44.36340000
C       49.36660000      44.21190000      48.43780000
C       44.34200000      51.53220000      50.53390000
C       55.63870000      48.42130000      50.57100000
C       55.66800000      51.64160000      49.39990000
C       48.40580000      50.57200000      55.69480000
C       51.59550000      49.39880000      55.71360000
C       51.58810000      50.74240000      44.23630000
C       49.44460000      55.66300000      51.59200000
C       50.56480000      44.27900000      51.63130000
C       50.64500000      55.81280000      48.36350000
C       45.29720000      55.74160000      47.73190000
C       47.74470000      45.22750000      55.81320000
C       55.68160000      47.78130000      45.22640000
C       45.19910000      44.17940000      52.33980000
C       54.73360000      44.25020000      47.74490000
C       54.77230000      55.78510000      52.27850000
C       47.82610000      54.95210000      44.22640000
C       52.24760000      54.75310000      55.77840000
C       52.20150000      45.25230000      44.26670000
C       55.74940000      52.24550000      54.77170000
C       44.44580000      52.13270000      45.21140000
C       44.23860000      47.73970000      54.79500000
C       45.23560000      47.74470000      55.78850000
C       47.81960000      55.94220000      45.22900000
C       55.71730000      45.25730000      47.73540000
C       45.56040000      52.13330000      44.27930000
C       54.67640000      47.78630000      44.23980000
C       54.75870000      52.24260000      55.77360000
C       47.74440000      44.22330000      54.82640000
C       52.24880000      55.75030000      54.78400000
C       52.21660000      44.23780000      45.24950000
C       55.76240000      54.78200000      52.27080000
C       44.19770000      45.17530000      52.33500000
C       44.33390000      54.71680000      47.69650000
