240
Lattice="100.0 0.0 0.0 0.0 100.0 0.0 0.0 0.0 100.0" Properties=species:S:1:pos:R:3 name=C-97510-5923-1067 pressure=0.0246341345977833 energy=-1781.79518573528 spacegroup=Th times_found=1 pbc="T T T"
C       53.98220000      54.64300000      55.11390000
C       55.11440000      53.98100000      54.64350000
C       54.64410000      55.11330000      53.98170000
C       46.01900000      45.35570000      55.11370000
C       46.01770000      54.64430000      44.88730000
C       53.98100000      45.35700000      44.88510000
C       44.88680000      46.01780000      54.64380000
C       44.88560000      53.98220000      45.35750000
C       55.11320000      46.01900000      45.35520000
C       45.35690000      44.88570000      53.98160000
C       45.35590000      55.11430000      46.01960000
C       54.64310000      44.88670000      46.01720000
C       53.98100000      54.64430000      44.88630000
C       55.11320000      53.98220000      45.35620000
C       54.64310000      55.11430000      46.01840000
C       46.01780000      45.35700000      44.88610000
C       46.01900000      54.64300000      55.11490000
C       53.98230000      45.35570000      55.11270000
C       44.88560000      46.01900000      45.35650000
C       44.88680000      53.98100000      54.64480000
C       55.11440000      46.01780000      54.64250000
C       45.35590000      44.88670000      46.01830000
C       45.35690000      55.11330000      53.98280000
C       54.64410000      44.88570000      53.98040000
C       49.32230000      54.07260000      43.78400000
C       43.78390000      49.32250000      54.07250000
C       54.07170000      43.78340000      49.32180000
C       50.67620000      45.92900000      43.78280000
C       50.67770000      54.07100000      56.21710000
C       49.32390000      45.92740000      56.21620000
C       56.21720000      50.67640000      54.07110000
C       56.21610000      49.32360000      45.92740000
C       43.78280000      50.67740000      45.92910000
C       45.92810000      56.21670000      49.32440000
C       45.92830000      43.78330000      50.67670000
C       54.07180000      56.21660000      50.67720000
C       49.32380000      54.07100000      56.21720000
C       43.78280000      49.32360000      45.92890000
C       54.07190000      43.78330000      50.67560000
C       50.67770000      45.92740000      56.21600000
C       50.67610000      54.07260000      43.78380000
C       49.32230000      45.92900000      43.78290000
C       56.21610000      50.67750000      45.92750000
C       56.21720000      49.32260000      54.07090000
C       43.78390000      50.67640000      54.07260000
C       45.92830000      56.21660000      50.67820000
C       45.92820000      43.78340000      49.32280000
C       54.07170000      56.21670000      49.32330000
C       51.32160000      47.12730000      56.60420000
C       56.60440000      51.32110000      47.12740000
C       47.12830000      56.60460000      51.32190000
C       48.68010000      52.87100000      56.60530000
C       48.67850000      47.12890000      43.39510000
C       51.31990000      52.87270000      43.39540000
C       43.39490000      48.67960000      47.12880000
C       43.39560000      51.32030000      52.87290000
C       56.60510000      48.67890000      52.87090000
C       52.87210000      43.39510000      51.31950000
C       52.87170000      56.60490000      48.67980000
C       47.12800000      43.39540000      48.67880000
C       51.31990000      47.12900000      43.39470000
C       56.60510000      51.32040000      52.87120000
C       47.12790000      56.60490000      48.68050000
C       48.67840000      52.87270000      43.39580000
C       48.68010000      47.12730000      56.60460000
C       51.32150000      52.87110000      56.60490000
C       43.39560000      48.67890000      52.87260000
C       43.39490000      51.32110000      47.12910000
C       56.60440000      48.67970000      47.12710000
C       52.87170000      43.39540000      48.67810000
C       52.87200000      56.60460000      51.32120000
C       47.12830000      43.39510000      51.32020000
C       45.80950000      50.76060000      55.47710000
C       55.47660000      45.80870000      50.76010000
C       50.76080000      55.47700000      45.80940000
C       54.19190000      49.23800000      55.47590000
C       54.19050000      50.76200000      44.52310000
C       45.80810000      49.23930000      44.52390000
C       44.52360000      54.19110000      50.76260000
C       44.52340000      45.80880000      49.23880000
C       55.47640000      54.19130000      49.23850000
C       49.23810000      44.52400000      45.80820000
C       49.23920000      55.47600000      54.19200000
C       50.76190000      44.52300000      54.19040000
C       45.80810000      50.76200000      44.52410000
C       55.47640000      45.80890000      49.23740000
C       50.76190000      55.47600000      54.19180000
C       54.19050000      49.23940000      44.52290000
C       54.19190000      50.76070000      55.47610000
C       45.80950000      49.23800000      55.47690000
C       44.52340000      54.19130000      49.23990000
C       44.52360000      45.80870000      50.76150000
C       55.47660000      54.19120000      50.76120000
C       49.23920000      44.52300000      54.19060000
C       49.23810000      55.47700000      45.80960000
C       50.76080000      44.52400000      45.80800000
C       51.44360000      54.77700000      55.27020000
C       55.27030000      51.44240000      54.77720000
C       54.77780000      55.26960000      51.44300000
C       48.55770000      45.22170000      55.26930000
C       48.55640000      54.77830000      44.73100000
C       51.44230000      45.22300000      44.72950000
C       44.73090000      48.55640000      54.77820000
C       44.72960000      51.44350000      45.22320000
C       55.26910000      48.55770000      45.22150000
C       45.22250000      44.73010000      51.44290000
C       45.22210000      55.26990000      48.55830000
C       54.77750000      44.73040000      48.55580000
C       51.44230000      54.77830000      44.73070000
C       55.26910000      51.44360000      45.22180000
C       54.77750000      55.26990000      48.55710000
C       48.55640000      45.22300000      44.72980000
C       48.55770000      54.77700000      55.27050000
C       51.44360000      45.22170000      55.26900000
C       44.72970000      48.55760000      45.22280000
C       44.73090000      51.44230000      54.77850000
C       55.27040000      48.55650000      54.77680000
C       45.22220000      44.73040000      48.55700000
C       45.22250000      55.26960000      51.44420000
C       54.77790000      44.73010000      51.44170000
C       48.55080000      56.01380000      53.02770000
C       53.02750000      48.54970000      56.01370000
C       56.01400000      53.02690000      48.55010000
C       51.44990000      43.98540000      53.02580000
C       51.44910000      56.01460000      46.97390000
C       48.55010000      43.98620000      46.97270000
C       46.97400000      51.44880000      56.01480000
C       46.97250000      48.55120000      43.98600000
C       53.02590000      51.45030000      43.98560000
C       43.98560000      46.97350000      48.55080000
C       43.98590000      53.02650000      51.45070000
C       56.01440000      46.97310000      51.44840000
C       48.55010000      56.01460000      46.97420000
C       53.02600000      48.55120000      43.98520000
C       56.01440000      53.02650000      51.44920000
C       51.44920000      43.98620000      46.97230000
C       51.44990000      56.01380000      53.02730000
C       48.55090000      43.98540000      53.02610000
C       46.97250000      51.45030000      43.98630000
C       46.97410000      48.54970000      56.01440000
C       53.02750000      51.44880000      56.01400000
C       43.98600000      46.97310000      51.44990000
C       43.98560000      53.02690000      48.55160000
C       56.01410000      46.97350000      48.54930000
C       49.27980000      48.39080000      56.76940000
C       56.76930000      49.27910000      48.39070000
C       48.39160000      56.76960000      49.28000000
C       50.72190000      51.60750000      56.76960000
C       50.72020000      48.39250000      43.23020000
C       49.27800000      51.60920000      43.23080000
C       43.23030000      50.72130000      48.39260000
C       43.23070000      49.27870000      51.60910000
C       56.76970000      50.72090000      51.60760000
C       51.60830000      43.23060000      49.27780000
C       51.60840000      56.76940000      50.72170000
C       48.39180000      43.23040000      50.72040000
C       49.27810000      48.39250000      43.23040000
C       56.76970000      49.27870000      51.60740000
C       48.39170000      56.76940000      50.72220000
C       50.72020000      51.60920000      43.23060000
C       50.72200000      48.39080000      56.76920000
C       49.27980000      51.60750000      56.76980000
C       43.23070000      50.72090000      51.60930000
C       43.23030000      49.27910000      48.39240000
C       56.76930000      50.72130000      48.39090000
C       51.60840000      43.23040000      50.72000000
C       51.60820000      56.76960000      49.27960000
C       48.39160000      43.23060000      49.27830000
C       56.08200000      47.37840000      47.15150000
C       47.15220000      56.08270000      47.37910000
C       47.37880000      47.15180000      56.08240000
C       43.91720000      52.62230000      47.15370000
C       43.91800000      47.37760000      52.84790000
C       56.08270000      52.62160000      52.84700000
C       52.84710000      43.91790000      47.37690000
C       52.84770000      56.08210000      52.62240000
C       47.15290000      43.91730000      52.62160000
C       52.62270000      52.84670000      56.08240000
C       52.62120000      47.15330000      43.91690000
C       47.37720000      52.84820000      43.91830000
C       56.08280000      47.37770000      52.84630000
C       47.15290000      56.08210000      52.62310000
C       47.37730000      47.15330000      43.91760000
C       43.91800000      52.62160000      52.84850000
C       43.91730000      47.37840000      47.15300000
C       56.08200000      52.62240000      47.15210000
C       52.84780000      43.91730000      52.62090000
C       52.84710000      56.08270000      47.37840000
C       47.15230000      43.91790000      47.37760000
C       52.62120000      52.84820000      43.91760000
C       52.62280000      47.15180000      56.08170000
C       47.37880000      52.84670000      56.08310000
C       47.23500000      54.16940000      44.53100000
C       44.53070000      47.23520000      54.16900000
C       54.16830000      44.53050000      47.23450000
C       52.76360000      45.83200000      44.52930000
C       52.76500000      54.16800000      55.47000000
C       47.23640000      45.83060000      55.46970000
C       55.47040000      52.76380000      54.16830000
C       55.46930000      47.23620000      45.83030000
C       44.52960000      52.76480000      45.83240000
C       45.83100000      55.47020000      47.23690000
C       45.83170000      44.52980000      52.76410000
C       54.16900000      55.46950000      52.76450000
C       47.23640000      54.16800000      55.47070000
C       44.52960000      47.23620000      45.83170000
C       54.16900000      44.52980000      52.76310000
C       52.76500000      45.83060000      55.46900000
C       52.76360000      54.16940000      44.53030000
C       47.23500000      45.83200000      44.53000000
C       55.46930000      52.76480000      45.83100000
C       55.47040000      47.23520000      54.16760000
C       44.53070000      52.76380000      54.16970000
C       45.83170000      55.46950000      52.76550000
C       45.83100000      44.53050000      47.23550000
C       54.16830000      55.47020000      47.23590000
C       43.52180000      48.15320000      50.68900000
C       50.68820000      43.52190000      48.15240000
C       48.15250000      50.68920000      43.52200000
C       56.47840000      51.84660000      50.68780000
C       56.47820000      48.15340000      49.31060000
C       43.52160000      51.84670000      49.31270000
C       49.31140000      56.47850000      48.15420000
C       49.31190000      43.52150000      51.84590000
C       50.68860000      56.47810000      51.84740000
C       51.84580000      49.31240000      43.52140000
C       51.84750000      50.68760000      56.47810000
C       48.15420000      49.31080000      56.47840000
C       43.52160000      48.15340000      49.31220000
C       50.68860000      43.52150000      51.84580000
C       48.15420000      50.68760000      56.47860000
C       56.47820000      51.84680000      49.31100000
C       56.47840000      48.15330000      50.68730000
C       43.52180000      51.84660000      50.68940000
C       49.31180000      56.47810000      51.84760000
C       49.31140000      43.52190000      48.15260000
C       50.68810000      56.47850000      48.15410000
C       51.84750000      49.31080000      56.47800000
C       51.84580000      50.68920000      43.52160000
C       48.15250000      49.31240000      43.52190000
