240
Lattice="100.0 0.0 0.0 0.0 100.0 0.0 0.0 0.0 100.0" Properties=species:S:1:pos:R:3 name=C-97510-5923-1498 pressure=4.56402539914214 spacegroup=Td times_found=1 energy=-1670.95116110231 pbc="T T T"
C       50.01630000      56.39380000      48.97300000
C       48.97310000      50.01640000      56.39390000
C       56.39390000      48.97320000      50.01640000
C       49.98370000      43.60620000      48.97280000
C       49.98320000      56.39380000      51.02720000
C       50.01690000      43.60620000      51.02700000
C       51.02730000      49.98340000      56.39380000
C       51.02690000      50.01670000      43.60610000
C       48.97270000      49.98350000      43.60620000
C       43.60610000      51.02680000      50.01680000
C       43.60620000      48.97260000      49.98360000
C       56.39380000      51.02740000      49.98330000
C       56.39380000      50.01690000      48.97270000
C       50.01680000      48.97280000      56.39380000
C       48.97260000      56.39380000      50.01670000
C       43.60610000      49.98320000      48.97310000
C       56.39390000      49.98370000      51.02690000
C       43.60620000      50.01630000      51.02730000
C       49.98360000      51.02700000      56.39380000
C       50.01630000      51.02720000      43.60620000
C       49.98330000      48.97300000      43.60620000
C       51.02740000      43.60620000      50.01640000
C       48.97320000      43.60610000      49.98340000
C       51.02680000      56.39390000      49.98350000
C       55.31480000      51.86460000      53.62070000
C       53.62060000      55.31490000      51.86440000
C       51.86450000      53.62080000      55.31480000
C       44.68540000      48.13530000      53.62090000
C       44.68500000      51.86430000      46.37940000
C       55.31480000      48.13580000      46.37900000
C       46.37950000      44.68500000      51.86450000
C       46.37890000      55.31470000      48.13570000
C       53.62100000      44.68540000      48.13540000
C       48.13580000      46.37900000      55.31480000
C       48.13520000      53.62080000      44.68530000
C       51.86450000      46.37940000      44.68510000
C       51.86430000      55.31480000      53.62080000
C       55.31470000      53.62100000      51.86440000
C       53.62090000      51.86450000      55.31470000
C       48.13590000      44.68510000      53.62080000
C       51.86460000      44.68530000      46.37910000
C       48.13520000      55.31480000      46.37930000
C       44.68540000      46.37890000      51.86460000
C       55.31490000      46.37940000      48.13530000
C       44.68500000      53.62060000      48.13580000
C       46.37940000      48.13530000      55.31490000
C       53.62070000      48.13580000      44.68510000
C       46.37900000      51.86440000      44.68530000
C       53.63460000      55.81620000      50.57410000
C       50.57420000      53.63470000      55.81610000
C       55.81620000      50.57430000      53.63460000
C       46.36550000      44.18380000      50.57420000
C       46.36490000      55.81590000      49.42600000
C       53.63500000      44.18410000      49.42560000
C       49.42620000      46.36510000      55.81600000
C       49.42550000      53.63490000      44.18400000
C       50.57410000      46.36530000      44.18390000
C       44.18410000      49.42550000      53.63500000
C       44.18380000      50.57400000      46.36540000
C       55.81600000      49.42610000      46.36500000
C       55.81590000      53.63500000      50.57400000
C       53.63490000      50.57420000      55.81600000
C       50.57400000      55.81600000      53.63490000
C       44.18410000      46.36490000      50.57430000
C       55.81620000      46.36540000      49.42560000
C       44.18380000      53.63460000      49.42610000
C       46.36540000      49.42560000      55.81620000
C       53.63470000      49.42610000      44.18380000
C       46.36500000      50.57410000      44.18400000
C       49.42620000      44.18380000      53.63470000
C       50.57430000      44.18400000      46.36510000
C       49.42550000      55.81610000      46.36530000
C       47.78320000      55.54630000      50.10320000
C       50.10330000      47.78330000      55.54640000
C       55.54640000      50.10330000      47.78320000
C       52.21680000      44.45370000      50.10290000
C       52.21640000      55.54650000      49.89700000
C       47.78360000      44.45350000      49.89690000
C       49.89700000      52.21650000      55.54650000
C       49.89690000      47.78350000      44.45360000
C       50.10280000      52.21670000      44.45360000
C       44.45350000      49.89680000      47.78360000
C       44.45360000      50.10280000      52.21680000
C       55.54650000      49.89720000      52.21640000
C       55.54650000      47.78360000      50.10280000
C       47.78360000      50.10290000      55.54650000
C       50.10270000      55.54650000      47.78350000
C       44.45350000      52.21640000      50.10320000
C       55.54630000      52.21680000      49.89680000
C       44.45370000      47.78320000      49.89710000
C       52.21680000      49.89700000      55.54640000
C       47.78320000      49.89700000      44.45360000
C       52.21640000      50.10320000      44.45350000
C       49.89710000      44.45360000      47.78330000
C       50.10330000      44.45360000      52.21650000
C       49.89680000      55.54640000      52.21670000
C       44.79410000      47.42210000      48.41690000
C       48.41700000      44.79400000      47.42230000
C       47.42220000      48.41680000      44.79410000
C       55.20580000      52.57800000      48.41670000
C       55.20610000      47.42250000      51.58300000
C       44.79400000      52.57750000      51.58340000
C       51.58290000      55.20610000      47.42230000
C       51.58350000      44.79400000      52.57760000
C       48.41670000      55.20590000      52.57780000
C       52.57750000      51.58340000      44.79400000
C       52.57790000      48.41680000      55.20590000
C       47.42240000      51.58300000      55.20610000
C       47.42250000      44.79390000      48.41680000
C       44.79400000      48.41660000      47.42240000
C       48.41680000      47.42230000      44.79400000
C       52.57750000      55.20610000      48.41680000
C       47.42210000      55.20590000      51.58330000
C       52.57800000      44.79410000      51.58300000
C       55.20580000      51.58340000      47.42220000
C       44.79400000      51.58290000      52.57790000
C       55.20610000      48.41700000      52.57750000
C       51.58290000      52.57790000      44.79400000
C       48.41690000      52.57760000      55.20610000
C       51.58340000      47.42230000      55.20590000
C       51.78990000      54.35280000      50.76680000
C       50.76690000      51.79000000      54.35270000
C       54.35280000      50.76700000      51.79000000
C       48.21010000      45.64720000      50.76680000
C       48.20970000      54.35270000      49.23330000
C       51.79020000      45.64730000      49.23310000
C       49.23340000      48.20980000      54.35270000
C       49.23300000      51.79010000      45.64730000
C       50.76680000      48.21000000      45.64720000
C       45.64730000      49.23300000      51.79020000
C       45.64720000      50.76670000      48.21010000
C       54.35270000      49.23340000      48.20980000
C       54.35270000      51.79020000      50.76670000
C       51.79020000      50.76680000      54.35270000
C       50.76670000      54.35270000      51.79010000
C       45.64740000      48.20970000      50.76690000
C       54.35280000      48.21010000      49.23300000
C       45.64720000      51.78990000      49.23330000
C       48.21010000      49.23300000      54.35280000
C       51.79000000      49.23330000      45.64720000
C       48.20980000      50.76680000      45.64730000
C       49.23340000      45.64720000      51.79000000
C       50.76700000      45.64730000      48.20980000
C       49.23290000      54.35270000      48.21000000
C       44.36570000      49.58880000      45.38120000
C       45.38130000      44.36560000      49.58900000
C       49.58900000      45.38110000      44.36580000
C       55.63400000      50.41130000      45.38090000
C       55.63430000      49.58910000      54.61880000
C       44.36590000      50.41070000      54.61910000
C       54.61870000      55.63440000      49.58890000
C       54.61920000      44.36600000      50.41080000
C       45.38080000      55.63400000      50.41130000
C       50.41070000      54.61910000      44.36590000
C       50.41140000      45.38100000      55.63410000
C       49.58890000      54.61890000      55.63430000
C       49.58910000      44.36590000      45.38100000
C       44.36600000      45.38080000      49.58910000
C       45.38090000      49.58880000      44.36590000
C       50.41070000      55.63430000      45.38110000
C       49.58890000      55.63410000      54.61910000
C       50.41140000      44.36580000      54.61890000
C       55.63400000      54.61920000      49.58890000
C       44.36560000      54.61870000      50.41130000
C       55.63440000      45.38130000      50.41080000
C       54.61880000      50.41130000      44.36570000
C       45.38120000      50.41080000      55.63430000
C       54.61920000      49.58910000      55.63400000
C       46.03910000      45.02750000      48.40360000
C       48.40360000      46.03890000      45.02760000
C       45.02760000      48.40340000      46.03900000
C       53.96080000      54.97260000      48.40350000
C       53.96140000      45.02780000      51.59630000
C       46.03870000      54.97220000      51.59670000
C       51.59620000      53.96120000      45.02760000
C       51.59680000      46.03890000      54.97230000
C       48.40350000      53.96100000      54.97250000
C       54.97220000      51.59670000      46.03880000
C       54.97260000      48.40370000      53.96090000
C       45.02770000      51.59620000      53.96130000
C       45.02770000      46.03870000      48.40360000
C       46.03880000      48.40340000      45.02770000
C       48.40360000      45.02760000      46.03890000
C       54.97220000      53.96130000      48.40340000
C       45.02750000      53.96090000      51.59670000
C       54.97260000      46.03910000      51.59630000
C       53.96090000      51.59670000      45.02750000
C       46.03900000      51.59620000      54.97250000
C       53.96130000      48.40360000      54.97220000
C       51.59610000      54.97250000      46.03890000
C       48.40340000      54.97230000      53.96120000
C       51.59680000      45.02760000      53.96100000
C       47.13660000      53.92930000      48.26680000
C       48.26690000      47.13670000      53.92940000
C       53.92940000      48.26690000      47.13670000
C       52.86330000      46.07070000      48.26660000
C       52.86300000      53.92950000      51.73330000
C       47.13710000      46.07040000      51.73330000
C       51.73330000      52.86320000      53.92940000
C       51.73330000      47.13700000      46.07050000
C       48.26650000      52.86310000      46.07070000
C       46.07040000      51.73320000      47.13700000
C       46.07070000      48.26650000      52.86320000
C       53.92940000      51.73340000      52.86310000
C       53.92950000      47.13700000      48.26650000
C       47.13700000      48.26650000      53.92950000
C       48.26650000      53.92940000      47.13700000
C       46.07040000      52.86300000      48.26690000
C       53.92940000      52.86330000      51.73320000
C       46.07070000      47.13670000      51.73340000
C       52.86320000      51.73340000      53.92940000
C       47.13670000      51.73320000      46.07070000
C       52.86310000      48.26690000      46.07050000
C       51.73340000      46.07070000      47.13670000
C       48.26700000      46.07050000      52.86310000
C       51.73320000      53.92950000      52.86320000
C       53.20000000      44.77260000      45.78690000
C       45.78680000      53.19980000      44.77260000
C       44.77270000      45.78690000      53.20000000
C       46.79980000      55.22750000      45.78730000
C       46.80050000      44.77220000      54.21290000
C       53.19980000      55.22760000      54.21290000
C       54.21290000      46.80040000      44.77230000
C       54.21290000      53.20000000      55.22750000
C       45.78740000      46.79990000      55.22760000
C       55.22750000      54.21310000      53.19980000
C       55.22760000      45.78740000      46.79990000
C       44.77220000      54.21270000      46.80040000
C       44.77220000      53.19970000      45.78730000
C       53.19990000      45.78730000      44.77230000
C       45.78740000      44.77220000      53.19990000
C       55.22760000      46.80040000      45.78690000
C       44.77270000      46.79990000      54.21300000
C       55.22760000      53.20000000      54.21280000
C       46.79980000      54.21280000      44.77260000
C       53.19980000      54.21290000      55.22750000
C       46.80050000      45.78690000      55.22760000
C       54.21280000      55.22770000      53.19980000
C       45.78680000      55.22740000      46.80030000
C       54.21300000      44.77270000      46.79990000
