240
Lattice="100.0 0.0 0.0 0.0 100.0 0.0 0.0 0.0 100.0" Properties=species:S:1:pos:R:3 name=C-97510-5923-717 pressure=-2.40478744555169 energy=-1865.40674102143 spacegroup=Oh times_found=1 pbc="T T T"
C       50.71430000      44.19490000      45.92240000
C       45.92240000      50.71490000      44.19500000
C       44.19480000      45.92270000      50.71480000
C       50.71530000      55.80490000      54.07770000
C       49.28610000      55.80450000      45.92160000
C       49.28430000      44.19560000      54.07840000
C       45.92160000      49.28610000      55.80460000
C       54.07820000      49.28430000      44.19550000
C       54.07780000      50.71470000      55.80490000
C       44.19580000      54.07860000      49.28460000
C       55.80520000      54.07740000      50.71480000
C       55.80430000      45.92130000      49.28580000
C       49.28470000      44.19510000      45.92230000
C       54.07840000      50.71390000      44.19540000
C       55.80420000      45.92140000      50.71540000
C       49.28570000      55.80510000      54.07760000
C       50.71570000      55.80440000      45.92160000
C       50.71390000      44.19550000      54.07840000
C       54.07760000      49.28510000      55.80500000
C       45.92220000      49.28530000      44.19510000
C       45.92180000      50.71570000      55.80450000
C       55.80520000      54.07730000      49.28520000
C       44.19570000      54.07870000      50.71420000
C       44.19480000      45.92260000      49.28520000
C       48.65390000      56.39060000      47.03160000
C       47.03160000      48.65380000      56.39050000
C       56.39030000      47.03130000      48.65350000
C       48.65210000      43.60980000      52.96820000
C       51.34640000      43.60900000      47.03260000
C       51.34760000      56.39060000      52.96750000
C       47.03260000      51.34690000      43.60920000
C       52.96770000      51.34710000      56.39070000
C       52.96800000      48.65220000      43.60960000
C       56.39090000      52.96720000      51.34710000
C       43.60980000      52.96850000      48.65250000
C       43.60900000      47.03300000      51.34690000
C       51.34790000      56.39020000      47.03180000
C       52.96740000      48.65310000      56.39080000
C       43.60910000      47.03280000      48.65290000
C       51.34610000      43.60940000      52.96840000
C       48.65240000      43.60940000      47.03250000
C       48.65360000      56.39100000      52.96740000
C       52.96840000      51.34620000      43.60950000
C       47.03200000      51.34780000      56.39040000
C       47.03230000      48.65290000      43.60930000
C       43.60970000      52.96870000      51.34650000
C       56.39100000      52.96700000      48.65310000
C       56.39020000      47.03150000      51.34750000
C       52.96720000      43.60900000      48.65360000
C       48.65370000      52.96760000      43.60910000
C       43.60910000      48.65390000      52.96760000
C       52.96850000      56.39040000      51.34670000
C       47.03290000      56.39090000      48.65240000
C       47.03130000      43.60980000      51.34730000
C       48.65230000      47.03270000      56.39070000
C       51.34700000      47.03150000      43.60970000
C       51.34700000      52.96820000      56.39050000
C       43.60970000      51.34750000      47.03170000
C       56.39060000      51.34650000      52.96810000
C       56.39060000      48.65210000      47.03250000
C       47.03150000      43.60960000      48.65330000
C       51.34770000      52.96730000      43.60930000
C       56.39030000      48.65250000      52.96830000
C       47.03280000      56.39100000      51.34640000
C       52.96870000      56.39020000      48.65270000
C       52.96710000      43.60910000      51.34760000
C       51.34630000      47.03240000      56.39090000
C       48.65300000      47.03180000      43.60950000
C       48.65300000      52.96850000      56.39030000
C       56.39090000      51.34610000      47.03240000
C       43.60940000      51.34790000      52.96750000
C       43.60940000      48.65350000      47.03190000
C       46.54130000      44.80090000      53.45810000
C       53.45780000      46.54130000      44.80060000
C       44.80080000      53.45830000      46.54160000
C       46.54290000      55.19990000      46.54160000
C       53.45830000      55.19960000      53.45770000
C       53.45750000      44.79960000      46.54260000
C       53.45810000      53.45790000      55.19970000
C       46.54270000      53.45800000      44.79980000
C       46.54140000      46.54280000      55.19980000
C       44.79970000      46.54290000      53.45790000
C       55.19950000      46.54120000      46.54260000
C       55.20000000      53.45760000      53.45790000
C       53.45710000      44.80010000      53.45840000
C       46.54190000      46.54210000      44.80030000
C       55.20030000      53.45710000      46.54210000
C       53.45870000      55.19910000      46.54190000
C       46.54250000      55.20040000      53.45740000
C       46.54170000      44.80040000      46.54230000
C       46.54220000      53.45870000      55.19940000
C       53.45860000      53.45720000      44.80020000
C       53.45730000      46.54200000      55.20020000
C       55.19920000      46.54170000      53.45840000
C       44.80000000      46.54240000      46.54210000
C       44.80050000      53.45880000      53.45740000
C       56.12120000      47.28850000      47.28990000
C       47.29020000      56.12150000      47.28880000
C       47.28880000      47.29010000      56.12140000
C       56.12150000      52.71010000      52.71070000
C       43.87910000      52.71110000      47.28890000
C       43.87820000      47.29030000      52.71050000
C       47.28850000      43.87910000      52.71090000
C       52.71010000      43.87820000      47.28990000
C       52.71120000      56.12120000      52.71030000
C       47.29000000      52.71050000      43.87830000
C       52.71060000      52.71070000      56.12130000
C       52.71060000      47.28860000      43.87900000
C       43.87850000      47.28990000      47.28930000
C       52.71150000      56.12090000      47.28910000
C       52.71000000      47.28950000      56.12170000
C       43.87880000      52.71150000      52.71010000
C       56.12180000      52.70970000      47.28950000
C       56.12090000      47.28890000      52.71110000
C       52.70980000      43.87850000      52.71120000
C       47.28880000      43.87880000      47.28970000
C       47.28990000      56.12180000      52.71010000
C       52.71120000      52.70990000      43.87860000
C       47.28940000      52.71140000      56.12100000
C       47.28940000      47.28930000      43.87870000
C       45.39300000      52.83860000      54.60670000
C       54.60640000      45.39250000      52.83830000
C       52.83860000      54.60650000      45.39270000
C       45.39280000      47.16240000      45.39280000
C       54.60660000      47.16200000      54.60750000
C       54.60770000      52.83690000      45.39290000
C       54.60780000      54.60640000      47.16210000
C       45.39330000      54.60780000      52.83720000
C       45.39250000      45.39320000      47.16230000
C       52.83700000      45.39290000      54.60760000
C       47.16190000      45.39290000      45.39310000
C       47.16250000      54.60780000      54.60670000
C       54.60720000      52.83760000      54.60720000
C       45.39220000      45.39360000      52.83790000
C       47.16300000      54.60710000      45.39240000
C       54.60700000      47.16140000      45.39330000
C       45.39230000      47.16310000      54.60710000
C       45.39340000      52.83800000      45.39250000
C       45.39360000      54.60750000      47.16170000
C       54.60750000      54.60680000      52.83770000
C       54.60670000      45.39220000      47.16280000
C       47.16140000      45.39350000      54.60730000
C       52.83750000      45.39220000      45.39330000
C       52.83810000      54.60710000      54.60690000
C       51.74790000      50.69920000      43.17560000
C       43.17580000      51.74830000      50.69940000
C       50.69890000      43.17560000      51.74790000
C       51.74700000      49.30040000      56.82450000
C       48.25280000      49.29990000      43.17560000
C       48.25230000      50.70050000      56.82430000
C       43.17540000      48.25330000      49.30000000
C       56.82420000      48.25180000      50.70030000
C       56.82460000      51.74660000      49.30040000
C       50.70070000      56.82420000      48.25210000
C       49.30090000      56.82460000      51.74700000
C       49.29950000      43.17560000      48.25300000
C       48.25300000      50.69960000      43.17550000
C       56.82460000      51.74670000      50.70000000
C       49.29930000      43.17580000      51.74790000
C       48.25210000      49.30080000      56.82440000
C       51.74770000      49.29950000      43.17570000
C       51.74720000      50.70010000      56.82440000
C       56.82420000      48.25170000      49.30060000
C       43.17540000      48.25340000      50.69960000
C       43.17580000      51.74820000      49.29970000
C       49.30110000      56.82440000      48.25210000
C       50.70050000      56.82440000      51.74700000
C       50.69910000      43.17540000      48.25300000
C       48.53430000      45.08490000      54.91580000
C       54.91560000      48.53420000      45.08480000
C       45.08510000      54.91600000      48.53450000
C       48.53590000      54.91540000      45.08400000
C       51.46530000      54.91570000      54.91530000
C       51.46460000      45.08390000      45.08480000
C       54.91550000      51.46470000      54.91570000
C       45.08480000      51.46520000      45.08410000
C       45.08400000      48.53600000      54.91540000
C       45.08380000      45.08510000      51.46500000
C       54.91510000      45.08380000      48.53560000
C       54.91610000      54.91510000      51.46480000
C       51.46410000      45.08460000      54.91600000
C       45.08450000      48.53530000      45.08430000
C       54.91620000      54.91490000      48.53500000
C       51.46570000      54.91510000      45.08420000
C       48.53540000      54.91610000      54.91520000
C       48.53470000      45.08430000      45.08470000
C       45.08440000      51.46580000      54.91520000
C       54.91600000      51.46400000      45.08460000
C       54.91520000      48.53480000      54.91590000
C       54.91490000      45.08400000      51.46550000
C       45.08390000      45.08490000      48.53520000
C       45.08490000      54.91620000      51.46440000
C       50.70040000      51.74690000      43.17550000
C       43.17560000      50.70070000      51.74710000
C       51.74660000      43.17540000      50.70040000
C       50.69930000      48.25290000      56.82460000
C       49.30030000      48.25220000      43.17570000
C       49.30000000      51.74800000      56.82420000
C       43.17560000      49.30080000      48.25230000
C       56.82420000      49.29950000      51.74780000
C       56.82460000      50.69890000      48.25280000
C       51.74830000      56.82410000      49.29980000
C       48.25330000      56.82460000      50.69930000
C       48.25180000      43.17580000      49.30060000
C       49.30070000      51.74710000      43.17540000
C       56.82440000      50.69920000      51.74770000
C       48.25170000      43.17590000      50.70020000
C       49.29960000      48.25310000      56.82450000
C       50.70000000      48.25200000      43.17580000
C       50.69970000      51.74780000      56.82430000
C       56.82440000      49.29930000      48.25290000
C       43.17540000      49.30110000      51.74720000
C       43.17580000      50.70050000      48.25220000
C       48.25340000      56.82460000      49.29960000
C       51.74820000      56.82420000      50.69940000
C       51.74670000      43.17540000      49.30070000
C       55.80460000      50.71440000      54.07830000
C       54.07870000      55.80430000      50.71460000
C       50.71500000      54.07830000      55.80450000
C       55.80480000      49.28420000      45.92230000
C       44.19500000      49.28610000      54.07780000
C       44.19560000      50.71520000      45.92160000
C       54.07740000      44.19480000      49.28580000
C       45.92130000      44.19580000      50.71500000
C       45.92270000      55.80510000      49.28460000
C       50.71460000      45.92150000      44.19560000
C       49.28440000      45.92250000      55.80500000
C       49.28600000      54.07770000      44.19500000
C       44.19520000      50.71580000      54.07770000
C       45.92260000      55.80520000      50.71420000
C       49.28540000      54.07850000      55.80440000
C       44.19540000      49.28560000      45.92170000
C       55.80440000      49.28480000      54.07840000
C       55.80500000      50.71390000      45.92220000
C       45.92130000      44.19570000      49.28540000
C       54.07730000      44.19490000      50.71540000
C       54.07870000      55.80420000      49.28500000
C       49.28500000      45.92170000      44.19550000
C       50.71400000      45.92230000      55.80500000
C       50.71560000      54.07750000      44.19500000
