240
Lattice="100.0 0.0 0.0 0.0 100.0 0.0 0.0 0.0 100.0" Properties=species:S:1:pos:R:3 name=C-97510-5923-86 pressure=-80.3498175540193 energy=-1865.40722742825 spacegroup=Oh times_found=1 pbc="T T T"
C       50.69970000      48.25310000      43.17550000
C       43.17550000      50.69930000      48.25290000
C       48.25320000      43.17540000      50.69940000
C       50.69990000      51.74700000      56.82450000
C       49.29980000      51.74790000      43.17570000
C       49.30060000      48.25200000      56.82430000
C       43.17570000      49.29940000      51.74770000
C       56.82440000      49.30090000      48.25220000
C       56.82440000      50.70030000      51.74720000
C       48.25190000      56.82430000      49.30070000
C       51.74680000      56.82450000      50.70020000
C       51.74810000      43.17580000      49.29960000
C       49.30010000      48.25300000      43.17550000
C       56.82430000      50.70060000      48.25230000
C       51.74810000      43.17570000      50.69930000
C       49.30030000      51.74690000      56.82450000
C       50.69940000      51.74800000      43.17570000
C       50.70020000      48.25210000      56.82430000
C       56.82450000      49.30070000      51.74710000
C       43.17560000      49.29970000      48.25280000
C       43.17560000      50.69910000      51.74780000
C       51.74680000      56.82460000      49.30060000
C       48.25190000      56.82420000      50.70040000
C       48.25320000      43.17550000      49.29980000
C       43.60940000      48.65260000      47.03230000
C       47.03270000      43.60920000      48.65270000
C       48.65300000      47.03240000      43.60920000
C       43.60940000      51.34620000      52.96820000
C       56.39040000      51.34780000      47.03200000
C       56.39080000      48.65340000      52.96750000
C       47.03160000      56.39020000      51.34760000
C       52.96720000      56.39100000      48.65330000
C       52.96850000      43.60960000      51.34640000
C       48.65300000      52.96730000      56.39090000
C       51.34650000      52.96840000      43.60960000
C       51.34750000      47.03180000      56.39030000
C       56.39060000      48.65380000      47.03180000
C       52.96840000      43.60980000      48.65240000
C       51.34700000      47.03270000      43.60910000
C       56.39060000      51.34740000      52.96770000
C       43.60920000      51.34660000      47.03250000
C       43.60960000      48.65220000      52.96800000
C       52.96730000      56.39080000      51.34730000
C       47.03150000      56.39040000      48.65360000
C       47.03280000      43.60900000      51.34670000
C       51.34700000      52.96760000      56.39080000
C       48.65250000      52.96820000      43.60970000
C       48.65350000      47.03160000      56.39040000
C       48.25220000      50.70010000      43.17570000
C       43.17580000      48.25190000      50.70000000
C       50.70040000      43.17580000      48.25200000
C       48.25290000      49.29950000      56.82440000
C       51.74730000      49.30080000      43.17550000
C       51.74760000      50.69950000      56.82440000
C       43.17540000      51.74690000      49.30060000
C       56.82430000      51.74800000      50.69970000
C       56.82450000      48.25320000      49.29980000
C       50.69920000      56.82430000      51.74790000
C       49.29950000      56.82450000      48.25310000
C       49.30090000      43.17540000      51.74700000
C       51.74710000      50.70050000      43.17560000
C       56.82460000      48.25310000      50.69940000
C       49.30080000      43.17570000      48.25210000
C       51.74780000      49.29990000      56.82430000
C       48.25240000      49.30050000      43.17560000
C       48.25270000      50.69920000      56.82450000
C       56.82420000      51.74810000      49.30000000
C       43.17550000      51.74680000      50.70020000
C       43.17570000      48.25200000      49.30030000
C       49.29960000      56.82420000      51.74790000
C       50.69910000      56.82460000      48.25300000
C       50.70050000      43.17550000      51.74700000
C       48.53530000      45.08460000      45.08410000
C       45.08440000      48.53490000      45.08450000
C       45.08480000      45.08410000      48.53490000
C       48.53480000      54.91510000      54.91600000
C       51.46430000      54.91600000      45.08470000
C       51.46560000      45.08420000      54.91520000
C       45.08450000      51.46410000      54.91590000
C       54.91520000      51.46570000      45.08430000
C       54.91590000      48.53520000      54.91530000
C       45.08400000      54.91500000      51.46550000
C       54.91510000      54.91610000      48.53520000
C       54.91610000      45.08480000      51.46440000
C       51.46520000      45.08490000      45.08400000
C       54.91550000      48.53590000      45.08410000
C       54.91600000      45.08500000      48.53450000
C       51.46470000      54.91540000      54.91590000
C       48.53440000      54.91580000      45.08480000
C       48.53570000      45.08390000      54.91530000
C       54.91560000      51.46510000      54.91550000
C       45.08410000      51.46480000      45.08470000
C       45.08480000      48.53430000      54.91570000
C       54.91520000      54.91590000      51.46510000
C       45.08390000      54.91520000      48.53560000
C       45.08500000      45.08390000      51.46480000
C       47.28890000      52.71080000      43.87890000
C       43.87900000      47.28860000      52.71070000
C       52.71110000      43.87910000      47.28880000
C       47.28990000      47.28870000      56.12130000
C       52.71060000      47.29010000      43.87840000
C       52.71060000      52.71050000      56.12140000
C       43.87830000      52.71020000      47.28980000
C       56.12120000      52.71100000      52.71060000
C       56.12150000      47.29010000      47.28900000
C       52.71010000      56.12140000      52.71090000
C       47.28870000      56.12130000      47.28990000
C       47.29010000      43.87820000      52.71030000
C       52.71010000      52.71130000      43.87870000
C       56.12170000      47.28980000      52.71020000
C       47.28990000      43.87860000      47.28910000
C       52.71110000      47.28920000      56.12110000
C       47.28940000      47.28950000      43.87860000
C       47.28940000      52.70990000      56.12160000
C       56.12100000      52.71140000      47.28930000
C       43.87850000      52.70990000      52.71100000
C       43.87880000      47.28900000      47.28940000
C       47.28890000      56.12090000      52.71110000
C       52.70990000      56.12180000      47.28970000
C       52.71130000      43.87870000      52.71010000
C       54.60760000      47.16230000      54.60670000
C       54.60660000      54.60770000      47.16240000
C       47.16200000      54.60650000      54.60750000
C       54.60670000      52.83850000      45.39290000
C       45.39280000      52.83700000      54.60750000
C       45.39300000      47.16210000      45.39290000
C       54.60760000      45.39310000      52.83730000
C       45.39320000      45.39270000      47.16210000
C       45.39260000      54.60650000      52.83830000
C       47.16250000      45.39290000      45.39270000
C       52.83840000      45.39280000      54.60670000
C       52.83720000      54.60770000      45.39310000
C       45.39330000      47.16150000      54.60710000
C       45.39230000      54.60690000      47.16270000
C       52.83750000      54.60710000      54.60730000
C       45.39240000      52.83770000      45.39330000
C       54.60700000      52.83790000      54.60710000
C       54.60720000      47.16300000      45.39250000
C       45.39340000      45.39230000      52.83760000
C       54.60740000      45.39350000      47.16170000
C       54.60680000      54.60740000      52.83790000
C       52.83800000      45.39350000      45.39250000
C       47.16280000      45.39230000      54.60690000
C       47.16160000      54.60720000      45.39330000
C       50.71460000      54.07770000      55.80500000
C       55.80480000      50.71510000      54.07790000
C       54.07750000      55.80510000      50.71510000
C       50.71500000      45.92240000      44.19500000
C       49.28580000      45.92150000      55.80450000
C       49.28460000      54.07840000      44.19560000
C       55.80460000      49.28600000      45.92170000
C       44.19550000      49.28440000      54.07820000
C       44.19510000      50.71450000      45.92220000
C       54.07850000      44.19570000      49.28460000
C       45.92260000      44.19480000      50.71460000
C       45.92140000      55.80440000      49.28570000
C       49.28500000      54.07750000      55.80500000
C       44.19540000      50.71400000      54.07830000
C       45.92150000      55.80430000      50.71540000
C       49.28540000      45.92230000      44.19500000
C       50.71540000      45.92160000      55.80440000
C       50.71420000      54.07850000      44.19550000
C       44.19520000      49.28490000      45.92210000
C       55.80490000      49.28550000      54.07780000
C       55.80450000      50.71560000      45.92180000
C       45.92250000      44.19490000      49.28490000
C       54.07860000      44.19560000      50.71430000
C       54.07740000      55.80520000      49.28540000
C       44.19490000      54.07740000      50.71530000
C       50.71550000      44.19510000      54.07760000
C       54.07770000      50.71560000      44.19520000
C       44.19560000      45.92150000      49.28510000
C       55.80510000      45.92250000      50.71430000
C       55.80430000      54.07860000      49.28530000
C       50.71410000      55.80510000      45.92240000
C       49.28480000      55.80440000      54.07850000
C       49.28560000      44.19550000      45.92160000
C       54.07830000      49.28520000      55.80450000
C       45.92180000      49.28520000      44.19540000
C       45.92210000      50.71400000      55.80490000
C       55.80440000      54.07850000      50.71490000
C       49.28590000      44.19490000      54.07760000
C       45.92170000      50.71480000      44.19550000
C       55.80510000      45.92260000      49.28470000
C       44.19570000      45.92140000      50.71470000
C       44.19490000      54.07750000      49.28570000
C       49.28450000      55.80490000      45.92240000
C       50.71440000      55.80450000      54.07840000
C       50.71520000      44.19560000      45.92150000
C       45.92230000      49.28440000      55.80480000
C       54.07790000      49.28600000      44.19510000
C       54.07820000      50.71480000      55.80460000
C       43.60920000      52.96720000      51.34740000
C       51.34770000      43.60930000      52.96740000
C       52.96750000      51.34770000      43.60940000
C       43.60960000      47.03160000      48.65300000
C       56.39090000      47.03260000      51.34650000
C       56.39030000      52.96860000      48.65300000
C       51.34630000      56.39090000      47.03250000
C       48.65250000      56.39030000      52.96840000
C       48.65350000      43.60950000      47.03170000
C       52.96820000      48.65280000      56.39040000
C       47.03200000      48.65320000      43.60940000
C       47.03220000      51.34630000      56.39080000
C       56.39040000      52.96840000      51.34700000
C       48.65370000      43.60910000      52.96750000
C       47.03180000      51.34720000      43.60960000
C       56.39080000      47.03280000      48.65260000
C       43.60970000      47.03140000      51.34700000
C       43.60910000      52.96740000      48.65340000
C       48.65230000      56.39070000      47.03260000
C       51.34650000      56.39050000      52.96830000
C       51.34750000      43.60970000      47.03160000
C       47.03250000      48.65230000      56.39060000
C       52.96780000      48.65370000      43.60920000
C       52.96800000      51.34680000      56.39060000
C       44.80040000      46.54180000      46.54200000
C       46.54240000      44.80010000      46.54180000
C       46.54220000      46.54210000      44.80010000
C       44.80000000      53.45720000      53.45840000
C       55.19930000      53.45870000      46.54210000
C       55.20020000      46.54230000      53.45750000
C       46.54170000      55.19920000      53.45840000
C       53.45730000      55.20030000      46.54230000
C       53.45850000      44.80030000      53.45740000
C       46.54190000      53.45720000      55.20010000
C       53.45740000      53.45860000      44.80030000
C       53.45840000      46.54200000      55.19940000
C       55.20000000      46.54280000      46.54160000
C       53.45830000      44.80080000      46.54160000
C       53.45810000      46.54280000      44.79990000
C       55.19960000      53.45820000      53.45800000
C       44.79980000      53.45770000      46.54250000
C       44.80070000      46.54130000      53.45790000
C       53.45760000      55.19990000      53.45820000
C       46.54150000      55.19970000      46.54260000
C       46.54270000      44.79970000      53.45770000
C       53.45780000      53.45790000      55.19990000
C       46.54160000      53.45800000      44.80060000
C       46.54260000      46.54140000      55.19970000
