240
Lattice="100.0 0.0 0.0 0.0 100.0 0.0 0.0 0.0 100.0" Properties=species:S:1:pos:R:3 name=C-97510-5923-663 pressure=420.870870485687 energy=-1781.79255893335 spacegroup=Th times_found=1 pbc="T T T"
C       55.47100000      45.83240000      47.23630000
C       47.23480000      55.46910000      45.83090000
C       45.83150000      47.23500000      55.46970000
C       55.46880000      54.17000000      52.76460000
C       44.52940000      54.16740000      47.23510000
C       44.53080000      45.83030000      52.76410000
C       47.23660000      44.52970000      54.16870000
C       52.76580000      44.53060000      45.83180000
C       52.76280000      55.47060000      54.16870000
C       45.83110000      52.76320000      44.52970000
C       54.16770000      52.76540000      55.47010000
C       54.16970000      47.23640000      44.53060000
C       44.53130000      45.83000000      47.23550000
C       52.76340000      55.47030000      45.83130000
C       54.16890000      47.23680000      55.47030000
C       44.52900000      54.16760000      52.76370000
C       55.46920000      54.16970000      47.23600000
C       55.47050000      45.83260000      52.76490000
C       52.76520000      44.53090000      54.16910000
C       47.23720000      44.52940000      45.83140000
C       47.23420000      55.46940000      54.16820000
C       54.16850000      52.76500000      44.53030000
C       45.83030000      52.76360000      55.46940000
C       45.83230000      47.23460000      44.52990000
C       51.60900000      49.27900000      43.23060000
C       43.23020000      51.60680000      49.27830000
C       49.28020000      43.23040000      51.60860000
C       51.60770000      50.72170000      56.76960000
C       48.39200000      50.72050000      43.23030000
C       48.39130000      49.27880000      56.76940000
C       43.23080000      48.39020000      50.72060000
C       56.76990000      48.39310000      49.27950000
C       56.76910000      51.60980000      50.72150000
C       49.27760000      56.76930000      48.39130000
C       50.71950000      56.76970000      51.60810000
C       50.72270000      43.23060000      48.39200000
C       48.39230000      49.27830000      43.23040000
C       56.76920000      51.60980000      49.27940000
C       50.72240000      43.23070000      51.60870000
C       48.39100000      50.72100000      56.76930000
C       51.60870000      50.72120000      43.23060000
C       51.60800000      49.27950000      56.76970000
C       56.76980000      48.39320000      50.72170000
C       43.23090000      48.39020000      49.27850000
C       43.23010000      51.60690000      50.72050000
C       50.71970000      56.76960000      48.39140000
C       49.27730000      56.76940000      51.60800000
C       49.28050000      43.23030000      48.39190000
C       52.62350000      43.91810000      47.15300000
C       47.15250000      52.62110000      43.91730000
C       43.91800000      47.15140000      52.62160000
C       52.62050000      56.08310000      52.84740000
C       47.37690000      56.08170000      47.15210000
C       47.37910000      43.91710000      52.84750000
C       47.15270000      47.37770000      56.08230000
C       52.84850000      47.37840000      43.91790000
C       52.84640000      52.62280000      56.08250000
C       43.91720000      52.84600000      47.37740000
C       56.08160000      52.84880000      52.62230000
C       56.08320000      47.15380000      47.37860000
C       47.37960000      43.91700000      47.15260000
C       52.84730000      52.62230000      43.91770000
C       56.08280000      47.15400000      52.62260000
C       47.37650000      56.08190000      52.84700000
C       52.62090000      56.08280000      47.15250000
C       52.62310000      43.91830000      52.84790000
C       52.84750000      47.37890000      56.08270000
C       47.15360000      47.37720000      43.91750000
C       47.15160000      52.62160000      56.08200000
C       56.08200000      52.84860000      47.37840000
C       43.91680000      52.84620000      52.62140000
C       43.91840000      47.15110000      47.37770000
C       44.52300000      50.76030000      54.19080000
C       54.19240000      44.52440000      50.76190000
C       50.76080000      54.19120000      44.52340000
C       44.52400000      49.23730000      45.80840000
C       55.47630000      49.24000000      54.19170000
C       55.47660000      50.76240000      45.80920000
C       54.19010000      55.47740000      49.23880000
C       45.80750000      55.47560000      50.76080000
C       45.81000000      44.52260000      49.23860000
C       50.76180000      45.80920000      55.47670000
C       49.24000000      45.80840000      44.52360000
C       49.23730000      54.19130000      55.47620000
C       55.47600000      50.76270000      54.19160000
C       45.80990000      44.52260000      50.76130000
C       49.23820000      54.19080000      44.52330000
C       55.47700000      49.23970000      45.80920000
C       44.52340000      49.23760000      54.19080000
C       44.52370000      50.76000000      45.80830000
C       45.80760000      55.47550000      49.23810000
C       54.19000000      55.47740000      50.76140000
C       54.19250000      44.52440000      49.23920000
C       49.23910000      45.80880000      55.47660000
C       50.76270000      45.80870000      44.52370000
C       50.76000000      54.19160000      55.47640000
C       53.02810000      43.98640000      48.55090000
C       48.55030000      53.02620000      43.98550000
C       43.98590000      48.54930000      53.02630000
C       53.02530000      56.01490000      51.44950000
C       46.97210000      56.01350000      48.55000000
C       46.97450000      43.98520000      51.44960000
C       48.55070000      46.97320000      56.01420000
C       51.45070000      46.97340000      43.98600000
C       51.44840000      53.02730000      56.01420000
C       43.98570000      51.44810000      46.97280000
C       56.01370000      51.45100000      53.02710000
C       56.01480000      48.55160000      46.97380000
C       46.97470000      43.98510000      48.55050000
C       51.44930000      53.02680000      43.98580000
C       56.01430000      48.55190000      53.02720000
C       46.97190000      56.01360000      51.44910000
C       53.02550000      56.01480000      48.55050000
C       53.02790000      43.98650000      51.45000000
C       51.44970000      46.97380000      56.01450000
C       48.55160000      46.97270000      43.98580000
C       48.54940000      53.02660000      56.01400000
C       56.01410000      51.45070000      46.97370000
C       43.98520000      51.44840000      53.02620000
C       43.98630000      48.54900000      46.97290000
C       55.11450000      45.35770000      53.98220000
C       53.98080000      55.11450000      45.35650000
C       45.35510000      53.98080000      55.11330000
C       55.11310000      54.64460000      46.01860000
C       44.88490000      54.64270000      53.98100000
C       44.88750000      45.35510000      46.01820000
C       53.98240000      44.88730000      54.64410000
C       46.01990000      44.88510000      45.35630000
C       46.01690000      55.11310000      54.64310000
C       45.35760000      46.01720000      44.88600000
C       54.64410000      46.01960000      55.11430000
C       54.64310000      53.98240000      44.88640000
C       44.88690000      45.35540000      53.98140000
C       46.01760000      55.11270000      45.35590000
C       54.64240000      53.98280000      55.11400000
C       44.88550000      54.64230000      46.01780000
C       55.11250000      54.64490000      53.98180000
C       55.11510000      45.35730000      46.01900000
C       46.01910000      44.88550000      54.64350000
C       53.98310000      44.88690000      45.35690000
C       53.98020000      55.11490000      54.64370000
C       54.64490000      46.01920000      44.88670000
C       45.35690000      46.01760000      55.11360000
C       45.35590000      53.98040000      44.88570000
C       47.12830000      51.31980000      43.39500000
C       43.39580000      47.12670000      51.32030000
C       51.32240000      43.39540000      47.12850000
C       47.12790000      48.67890000      56.60460000
C       52.87270000      48.67960000      43.39550000
C       52.87110000      51.32160000      56.60490000
C       43.39470000      52.87040000      48.67870000
C       56.60410000      52.87340000      51.32110000
C       56.60550000      47.12950000      48.67990000
C       51.31910000      56.60520000      52.87170000
C       48.67810000      56.60440000      47.12770000
C       48.68050000      43.39510000      52.87210000
C       52.87210000      51.32110000      43.39540000
C       56.60530000      47.12960000      51.32130000
C       48.68090000      43.39490000      47.12830000
C       52.87170000      48.68020000      56.60500000
C       47.12890000      48.67840000      43.39510000
C       47.12730000      51.32040000      56.60450000
C       56.60420000      52.87330000      48.67970000
C       43.39450000      52.87050000      51.32010000
C       43.39600000      47.12660000      48.67890000
C       48.67760000      56.60460000      52.87150000
C       51.31950000      56.60490000      47.12800000
C       51.32190000      43.39560000      52.87230000
C       48.55560000      55.26960000      54.77730000
C       54.77760000      48.55830000      55.27020000
C       55.26880000      54.77880000      48.55730000
C       48.55860000      44.72980000      45.22240000
C       51.44370000      44.73080000      54.77800000
C       51.44220000      55.26990000      45.22220000
C       54.77780000      51.44380000      44.73060000
C       45.22160000      51.44210000      55.26930000
C       45.22300000      48.55580000      44.73000000
C       55.27070000      45.22350000      51.44350000
C       44.73140000      45.22110000      48.55690000
C       44.72910000      54.77660000      51.44230000
C       51.44150000      55.27030000      54.77760000
C       45.22220000      48.55620000      55.26940000
C       44.72930000      54.77650000      48.55650000
C       51.44450000      44.73040000      45.22270000
C       48.55780000      44.73010000      54.77780000
C       48.55630000      55.26920000      45.22200000
C       45.22240000      51.44170000      44.72980000
C       54.77700000      51.44420000      55.27010000
C       54.77840000      48.55790000      44.73070000
C       44.73120000      45.22120000      51.44270000
C       55.27090000      45.22340000      48.55760000
C       55.26860000      54.77890000      51.44320000
C       50.67800000      43.78370000      54.07210000
C       54.07210000      50.67760000      43.78360000
C       43.78240000      54.07050000      50.67630000
C       50.67590000      56.21660000      45.92800000
C       49.32140000      56.21670000      54.07150000
C       49.32470000      43.78300000      45.92840000
C       54.07140000      49.32420000      56.21700000
C       45.92890000      49.32190000      43.78310000
C       45.92760000      50.67630000      56.21630000
C       43.78430000      45.92690000      49.32280000
C       56.21750000      45.92960000      50.67760000
C       56.21580000      54.07310000      49.32340000
C       49.32410000      43.78340000      54.07200000
C       45.92860000      50.67580000      43.78300000
C       56.21570000      54.07310000      50.67730000
C       49.32200000      56.21630000      45.92790000
C       50.67530000      56.21700000      54.07160000
C       50.67860000      43.78330000      45.92850000
C       45.92790000      49.32240000      56.21640000
C       54.07240000      49.32370000      43.78370000
C       54.07110000      50.67810000      56.21690000
C       56.21760000      45.92960000      49.32370000
C       43.78420000      45.92690000      50.67660000
C       43.78250000      54.07040000      49.32240000
C       43.52140000      50.68710000      51.84610000
C       51.84800000      43.52210000      50.68880000
C       50.68850000      51.84650000      43.52170000
C       43.52200000      49.31010000      48.15290000
C       56.47830000      49.31310000      51.84720000
C       56.47830000      50.68970000      48.15380000
C       51.84530000      56.47870000      49.31150000
C       48.15190000      56.47790000      50.68800000
C       48.15480000      43.52130000      49.31170000
C       50.68830000      48.15380000      56.47840000
C       49.31250000      48.15290000      43.52180000
C       49.31070000      51.84680000      56.47810000
C       56.47800000      50.68990000      51.84710000
C       48.15470000      43.52130000      50.68850000
C       49.31170000      51.84620000      43.52160000
C       56.47860000      49.31290000      48.15390000
C       43.52170000      49.31030000      51.84620000
C       43.52170000      50.68690000      48.15280000
C       48.15200000      56.47790000      49.31120000
C       51.84520000      56.47870000      50.68830000
C       51.84810000      43.52210000      49.31200000
C       49.31150000      48.15350000      56.47830000
C       50.68930000      48.15320000      43.52190000
C       50.68750000      51.84710000      56.47830000
