240
Lattice="100.0 0.0 0.0 0.0 100.0 0.0 0.0 0.0 100.0" Properties=species:S:1:pos:R:3 name=C-97510-5923-889 pressure=-0.00975224709378115 spacegroup=C1 times_found=1 energy=-1707.46740066544 pbc="T T T"
C       52.60610000      53.57140000      56.37740000
C       56.32100000      52.62210000      53.53410000
C       53.59380000      56.32680000      52.62620000
C       47.40750000      53.51180000      43.71680000
C       52.62920000      46.41850000      43.69690000
C       47.36690000      46.46690000      56.30200000
C       43.72340000      52.57100000      46.46140000
C       56.35910000      47.43040000      46.43180000
C       43.69970000      47.40610000      53.56870000
C       46.46870000      56.33280000      47.43710000
C       53.55220000      43.65460000      47.39830000
C       46.40690000      43.60940000      52.58390000
C       56.36680000      53.58430000      52.58330000
C       53.55280000      52.60450000      56.34630000
C       52.64080000      56.31960000      53.58670000
C       43.73480000      53.53090000      47.41450000
C       43.71050000      46.44450000      52.61680000
C       56.31580000      46.47710000      47.39210000
C       46.45810000      52.54900000      43.68890000
C       46.42360000      47.43150000      56.34500000
C       53.57660000      47.38430000      43.69950000
C       47.42320000      56.31630000      46.47900000
C       47.36800000      43.65260000      53.53480000
C       52.60470000      43.61800000      46.43260000
C       43.91350000      49.33270000      54.25830000
C       54.20170000      43.95740000      49.32110000
C       49.32040000      54.19370000      43.97120000
C       56.15310000      49.34430000      45.71280000
C       43.93270000      50.64730000      45.76830000
C       56.01960000      50.70230000      54.18120000
C       45.70820000      43.83330000      50.66970000
C       54.27890000      56.11380000      50.69960000
C       45.77440000      56.10620000      49.35160000
C       50.69560000      54.28320000      56.15680000
C       49.26690000      45.77980000      56.05660000
C       50.71090000      45.71580000      43.91180000
C       54.25510000      49.31240000      43.91650000
C       49.28510000      43.93680000      54.21100000
C       43.95950000      54.22490000      49.33360000
C       45.72220000      49.34960000      56.15360000
C       45.75270000      50.63060000      43.88740000
C       54.21130000      50.68650000      56.05450000
C       50.69230000      43.83370000      45.72160000
C       50.72010000      56.10000000      54.28050000
C       49.33410000      56.06530000      45.79060000
C       56.16650000      54.30580000      50.66960000
C       56.00870000      45.82860000      49.30990000
C       43.92490000      45.74690000      50.69620000
C       49.16430000      54.79050000      52.92500000
C       52.76610000      49.23650000      54.71820000
C       54.88310000      52.94400000      49.08840000
C       50.85580000      54.75380000      47.18130000
C       49.11550000      45.11650000      47.09330000
C       50.78700000      45.20510000      52.82190000
C       47.11460000      49.06060000      45.17980000
C       52.90000000      50.85020000      45.25340000
C       47.09500000      50.91560000      54.86910000
C       45.28220000      52.87880000      50.87860000
C       54.62940000      47.24050000      50.75190000
C       45.23790000      47.06730000      49.12810000
C       52.92520000      54.79340000      49.14910000
C       54.63310000      49.26580000      52.76830000
C       49.12450000      52.91930000      54.86750000
C       47.15400000      54.80680000      50.89930000
C       47.08790000      45.10060000      49.09410000
C       52.76030000      45.28700000      50.78090000
C       45.24920000      49.08870000      47.11020000
C       45.23870000      50.88450000      52.92340000
C       54.87190000      50.92100000      47.08230000
C       50.83680000      52.82510000      45.30330000
C       50.97650000      47.07500000      54.99550000
C       49.14490000      47.05790000      45.22070000
C       46.65370000      47.32080000      50.11300000
C       50.05570000      46.38280000      47.40330000
C       47.43180000      49.98290000      46.44070000
C       53.25940000      47.48100000      49.76210000
C       46.65760000      52.61330000      49.91080000
C       53.63370000      52.62140000      50.02400000
C       49.78910000      46.32030000      52.44900000
C       50.13340000      53.42470000      52.66810000
C       49.88710000      53.48650000      47.49740000
C       52.45410000      50.22990000      53.47180000
C       47.39690000      50.00250000      53.60670000
C       52.67220000      49.89900000      46.62450000
C       50.11680000      47.31870000      46.58990000
C       47.40840000      46.34160000      50.00780000
C       46.61260000      50.04260000      47.36720000
C       49.92890000      47.49590000      52.79070000
C       49.84430000      52.55440000      46.67950000
C       50.06850000      52.61040000      53.60260000
C       52.47170000      46.52130000      49.77460000
C       52.69230000      53.42560000      50.10500000
C       47.47250000      53.54620000      49.95020000
C       53.27230000      50.27460000      52.53850000
C       53.62680000      49.97980000      47.41360000
C       46.59170000      49.91120000      52.67020000
C       53.10250000      52.11940000      45.94070000
C       45.96320000      53.09880000      52.14570000
C       51.99260000      46.02210000      52.99300000
C       46.88570000      52.18330000      54.15740000
C       52.92410000      48.01650000      53.94040000
C       46.90130000      47.79430000      45.89000000
C       54.15320000      53.15230000      47.83330000
C       45.92710000      46.84870000      47.86790000
C       53.89710000      47.06200000      51.98670000
C       47.85270000      45.82530000      46.86850000
C       52.11690000      54.05270000      46.95670000
C       47.89790000      54.10380000      53.13990000
C       45.93270000      52.14980000      53.13460000
C       52.09740000      53.04860000      45.98790000
C       52.92660000      46.06210000      52.01260000
C       54.14440000      52.17720000      46.87100000
C       53.88950000      48.03260000      52.94630000
C       45.93190000      47.81740000      46.89640000
C       47.86450000      53.14230000      54.15380000
C       47.87730000      46.83230000      45.89980000
C       51.97180000      47.02320000      53.98630000
C       46.87850000      45.82360000      47.83100000
C       46.93900000      54.09760000      52.16210000
C       53.12420000      54.09810000      47.88180000
C       48.78880000      52.96020000      43.53390000
C       43.52140000      48.78980000      53.01300000
C       52.98850000      43.47600000      48.77900000
C       51.21760000      53.03770000      56.58930000
C       48.74780000      47.00230000      56.51640000
C       51.24300000      46.96100000      43.50570000
C       56.58130000      48.81990000      46.96060000
C       43.53360000      51.18790000      47.01260000
C       56.48570000      51.24520000      52.96640000
C       46.94900000      43.39100000      51.19850000
C       53.03930000      56.51740000      51.24440000
C       47.01510000      56.54010000      48.82160000
C       43.54830000      52.98280000      48.79810000
C       53.01690000      48.76450000      43.51460000
C       48.75570000      43.48280000      52.98180000
C       56.58870000      53.05600000      51.19350000
C       56.48210000      47.04230000      48.76860000
C       43.53330000      46.99350000      51.23190000
C       46.97010000      48.81140000      56.56530000
C       47.00090000      51.16370000      43.47470000
C       52.99430000      51.22500000      56.53340000
C       51.21580000      43.39960000      46.96500000
C       51.25630000      56.51230000      53.03970000
C       48.80740000      56.51350000      47.02610000
C       44.33510000      49.29600000      48.32610000
C       48.28960000      44.14230000      49.28990000
C       49.33600000      48.26550000      44.28600000
C       55.60830000      49.42640000      51.59310000
C       44.33490000      50.67520000      51.70130000
C       55.82310000      50.73840000      48.27990000
C       51.61070000      44.27480000      50.62800000
C       48.35490000      55.75250000      50.71140000
C       51.70830000      55.71540000      49.35890000
C       50.65840000      48.30570000      55.76070000
C       49.30880000      51.71340000      55.81720000
C       50.65920000      51.63030000      44.35390000
C       48.32670000      49.26160000      44.24950000
C       49.29790000      44.15820000      48.29310000
C       44.34110000      48.29110000      49.33580000
C       51.62860000      49.37150000      55.72840000
C       51.68230000      50.63750000      44.33920000
C       48.30840000      50.70880000      55.81010000
C       50.62070000      44.22880000      51.62930000
C       50.68810000      55.72030000      48.36820000
C       49.35870000      55.72640000      51.71730000
C       55.60700000      48.41600000      50.58750000
C       55.82700000      51.73960000      49.27500000
C       44.34910000      51.67290000      50.68830000
C       54.86820000      47.95770000      44.18980000
C       44.23480000      54.82610000      47.97610000
C       47.92440000      44.20650000      54.80600000
C       45.12800000      47.98660000      55.85520000
C       54.82050000      52.04750000      55.78780000
C       45.16520000      51.99560000      44.18450000
C       55.87030000      54.88300000      52.04060000
C       44.19400000      45.14270000      52.05260000
C       55.76190000      45.20720000      47.95660000
C       52.05970000      44.13440000      45.14200000
C       47.97160000      55.77820000      45.19880000
C       52.07870000      55.81850000      54.88140000
C       44.18170000      47.97490000      54.86720000
C       47.96470000      54.79630000      44.24560000
C       54.81460000      44.22170000      47.96130000
C       55.85630000      47.97380000      45.13610000
C       55.76900000      52.05410000      54.80390000
C       44.21130000      52.00490000      45.16550000
C       52.06350000      54.86320000      55.86220000
C       52.07140000      45.11920000      44.19110000
C       47.92250000      45.19670000      55.74950000
C       45.12810000      44.14230000      52.03430000
C       45.18470000      55.81140000      47.98810000
C       54.88720000      55.83510000      52.05590000
C       48.24770000      43.55950000      50.64470000
C       50.69160000      48.24990000      43.70320000
C       43.73870000      50.64560000      48.30490000
C       51.68100000      43.63590000      49.30130000
C       48.31460000      56.35870000      49.36790000
C       51.74520000      56.31920000      50.70550000
C       49.29640000      48.28800000      56.36530000
C       50.65850000      51.74390000      56.40950000
C       49.32790000      51.66170000      43.72060000
C       56.29820000      50.72800000      51.65950000
C       43.73340000      49.32820000      51.72130000
C       56.39410000      49.37840000      48.25160000
C       50.65510000      43.57830000      48.25880000
C       43.74180000      48.28170000      50.68510000
C       48.29600000      50.61560000      43.66460000
C       49.28990000      43.60660000      51.68010000
C       49.35120000      56.33970000      48.32720000
C       50.70990000      56.32100000      51.74710000
C       56.29640000      48.34960000      49.28670000
C       56.39850000      51.76590000      50.63350000
C       43.74650000      51.69040000      49.34190000
C       51.68470000      50.69480000      56.36250000
C       51.72120000      49.29810000      43.72020000
C       48.27320000      49.33970000      56.37050000
C       45.78020000      49.58290000      44.77740000
C       44.80850000      45.75300000      49.64490000
C       49.64760000      44.72710000      45.75840000
C       54.12890000      49.68450000      55.11980000
C       45.75730000      50.39620000      55.26230000
C       54.23080000      50.35920000      44.80560000
C       55.07060000      45.89650000      50.31030000
C       44.85400000      54.20240000      50.37510000
C       55.27000000      54.27500000      49.62470000
C       50.31430000      44.83780000      54.16840000
C       49.67230000      55.21200000      54.25260000
C       50.36000000      55.15670000      45.83980000
C       44.81840000      49.59740000      45.78450000
C       49.66270000      45.73540000      44.79980000
C       45.74800000      44.72380000      49.62200000
C       55.08190000      49.70090000      54.11220000
C       55.25370000      50.38620000      45.74970000
C       44.80360000      50.37940000      54.24680000
C       50.30610000      45.84140000      55.14770000
C       50.34780000      54.15470000      44.87860000
C       49.65410000      54.25140000      55.25950000
C       54.11610000      44.88890000      50.32820000
C       54.25410000      55.22790000      49.64880000
C       45.81520000      55.20750000      50.38900000
