240
Lattice="100.0 0.0 0.0 0.0 100.0 0.0 0.0 0.0 100.0" Properties=species:S:1:pos:R:3 name=C-97510-5923-983 pressure=-0.0362470924960569 spacegroup=C2 times_found=1 energy=-1764.77472483874 pbc="T T T"
C       56.98200000      48.44620000      51.77050000
C       48.67700000      51.85660000      57.08450000
C       51.76550000      56.80250000      48.68630000
C       43.01800000      48.44660000      48.22920000
C       42.82860000      51.46370000      51.56840000
C       57.17140000      51.46390000      48.43180000
C       51.32300000      51.85770000      42.91580000
C       51.49720000      48.27050000      56.95820000
C       48.50280000      48.27160000      43.04150000
C       48.23450000      56.80230000      51.31480000
C       48.16970000      42.70100000      48.70340000
C       51.83020000      42.70080000      51.29540000
C       57.26220000      51.27910000      51.94130000
C       48.70860000      48.35000000      56.70840000
C       51.65600000      42.76450000      48.46900000
C       42.73780000      51.27950000      48.05890000
C       42.85470000      48.64520000      51.73310000
C       57.14530000      48.64540000      48.26670000
C       51.29140000      48.35110000      43.29140000
C       51.51120000      51.80030000      56.96530000
C       48.48880000      51.80150000      43.03500000
C       48.34390000      42.76430000      51.52980000
C       48.25400000      56.97610000      48.53280000
C       51.74600000      56.97590000      51.46830000
C       52.14090000      45.40070000      54.58870000
C       45.13060000      54.90130000      51.46400000
C       54.65970000      52.09950000      45.62650000
C       47.85900000      45.40140000      45.41050000
C       48.24130000      54.71690000      54.85400000
C       51.75870000      54.71760000      45.14670000
C       54.86950000      54.90150000      48.53680000
C       54.52200000      45.13240000      51.54000000
C       45.47800000      45.13270000      48.45920000
C       45.34030000      52.09890000      54.37380000
C       44.87610000      48.20470000      45.02990000
C       55.12380000      48.20380000      54.96980000
C       51.73200000      54.99270000      55.09880000
C       45.57610000      45.32650000      52.07760000
C       54.70290000      48.45370000      45.59860000
C       48.26810000      54.99350000      44.90200000
C       48.50020000      45.19760000      54.88430000
C       51.49970000      45.19840000      45.11500000
C       54.42380000      45.32680000      47.92170000
C       54.61680000      54.61700000      52.19760000
C       45.38320000      54.61740000      47.80320000
C       45.29710000      48.45310000      54.40120000
C       44.99810000      51.70200000      45.21060000
C       55.00190000      51.70120000      54.78970000
C       52.89230000      55.32750000      54.38760000
C       54.82460000      53.61960000      53.34470000
C       54.16430000      52.92890000      54.60420000
C       47.10770000      55.32820000      45.61320000
C       47.31100000      44.75310000      54.28790000
C       52.68890000      44.75380000      45.71130000
C       45.17550000      53.62020000      46.65590000
C       45.39780000      46.41060000      53.14350000
C       54.60220000      46.41100000      46.85590000
C       45.83570000      52.92970000      45.39630000
C       46.09460000      47.19990000      54.31530000
C       53.90530000      47.20050000      45.68430000
C       53.25310000      45.20010000      53.56690000
C       54.46210000      45.89130000      52.81950000
C       54.37980000      47.05920000      55.29060000
C       46.74690000      45.20070000      46.43230000
C       47.05500000      54.48840000      53.97000000
C       52.94510000      54.48900000      46.03080000
C       45.53780000      45.89180000      47.17980000
C       44.68330000      54.29480000      52.64800000
C       55.31680000      54.29520000      47.35270000
C       45.62020000      47.06000000      44.70890000
C       46.35470000      53.23140000      54.60480000
C       53.64540000      53.23210000      45.39570000
C       49.18410000      55.71200000      54.75580000
C       55.64300000      54.68130000      49.69320000
C       54.95530000      49.29160000      55.87290000
C       50.81600000      55.71280000      45.24510000
C       51.06970000      44.46250000      54.52510000
C       48.93030000      44.46330000      45.47400000
C       44.35700000      54.68130000      50.30760000
C       44.66420000      45.34390000      49.54130000
C       55.33570000      45.34380000      50.45790000
C       45.04470000      49.29260000      44.12700000
C       45.50190000      50.98890000      55.25830000
C       54.49810000      50.98970000      44.74190000
C       49.63860000      44.38790000      54.69420000
C       55.34470000      45.42520000      49.01040000
C       54.88430000      50.73980000      55.76340000
C       50.36140000      44.38860000      45.30490000
C       50.62520000      55.86460000      54.88590000
C       49.37480000      55.86540000      45.11510000
C       44.65530000      45.42510000      50.98880000
C       44.44670000      54.52320000      48.87350000
C       55.55340000      54.52300000      51.12730000
C       45.11570000      50.74070000      44.23670000
C       45.49110000      49.53760000      55.21630000
C       54.50890000      49.53840000      44.78370000
C       56.50270000      49.10870000      52.96170000
C       49.39400000      52.99590000      56.52200000
C       52.85890000      56.20230000      49.43080000
C       43.49730000      49.10930000      47.03810000
C       43.51870000      50.88090000      52.72920000
C       56.48130000      50.88130000      47.27100000
C       50.60600000      52.99690000      43.47840000
C       50.87310000      47.15560000      56.24020000
C       49.12690000      47.15660000      43.75930000
C       47.14110000      56.20220000      50.57020000
C       47.13330000      43.36960000      49.49380000
C       52.86670000      43.36950000      50.50510000
C       56.64390000      50.54090000      53.04150000
C       49.43140000      47.22080000      56.14650000
C       52.81020000      43.44310000      49.07180000
C       43.35610000      50.54140000      46.95860000
C       43.49320000      49.44590000      52.77590000
C       56.50680000      49.44630000      47.22400000
C       50.56850000      47.22180000      43.85310000
C       50.83110000      52.96440000      56.44740000
C       49.16890000      52.96550000      43.55310000
C       47.18970000      43.44300000      50.92720000
C       47.11310000      56.27050000      49.12610000
C       52.88700000      56.27030000      50.87490000
C       43.99910000      53.14150000      52.60860000
C       52.80930000      52.95910000      44.28640000
C       52.95290000      44.10720000      52.72420000
C       56.00090000      53.14190000      47.39190000
C       55.44330000      46.96900000      52.84060000
C       44.55660000      46.96950000      47.15890000
C       47.19070000      52.95830000      55.71410000
C       46.81450000      47.15350000      44.09730000
C       53.18550000      47.15250000      55.90220000
C       47.04700000      44.10770000      47.27480000
C       47.10790000      55.37040000      52.81890000
C       52.89220000      55.37080000      47.18190000
C       44.29040000      47.23800000      52.84570000
C       52.78260000      47.25020000      44.76670000
C       52.82820000      55.92960000      53.18710000
C       55.70960000      47.23840000      47.15380000
C       55.91460000      52.76490000      53.06650000
C       44.08550000      52.76550000      46.93400000
C       47.21730000      47.24940000      55.23280000
C       46.96330000      52.93060000      44.47360000
C       53.03670000      52.92970000      55.52680000
C       47.17190000      55.93010000      46.81380000
C       47.33450000      44.01870000      53.16520000
C       52.66540000      44.01920000      46.83380000
C       43.17610000      52.65400000      48.00410000
C       52.61290000      48.38550000      43.84780000
C       48.46500000      43.16320000      52.89540000
C       56.82390000      52.65360000      51.99630000
C       56.64250000      47.29820000      48.20090000
C       43.35750000      47.29800000      51.79860000
C       47.38710000      48.38450000      56.15200000
C       47.15140000      51.79500000      43.53620000
C       52.84860000      51.79390000      56.46400000
C       51.53490000      43.16360000      47.10350000
C       51.68530000      56.73220000      52.85620000
C       48.31470000      56.73270000      47.14490000
C       43.64040000      47.15300000      48.31010000
C       52.67410000      51.86730000      43.41080000
C       48.20920000      56.33290000      52.65940000
C       56.35950000      47.15270000      51.68940000
C       56.82560000      52.84410000      48.53840000
C       43.17440000      52.84400000      51.46200000
C       47.32600000      51.86620000      56.58950000
C       47.10990000      48.29240000      43.27500000
C       52.89010000      48.29130000      56.72480000
C       51.79090000      56.33330000      47.34160000
C       51.90940000      43.16640000      52.66070000
C       48.09050000      43.16680000      47.33820000
C       49.18360000      50.76940000      42.41180000
C       50.69960000      42.11030000      49.23090000
C       42.24500000      49.23790000      50.66010000
C       50.81640000      50.76820000      57.58840000
C       50.66060000      49.32070000      42.53210000
C       49.33940000      49.31950000      57.46780000
C       49.30030000      42.11020000      50.76790000
C       49.27270000      57.54510000      49.26530000
C       50.72740000      57.54500000      50.73590000
C       57.75500000      49.23790000      49.33980000
C       57.79610000      50.60470000      50.87160000
C       42.20390000      50.60490000      49.12850000
C       49.21570000      49.30090000      42.47220000
C       50.74700000      57.51830000      49.29030000
C       42.21120000      50.68830000      50.59620000
C       50.78430000      49.29970000      57.52770000
C       50.64120000      50.78760000      42.39500000
C       49.35880000      50.78640000      57.60510000
C       49.25310000      57.51820000      50.71090000
C       49.23190000      42.08720000      49.31780000
C       50.76810000      42.08710000      50.68100000
C       57.78880000      50.68830000      49.40400000
C       57.68940000      49.15400000      50.80560000
C       42.31060000      49.15420000      49.19430000
C       53.51850000      49.42140000      43.74970000
C       49.53690000      43.26200000      53.77660000
C       43.29140000      53.63840000      48.94100000
C       46.48150000      49.42040000      56.25020000
C       46.23850000      50.78540000      43.34180000
C       53.76150000      50.78430000      56.65830000
C       50.46300000      43.26260000      46.22230000
C       50.62520000      56.75890000      53.74570000
C       49.37480000      56.75950000      46.25530000
C       56.70860000      53.63820000      51.05960000
C       56.48080000      46.32530000      49.14450000
C       43.51920000      46.32520000      50.85500000
C       53.57960000      50.87250000      43.61970000
C       49.16320000      56.59180000      53.61920000
C       43.60780000      46.30650000      49.39760000
C       46.42040000      50.87160000      56.38050000
C       46.17860000      49.31560000      43.22440000
C       53.82140000      49.31450000      56.77550000
C       50.83690000      56.59240000      46.38180000
C       50.99260000      43.28620000      53.66760000
C       49.00740000      43.28680000      46.33130000
C       56.39220000      46.30630000      50.60180000
C       56.74320000      53.73300000      49.60540000
C       43.25690000      53.73300000      50.39520000
C       44.29150000      51.97110000      53.37200000
C       51.61970000      53.70090000      44.21490000
C       53.56780000      44.14120000      51.47250000
C       55.70850000      51.97160000      46.62830000
C       55.70580000      48.13690000      53.68170000
C       44.29420000      48.13750000      46.31800000
C       48.38030000      53.70000000      55.78570000
C       48.01080000      46.44650000      44.43070000
C       51.98920000      46.44560000      55.56870000
C       46.43210000      44.14150000      48.52650000
C       46.39560000      55.47810000      51.55870000
C       53.60440000      55.47830000      48.44210000
C       44.29110000      48.49140000      53.46600000
C       51.56110000      46.48880000      44.58760000
C       53.57320000      55.59790000      52.01370000
C       55.70890000      48.49190000      46.53370000
C       55.93070000      51.55330000      53.76930000
C       44.06930000      51.55400000      46.23090000
C       48.43890000      46.48790000      55.41180000
C       48.18320000      53.71830000      44.29740000
C       51.81690000      53.71740000      55.70320000
C       46.42680000      55.59830000      47.98720000
C       46.56650000      44.26690000      51.98730000
C       53.43340000      44.26720000      48.01180000
