240
Lattice="100.0 0.0 0.0 0.0 100.0 0.0 0.0 0.0 100.0" Properties=species:S:1:pos:R:3 name=C-97510-5923-68 pressure=8.6811854591243 spacegroup=C1 times_found=1 energy=-1764.93748232304 pbc="T T T"
C       54.11160000      52.97560000      54.48540000
C       52.92930000      55.42470000      54.30180000
C       54.80080000      53.65380000      53.24800000
C       45.92320000      47.05970000      54.41890000
C       53.95640000      47.17330000      45.65140000
C       46.38550000      53.18770000      45.20660000
C       47.25770000      44.66070000      54.30650000
C       52.71930000      44.74770000      45.69690000
C       47.11840000      54.41220000      45.86920000
C       45.27200000      46.29750000      53.21140000
C       54.63680000      46.38980000      46.83880000
C       44.70520000      54.24720000      47.15580000
C       53.71360000      53.18220000      45.29150000
C       52.97420000      54.41410000      45.93010000
C       55.36370000      54.27410000      47.26740000
C       45.73270000      47.21580000      44.80150000
C       54.31470000      47.11230000      55.26060000
C       45.80110000      52.95410000      54.38500000
C       46.82090000      45.28900000      46.45990000
C       53.21870000      45.21810000      53.55070000
C       46.98390000      55.42350000      54.24430000
C       45.64140000      45.99020000      47.23280000
C       54.43100000      45.91450000      52.80770000
C       45.12030000      53.65550000      53.15500000
C       53.57870000      55.63970000      51.91740000
C       55.89630000      51.59110000      53.71360000
C       51.73300000      53.78100000      55.49570000
C       46.53460000      44.21960000      51.99240000
C       53.44870000      44.25970000      48.00010000
C       46.41240000      55.42560000      48.27360000
C       44.02000000      48.28490000      53.66210000
C       55.75620000      48.46230000      46.51050000
C       44.38780000      51.89020000      46.49080000
C       48.36020000      46.42480000      55.40130000
C       51.61080000      46.48490000      44.55150000
C       48.38610000      53.65270000      43.99800000
C       53.62640000      55.43110000      48.35070000
C       55.75850000      51.94000000      46.57340000
C       51.73230000      53.65050000      44.03890000
C       46.46980000      44.17970000      48.52470000
C       53.55280000      44.15410000      51.46170000
C       46.38650000      55.63080000      51.84390000
C       44.55170000      48.33310000      46.51180000
C       55.66170000      48.17320000      53.66020000
C       43.95020000      51.63800000      53.63660000
C       48.06890000      46.51920000      44.42220000
C       51.92860000      46.46900000      55.52880000
C       48.17590000      53.77430000      55.43570000
C       49.60640000      44.35870000      54.68050000
C       44.35550000      54.66110000      49.49070000
C       54.58780000      49.49150000      44.73000000
C       50.67350000      56.00730000      54.81680000
C       49.32160000      55.55080000      45.17080000
C       50.38920000      44.41030000      45.28820000
C       55.35310000      45.41980000      49.00990000
C       44.63530000      45.38620000      50.99120000
C       55.55730000      54.53290000      51.04460000
C       45.46110000      50.97890000      44.51330000
C       54.78810000      50.80220000      55.68770000
C       45.19300000      49.26750000      55.53480000
C       48.96170000      44.51300000      45.46710000
C       44.42320000      54.53540000      50.92790000
C       54.86610000      49.35650000      55.82360000
C       50.78480000      55.55450000      45.18390000
C       49.23220000      56.00840000      54.80300000
C       51.03590000      44.45990000      54.50520000
C       55.32690000      45.35210000      50.45760000
C       44.70060000      45.37800000      49.54310000
C       55.66640000      54.68040000      49.61150000
C       45.16370000      50.73100000      55.52250000
C       54.59090000      50.94090000      44.67010000
C       45.32090000      49.54310000      44.44560000
C       56.38400000      46.31290000      50.60590000
C       46.34460000      50.77030000      56.33930000
C       50.77860000      56.40260000      46.34370000
C       43.26030000      53.66050000      50.85990000
C       56.76680000      53.73050000      49.54390000
C       43.65140000      46.35070000      49.40830000
C       53.70720000      49.38830000      56.69380000
C       46.26460000      49.44870000      43.34040000
C       53.70600000      50.81710000      43.52210000
C       49.02510000      43.32640000      46.31550000
C       50.97550000      43.28220000      53.64860000
C       49.22830000      56.93170000      53.68070000
C       56.49030000      46.31800000      49.14950000
C       46.32100000      50.90310000      43.33810000
C       50.69870000      56.93180000      53.69540000
C       43.26390000      53.70180000      49.40420000
C       56.71420000      53.64770000      50.99770000
C       43.49130000      46.27510000      50.85640000
C       53.62020000      49.36900000      43.67490000
C       46.37390000      49.29560000      56.35300000
C       53.63120000      50.85390000      56.53870000
C       49.52130000      43.23280000      53.76180000
C       50.47820000      43.27970000      46.20140000
C       49.30240000      56.39950000      46.32980000
C       52.69760000      48.34790000      43.77900000
C       48.44760000      43.12350000      52.88310000
C       43.22930000      52.77690000      48.36230000
C       47.27720000      51.85520000      43.15870000
C       52.71810000      51.85310000      56.28350000
C       47.29350000      48.29300000      56.15510000
C       51.72130000      56.83520000      52.76480000
C       48.28150000      56.20450000      47.23030000
C       51.54790000      43.16570000      47.08510000
C       56.66560000      47.28160000      48.19920000
C       43.23880000      47.17320000      51.84580000
C       56.82070000      52.67220000      51.94490000
C       52.79230000      48.35250000      56.65030000
C       48.11300000      43.20400000      47.32510000
C       43.09230000      52.71740000      51.82710000
C       47.21500000      51.81580000      56.14660000
C       52.81930000      51.81580000      43.26620000
C       47.18060000      48.40020000      43.28490000
C       51.78030000      56.20710000      47.26590000
C       48.22520000      56.82930000      52.72870000
C       51.89550000      43.17150000      52.64430000
C       56.34040000      47.16780000      51.68640000
C       43.76580000      47.26440000      48.38000000
C       56.85570000      52.83030000      48.48670000
C       48.31500000      54.62340000      44.99250000
C       54.44360000      45.31520000      47.91170000
C       45.02170000      48.24250000      54.62660000
C       51.53700000      45.20310000      45.09510000
C       48.44720000      45.13380000      54.88570000
C       51.73700000      55.08880000      54.97680000
C       45.13950000      54.86820000      48.34210000
C       54.61070000      54.64400000      52.10460000
C       45.52130000      45.26060000      52.10330000
C       54.94110000      51.75000000      54.70800000
C       45.37910000      52.05500000      45.44410000
C       54.76260000      48.41800000      45.56260000
C       48.16770000      55.08790000      54.93790000
C       54.50230000      45.14900000      51.53270000
C       45.11660000      48.40060000      45.23950000
C       52.09700000      45.41230000      54.56500000
C       47.91300000      45.47790000      45.41610000
C       51.79450000      54.62680000      45.02750000
C       45.34540000      54.64100000      52.01050000
C       54.90220000      54.88400000      48.44700000
C       45.53950000      45.19120000      48.47800000
C       54.72840000      52.05720000      45.55130000
C       44.95170000      51.73400000      54.60040000
C       55.05770000      48.25670000      54.93780000
C       42.17020000      49.18330000      50.72640000
C       49.33000000      50.73120000      42.14010000
C       50.70350000      42.11200000      49.21130000
C       57.79790000      50.60900000      50.85310000
C       42.30610000      50.63910000      49.26100000
C       57.76840000      49.22900000      49.33380000
C       50.76510000      49.27080000      42.42340000
C       49.23180000      49.36480000      57.30750000
C       50.67070000      50.84560000      57.34430000
C       49.27340000      57.43170000      49.16510000
C       50.73340000      57.58110000      50.61840000
C       49.29870000      42.10460000      50.74520000
C       42.40030000      49.19740000      49.27490000
C       49.22330000      50.83670000      57.27660000
C       50.76640000      42.08630000      50.66160000
C       57.80540000      50.67990000      49.38460000
C       42.10480000      50.64540000      50.71920000
C       57.68560000      49.15810000      50.79940000
C       50.67560000      49.37030000      57.40030000
C       49.32180000      49.27300000      42.33500000
C       50.79280000      50.72210000      42.19870000
C       49.25470000      57.57880000      50.60340000
C       50.74440000      57.43310000      49.17980000
C       49.23520000      42.08530000      49.29480000
C       51.66220000      42.76550000      48.45170000
C       42.68260000      48.50180000      51.81230000
C       48.63000000      51.81220000      42.64730000
C       48.26770000      56.71040000      48.55720000
C       51.75720000      57.02810000      51.36310000
C       48.33500000      42.74380000      51.51190000
C       57.25530000      51.29510000      51.91040000
C       42.94630000      51.38100000      48.29110000
C       57.17140000      48.62790000      48.25870000
C       51.37810000      48.31860000      43.21400000
C       48.63130000      48.32400000      56.62820000
C       51.35650000      51.86450000      56.70860000
C       51.82530000      42.70260000      51.27990000
C       43.19980000      48.58190000      48.33230000
C       48.55380000      51.84930000      56.62310000
C       48.21760000      57.02180000      51.32680000
C       51.76370000      56.71310000      48.59280000
C       48.17840000      42.71000000      48.68290000
C       57.20020000      51.44840000      48.39860000
C       42.60200000      51.35830000      51.79680000
C       56.96410000      48.46120000      51.76250000
C       51.39940000      48.32380000      56.86980000
C       48.57210000      48.31260000      42.97830000
C       51.48980000      51.79850000      42.70970000
C       43.20100000      49.23120000      52.95610000
C       49.34830000      52.95290000      43.20230000
C       52.81570000      43.44170000      49.05920000
C       56.61730000      50.56890000      53.00800000
C       43.69330000      50.76590000      47.17750000
C       56.54780000      49.42090000      47.20120000
C       50.63070000      47.22010000      43.79860000
C       49.35960000      47.19790000      56.08950000
C       50.67910000      53.01850000      56.14200000
C       47.14480000      56.15800000      49.27670000
C       52.89030000      56.28540000      50.77660000
C       47.17800000      43.42340000      50.91560000
C       43.78970000      49.32030000      47.22910000
C       49.22700000      53.01730000      56.10700000
C       52.86280000      43.37380000      50.49310000
C       56.52320000      50.85600000      47.23500000
C       43.16700000      50.65790000      52.94380000
C       56.47060000      49.13620000      52.94060000
C       50.80010000      47.17390000      56.17750000
C       49.18500000      47.19040000      43.71270000
C       50.77530000      52.95220000      43.22620000
C       47.09730000      56.27780000      50.71700000
C       52.87160000      56.16280000      49.33620000
C       47.14270000      43.37480000      49.48000000
C       52.90440000      55.28600000      47.09370000
C       55.41070000      46.99490000      52.82910000
C       46.97000000      52.95510000      55.25560000
C       47.09400000      44.16880000      47.27690000
C       52.93080000      44.12100000      52.70990000
C       47.08220000      56.00750000      53.03400000
C       43.99560000      52.83270000      52.90660000
C       56.04320000      53.11820000      47.32790000
C       44.71630000      47.10800000      47.26930000
C       53.11250000      47.20030000      55.85610000
C       46.89130000      47.26640000      44.12110000
C       52.92330000      52.91560000      44.14440000
C       52.85800000      56.01430000      53.09290000
C       55.74460000      47.21500000      47.14200000
C       47.18590000      52.93210000      44.06720000
C       47.29950000      43.95230000      53.16710000
C       52.68590000      44.01250000      46.81890000
C       47.16250000      55.28240000      47.03350000
C       44.05760000      53.06980000      47.22310000
C       55.89630000      52.79550000      52.99890000
C       44.12150000      47.08320000      52.94310000
C       52.84290000      47.22820000      44.72160000
C       47.10210000      47.14660000      55.26510000
C       52.95000000      52.97980000      55.35910000
