240
Lattice="100.0 0.0 0.0 0.0 100.0 0.0 0.0 0.0 100.0" Properties=species:S:1:pos:R:3 name=C-97510-5923-573 pressure=31.8113449025178 spacegroup=C1 times_found=1 energy=-1764.85324764088 pbc="T T T"
C       52.86890000      51.77750000      56.89880000
C       56.31870000      52.74340000      51.85320000
C       51.95820000      56.81900000      52.67880000
C       47.08890000      51.56550000      43.12640000
C       52.86830000      48.44660000      43.13830000
C       47.31360000      48.21980000      56.69840000
C       43.79260000      52.65130000      48.32640000
C       56.12020000      47.30320000      48.32430000
C       43.08980000      47.11080000      51.68330000
C       48.19690000      56.64620000      47.28680000
C       51.75490000      43.29610000      47.23710000
C       48.22730000      43.78180000      52.71880000
C       52.86490000      48.29270000      56.97460000
C       56.13860000      47.24550000      51.85040000
C       51.71450000      43.25790000      52.77270000
C       47.30800000      48.12450000      43.13440000
C       52.64960000      51.89600000      43.17120000
C       47.36200000      51.68420000      56.23170000
C       43.15050000      47.13990000      48.20560000
C       56.65750000      52.79800000      48.35020000
C       43.38880000      52.66210000      51.79570000
C       48.26610000      43.78420000      47.22470000
C       51.68470000      56.33470000      47.17260000
C       48.50470000      56.80190000      52.83800000
C       53.13770000      47.30150000      43.97590000
C       44.72340000      52.81640000      47.19930000
C       47.09290000      44.70380000      52.91190000
C       47.20440000      47.14640000      55.80000000
C       53.17130000      52.90240000      56.05210000
C       46.82150000      52.69510000      43.98400000
C       55.40390000      52.98190000      52.98630000
C       43.94510000      46.84440000      52.81820000
C       55.22500000      47.11380000      47.18080000
C       52.86330000      44.16460000      47.13990000
C       47.14220000      55.72200000      47.21570000
C       53.02300000      55.90700000      52.80080000
C       52.71420000      52.93240000      44.11970000
C       44.00390000      46.85890000      47.08010000
C       47.36610000      55.95990000      53.11690000
C       47.20790000      52.79340000      55.27880000
C       53.12730000      47.14620000      56.13270000
C       47.23710000      47.09380000      44.08590000
C       55.25740000      47.01950000      53.00180000
C       44.30470000      52.75350000      52.85590000
C       55.85870000      53.11520000      47.20020000
C       52.83010000      55.40920000      46.99670000
C       47.12720000      44.69640000      47.01220000
C       52.83390000      44.10890000      52.90300000
C       53.81590000      50.76830000      56.99710000
C       56.56340000      53.65150000      50.84740000
C       51.01520000      56.70120000      53.65800000
C       46.19840000      50.50020000      43.21770000
C       53.75250000      49.51580000      43.24630000
C       46.38800000      49.20320000      56.50390000
C       43.69950000      53.55280000      49.36760000
C       56.30790000      46.38870000      49.33310000
C       43.04900000      46.16530000      50.67280000
C       49.14720000      56.48160000      46.32120000
C       50.77900000      43.53690000      46.32200000
C       49.27240000      43.66760000      53.61160000
C       53.81560000      49.29800000      57.02310000
C       56.30700000      46.36680000      50.80790000
C       50.72030000      43.50090000      53.66880000
C       46.30390000      49.04510000      43.24810000
C       53.64890000      50.97130000      43.28800000
C       46.44930000      50.65550000      56.35100000
C       43.06880000      46.17900000      49.20300000
C       56.70700000      53.71890000      49.38070000
C       43.57630000      53.59820000      50.82210000
C       49.32920000      43.68450000      46.35150000
C       50.60400000      56.37810000      46.31790000
C       49.56030000      56.72620000      53.74040000
C       53.28770000      54.81740000      53.66290000
C       54.37190000      52.98090000      55.44480000
C       54.52550000      54.13840000      52.98090000
C       46.84000000      54.62110000      46.38100000
C       53.15010000      45.29840000      46.33900000
C       47.09410000      45.63970000      54.02480000
C       45.69420000      52.72590000      44.71190000
C       54.27060000      47.25860000      44.69410000
C       46.35900000      46.85370000      54.70450000
C       45.65450000      53.93050000      47.15910000
C       54.36480000      45.94550000      47.10130000
C       44.60710000      45.67720000      52.89500000
C       53.12470000      45.21990000      53.73290000
C       54.30430000      47.05190000      55.49000000
C       54.36610000      45.86660000      53.01840000
C       47.13810000      45.62790000      45.89680000
C       52.80890000      54.43100000      45.91480000
C       47.32440000      55.25760000      54.25950000
C       46.39260000      46.81360000      45.18370000
C       53.55170000      53.21880000      45.21980000
C       46.09280000      52.82550000      54.34790000
C       44.63760000      45.67300000      46.99440000
C       55.26430000      54.31790000      47.10950000
C       45.41510000      53.58210000      53.14130000
C       43.50470000      49.11800000      52.83920000
C       52.85860000      43.27710000      49.30020000
C       49.06580000      52.82210000      43.42650000
C       56.07270000      49.36240000      47.21540000
C       43.78330000      50.61120000      47.15390000
C       56.18530000      50.71340000      53.03330000
C       47.03170000      43.79940000      50.68890000
C       53.01590000      56.62010000      50.57120000
C       47.20890000      56.50550000      49.42780000
C       50.85470000      52.90220000      56.34410000
C       49.41720000      47.15770000      56.58030000
C       50.89230000      47.18510000      43.42030000
C       43.49390000      50.55120000      52.84220000
C       52.94410000      56.47010000      49.13820000
C       49.45770000      47.14910000      43.34630000
C       56.17170000      50.80190000      47.18310000
C       43.67290000      49.16910000      47.09130000
C       56.13850000      49.26330000      53.04050000
C       47.25450000      56.46950000      50.86210000
C       52.85070000      43.26540000      50.72720000
C       47.03960000      43.79670000      49.23600000
C       50.85050000      47.15020000      56.56030000
C       49.41270000      52.84040000      56.22370000
C       50.49990000      52.86760000      43.36550000
C       54.66710000      49.60110000      44.37520000
C       44.74570000      54.53000000      49.49260000
C       49.41840000      44.69110000      54.60900000
C       45.47290000      49.07470000      55.37990000
C       54.91180000      50.73600000      56.04280000
C       45.27120000      50.40470000      44.33680000
C       55.70990000      54.80700000      50.79600000
C       44.02170000      45.08480000      50.66230000
C       55.46870000      45.22260000      49.31840000
C       50.93230000      44.66180000      45.41310000
C       49.01090000      55.34930000      45.41660000
C       51.08130000      55.54680000      54.54570000
C       54.50100000      51.03200000      44.46890000
C       44.03360000      45.09090000      49.22220000
C       49.64670000      55.62610000      54.69010000
C       45.46260000      50.52310000      55.31390000
C       54.90400000      49.29470000      56.06050000
C       45.43820000      48.97490000      44.42020000
C       55.46880000      45.20040000      50.78240000
C       44.71100000      54.50250000      50.94190000
C       55.83550000      54.87700000      49.34900000
C       50.45890000      55.32610000      45.35110000
C       49.48280000      44.71500000      45.36230000
C       50.86830000      44.61570000      54.58880000
C       51.46760000      51.80390000      57.10830000
C       56.74180000      51.38110000      51.86870000
C       51.91550000      57.25030000      51.30040000
C       48.45920000      51.67520000      42.73890000
C       51.50120000      48.33830000      42.74500000
C       48.66340000      48.24960000      57.19370000
C       43.21890000      51.33650000      48.27690000
C       56.60900000      48.63590000      48.34360000
C       42.80440000      48.49880000      51.70730000
C       48.25870000      57.14170000      48.63660000
C       51.70670000      42.76460000      48.57530000
C       48.18050000      43.24980000      51.38520000
C       51.47730000      48.28280000      57.25300000
C       56.63290000      48.57830000      51.87030000
C       51.68520000      42.74790000      51.42610000
C       48.67520000      48.18870000      42.66980000
C       51.28730000      51.82920000      42.69680000
C       48.67670000      51.73170000      56.80440000
C       42.92350000      48.54020000      48.19070000
C       56.87240000      51.40370000      48.32670000
C       42.87800000      51.31690000      51.76130000
C       48.20040000      43.25070000      48.55660000
C       51.76160000      56.95730000      48.46640000
C       48.40900000      57.15780000      51.45840000
C       50.79610000      57.67320000      49.16560000
C       49.29350000      50.78360000      57.59970000
C       57.28210000      49.23690000      50.84770000
C       49.38460000      57.77940000      50.69050000
C       50.59310000      42.28010000      50.72090000
C       49.15700000      42.53870000      49.25340000
C       50.67030000      50.77280000      42.07560000
C       49.29800000      49.24660000      42.05820000
C       50.75330000      49.32900000      57.81110000
C       42.33670000      49.26400000      49.20600000
C       57.40500000      50.68060000      49.37260000
C       42.28920000      50.68810000      50.69410000
C       50.60470000      42.28470000      49.25680000
C       49.30040000      49.32000000      57.76660000
C       57.36220000      50.68420000      50.84800000
C       49.14580000      42.53570000      50.70230000
C       50.85310000      57.78490000      50.61630000
C       49.33040000      57.74360000      49.23940000
C       50.74790000      49.30460000      42.09380000
C       49.21960000      50.71530000      42.08760000
C       50.73590000      50.79650000      57.69960000
C       42.43920000      50.70690000      49.22960000
C       57.30010000      49.23740000      49.37590000
C       42.23970000      49.23460000      50.67400000
C       46.27540000      44.49510000      51.71830000
C       51.95650000      46.54290000      44.23460000
C       44.53880000      51.59990000      46.43200000
C       53.57800000      44.06960000      48.34540000
C       46.51500000      55.71930000      48.46530000
C       53.73270000      55.90950000      51.59300000
C       48.43280000      46.48000000      55.80540000
C       51.98270000      53.59770000      55.67380000
C       48.00440000      53.45150000      44.24380000
C       55.54990000      51.77300000      53.79560000
C       44.26540000      48.04970000      53.51570000
C       55.37270000      48.36490000      46.45090000
C       46.61260000      55.68160000      51.93630000
C       51.46690000      53.55620000      44.14930000
C       44.35500000      48.05870000      46.39030000
C       53.66410000      55.66370000      48.17310000
C       46.29350000      44.48670000      48.19380000
C       53.56510000      44.03360000      51.70760000
C       48.43170000      53.55340000      55.45160000
C       51.91730000      46.45830000      55.80560000
C       48.48370000      46.46900000      44.12540000
C       55.46570000      48.22580000      53.81180000
C       44.28680000      51.52200000      53.51710000
C       55.52580000      51.92930000      46.47510000
C       54.85850000      48.44610000      45.15950000
C       45.56910000      54.72300000      48.41390000
C       48.35490000      45.53010000      54.81270000
C       45.32350000      47.95620000      54.50140000
C       55.04960000      51.78920000      55.11030000
C       45.08100000      51.54200000      45.14730000
C       54.73580000      54.96280000      51.74980000
C       44.95630000      44.98380000      51.71990000
C       54.55740000      45.05560000      48.29480000
C       52.04980000      45.54070000      45.28820000
C       47.91420000      54.43860000      45.30580000
C       52.15350000      54.61780000      54.66150000
C       54.56230000      52.09580000      45.41810000
C       44.97520000      44.97860000      48.17430000
C       48.50360000      54.82630000      54.88580000
C       45.28140000      51.58460000      54.46520000
C       54.99850000      48.22770000      55.13600000
C       45.36130000      47.91160000      45.36500000
C       54.55370000      45.00940000      51.79700000
C       45.61530000      54.63060000      52.04320000
C       54.94420000      55.06380000      48.25290000
C       51.53550000      54.50400000      45.14650000
C       48.41280000      45.53730000      45.13600000
C       52.00470000      45.46560000      54.75050000
