240
Lattice="100.0 0.0 0.0 0.0 100.0 0.0 0.0 0.0 100.0" Properties=species:S:1:pos:R:3 name=C-97510-5923-1231 pressure=2.16695141154846 energy=-1722.18001152185 spacegroup=Td times_found=1 pbc="T T T"
C       44.92690000      54.03040000      50.03730000
C       50.03710000      44.92670000      54.03020000
C       54.03050000      50.03740000      44.92690000
C       55.07280000      54.03080000      49.96340000
C       44.92720000      45.96920000      49.96300000
C       55.07310000      45.96960000      50.03640000
C       49.96330000      44.92740000      45.96900000
C       50.03650000      55.07330000      45.96980000
C       49.96310000      55.07260000      54.03100000
C       45.96950000      50.03630000      55.07310000
C       54.03070000      49.96290000      55.07280000
C       45.96930000      49.96340000      44.92720000
C       50.03650000      54.03100000      44.92740000
C       54.03080000      44.92720000      50.03630000
C       44.92710000      50.03630000      54.03080000
C       49.96320000      54.03020000      55.07330000
C       49.96320000      45.96980000      44.92670000
C       50.03710000      45.96900000      55.07260000
C       45.96960000      44.92690000      49.96290000
C       45.96920000      55.07280000      50.03730000
C       54.03040000      55.07310000      49.96350000
C       55.07290000      50.03730000      45.96920000
C       55.07310000      49.96310000      54.03050000
C       44.92690000      49.96330000      45.96950000
C       49.21450000      44.04580000      48.20030000
C       48.20060000      49.21470000      44.04560000
C       44.04570000      48.20050000      49.21440000
C       50.78590000      44.04550000      51.79880000
C       49.21420000      55.95420000      51.79980000
C       50.78540000      55.95450000      48.20110000
C       51.79950000      49.21390000      55.95420000
C       48.20080000      50.78510000      55.95450000
C       51.79910000      50.78620000      44.04570000
C       55.95440000      48.20090000      50.78530000
C       44.04560000      51.79900000      50.78600000
C       55.95420000      51.79960000      49.21430000
C       48.20090000      44.04560000      49.21390000
C       44.04560000      49.21430000      48.20080000
C       49.21430000      48.20110000      44.04550000
C       51.79950000      44.04570000      50.78520000
C       51.79900000      55.95450000      49.21470000
C       48.20050000      55.95420000      50.78620000
C       55.95440000      49.21440000      51.79910000
C       55.95430000      50.78600000      48.20060000
C       44.04570000      50.78530000      51.79950000
C       50.78590000      48.20020000      55.95420000
C       50.78540000      51.79980000      44.04580000
C       49.21440000      51.79880000      55.95450000
C       48.51870000      55.34590000      49.52350000
C       49.52320000      48.51850000      55.34580000
C       55.34590000      49.52330000      48.51870000
C       51.48080000      55.34590000      50.47730000
C       48.51910000      44.65400000      50.47660000
C       51.48120000      44.65420000      49.52260000
C       50.47690000      48.51940000      44.65400000
C       49.52290000      51.48150000      44.65420000
C       50.47700000      51.48060000      55.34600000
C       44.65410000      49.52270000      51.48120000
C       55.34590000      50.47700000      51.48090000
C       44.65400000      50.47690000      48.51910000
C       49.52280000      55.34600000      48.51930000
C       55.34600000      48.51910000      49.52280000
C       48.51910000      49.52250000      55.34600000
C       50.47680000      55.34580000      51.48140000
C       50.47710000      44.65420000      48.51850000
C       49.52330000      44.65390000      51.48070000
C       44.65410000      48.51870000      50.47700000
C       44.65400000      51.48090000      49.52330000
C       55.34590000      51.48120000      50.47690000
C       51.48090000      49.52350000      44.65400000
C       51.48110000      50.47650000      55.34590000
C       48.51880000      50.47730000      44.65420000
C       49.48880000      52.26050000      45.85930000
C       45.85920000      49.48870000      52.26030000
C       52.26030000      45.85920000      49.48860000
C       50.51110000      52.25990000      54.14110000
C       49.48920000      47.73950000      54.14070000
C       50.51100000      47.74020000      45.85890000
C       54.14090000      49.48930000      47.73970000
C       45.85900000      50.51100000      47.74000000
C       54.14100000      50.51100000      52.26010000
C       47.74000000      45.85900000      50.51070000
C       52.26000000      54.14100000      50.51130000
C       47.73960000      54.14090000      49.48940000
C       45.85900000      52.26010000      49.48930000
C       52.26010000      49.48940000      45.85900000
C       49.48920000      45.85890000      52.25990000
C       54.14090000      52.26030000      50.51110000
C       54.14100000      47.74000000      49.48870000
C       45.85920000      47.73960000      50.51090000
C       47.74000000      49.48860000      54.14090000
C       47.73970000      50.51130000      45.85920000
C       52.26030000      50.51080000      54.14090000
C       50.51110000      45.85930000      47.73950000
C       50.51090000      54.14080000      52.26050000
C       49.48880000      54.14110000      47.74020000
C       54.98440000      51.17360000      53.22750000
C       53.22740000      54.98440000      51.17400000
C       51.17370000      53.22720000      54.98450000
C       45.01560000      51.17370000      46.77260000
C       54.98430000      48.82680000      46.77220000
C       45.01580000      48.82590000      53.22760000
C       46.77220000      54.98430000      48.82680000
C       53.22770000      45.01590000      48.82580000
C       46.77270000      45.01550000      51.17340000
C       48.82610000      53.22790000      45.01600000
C       51.17370000      46.77290000      45.01540000
C       48.82660000      46.77200000      54.98410000
C       53.22770000      51.17340000      54.98430000
C       51.17360000      54.98410000      53.22790000
C       54.98420000      53.22770000      51.17380000
C       46.77220000      51.17390000      45.01590000
C       46.77260000      48.82580000      54.98430000
C       53.22750000      48.82680000      45.01550000
C       48.82610000      54.98450000      46.77280000
C       48.82660000      45.01540000      53.22720000
C       51.17380000      45.01600000      46.77200000
C       45.01550000      53.22750000      48.82670000
C       45.01580000      46.77210000      51.17350000
C       54.98440000      46.77270000      48.82590000
C       46.50890000      52.44570000      55.88560000
C       55.88550000      46.50890000      52.44580000
C       52.44590000      55.88570000      46.50920000
C       53.49090000      52.44690000      44.11480000
C       46.50880000      47.55410000      44.11460000
C       53.49140000      47.55340000      55.88500000
C       44.11480000      46.50880000      47.55360000
C       55.88510000      53.49160000      47.55380000
C       44.11460000      53.49070000      52.44670000
C       47.55360000      55.88490000      53.49170000
C       52.44660000      44.11450000      53.49060000
C       47.55390000      44.11490000      46.50850000
C       55.88510000      52.44680000      46.50890000
C       52.44660000      46.50850000      55.88500000
C       46.50870000      55.88500000      52.44680000
C       44.11470000      52.44580000      53.49150000
C       44.11470000      47.55380000      46.50880000
C       55.88550000      47.55370000      53.49080000
C       47.55370000      46.50920000      44.11450000
C       47.55380000      53.49060000      55.88560000
C       52.44600000      53.49170000      44.11490000
C       53.49080000      55.88560000      47.55410000
C       53.49140000      44.11460000      52.44570000
C       46.50900000      44.11480000      47.55340000
C       45.52430000      46.57710000      44.54710000
C       44.54730000      45.52440000      46.57660000
C       46.57690000      44.54750000      45.52400000
C       54.47590000      46.57660000      55.45240000
C       45.52440000      53.42260000      55.45310000
C       54.47540000      53.42380000      44.54740000
C       55.45300000      45.52430000      53.42270000
C       44.54720000      54.47520000      53.42370000
C       55.45250000      54.47610000      46.57700000
C       53.42350000      44.54700000      54.47510000
C       46.57670000      55.45230000      54.47620000
C       53.42280000      55.45320000      45.52470000
C       44.54730000      46.57700000      45.52420000
C       46.57690000      45.52460000      44.54700000
C       45.52450000      44.54730000      46.57650000
C       55.45300000      46.57670000      54.47520000
C       55.45250000      53.42370000      45.52450000
C       44.54720000      53.42260000      54.47610000
C       53.42350000      45.52400000      55.45230000
C       53.42290000      54.47620000      44.54750000
C       46.57680000      54.47510000      55.45320000
C       54.47600000      44.54710000      53.42260000
C       54.47540000      55.45320000      46.57710000
C       45.52420000      55.45230000      53.42370000
C       51.10210000      46.77630000      55.73290000
C       55.73310000      51.10230000      46.77660000
C       46.77650000      55.73300000      51.10230000
C       48.89820000      46.77710000      44.26660000
C       51.10150000      53.22380000      44.26700000
C       48.89820000      53.22280000      55.73350000
C       44.26680000      51.10130000      53.22350000
C       55.73330000      48.89820000      53.22300000
C       44.26680000      48.89820000      46.77680000
C       53.22300000      55.73340000      48.89860000
C       46.77690000      44.26680000      48.89780000
C       53.22350000      44.26680000      51.10130000
C       55.73340000      46.77680000      51.10140000
C       46.77680000      51.10120000      55.73340000
C       51.10150000      55.73350000      46.77710000
C       44.26690000      46.77660000      48.89810000
C       44.26670000      53.22300000      51.10220000
C       55.73300000      53.22360000      48.89830000
C       53.22310000      51.10240000      44.26680000
C       53.22350000      48.89790000      55.73300000
C       46.77660000      48.89850000      44.26680000
C       48.89810000      55.73290000      53.22370000
C       48.89830000      44.26700000      46.77630000
C       51.10210000      44.26660000      53.22280000
C       53.56030000      47.46240000      45.42840000
C       45.42850000      53.56040000      47.46230000
C       47.46220000      45.42830000      53.56010000
C       46.43990000      47.46140000      54.57120000
C       53.56040000      52.53790000      54.57140000
C       46.43940000      52.53830000      45.42900000
C       54.57120000      53.56040000      52.53830000
C       45.42890000      46.43930000      52.53790000
C       54.57140000      46.44000000      47.46150000
C       52.53820000      45.42910000      46.43920000
C       47.46170000      54.57150000      46.44010000
C       52.53800000      54.57110000      53.56070000
C       45.42890000      47.46150000      53.56030000
C       47.46170000      53.56060000      45.42900000
C       53.56050000      45.42900000      47.46150000
C       54.57130000      47.46240000      46.43930000
C       54.57130000      52.53800000      53.56050000
C       45.42850000      52.53820000      46.44000000
C       52.53810000      53.56010000      54.57150000
C       52.53810000      46.44010000      45.42840000
C       47.46220000      46.43920000      54.57110000
C       46.43990000      45.42840000      52.53780000
C       46.43940000      54.57140000      47.46240000
C       53.56030000      54.57130000      52.53840000
C       49.13290000      52.83670000      48.14360000
C       48.14340000      49.13270000      52.83660000
C       52.83670000      48.14350000      49.13280000
C       50.86690000      52.83650000      51.85690000
C       49.13320000      47.16320000      51.85650000
C       50.86700000      47.16360000      48.14310000
C       51.85660000      49.13330000      47.16330000
C       48.14320000      50.86710000      47.16350000
C       51.85670000      50.86680000      52.83660000
C       47.16350000      48.14320000      50.86690000
C       52.83660000      51.85670000      50.86710000
C       47.16330000      51.85660000      49.13320000
C       48.14320000      52.83660000      49.13330000
C       52.83660000      49.13330000      48.14320000
C       49.13320000      48.14310000      52.83650000
C       51.85660000      52.83660000      50.86720000
C       51.85680000      47.16350000      49.13270000
C       48.14350000      47.16330000      50.86680000
C       47.16350000      49.13280000      51.85670000
C       47.16330000      50.86700000      48.14350000
C       52.83660000      50.86700000      51.85670000
C       50.86700000      48.14360000      47.16320000
C       50.86700000      51.85650000      52.83670000
C       49.13290000      51.85690000      47.16360000
