240
Lattice="100.0 0.0 0.0 0.0 100.0 0.0 0.0 0.0 100.0" Properties=species:S:1:pos:R:3 name=C-97510-5923-1312 pressure=-0.0268757723538124 spacegroup=C1 times_found=1 energy=-1754.74884884606 pbc="T T T"
C       52.35870000      51.22170000      58.17200000
C       50.51650000      56.85690000      52.56530000
C       56.90510000      51.61200000      50.45670000
C       48.37040000      50.73460000      42.30210000
C       47.36220000      48.94220000      58.32390000
C       51.95780000      49.26130000      41.57910000
C       49.36180000      56.89570000      47.71350000
C       49.47470000      43.99640000      52.36720000
C       50.64250000      42.78710000      47.65190000
C       42.96920000      51.84510000      49.32740000
C       42.66080000      48.17410000      50.74850000
C       56.61880000      48.03750000      48.92920000
C       52.29280000      49.80120000      58.26040000
C       50.86430000      43.94690000      52.29740000
C       56.58010000      48.01960000      50.37500000
C       48.37030000      49.30840000      42.29510000
C       47.42720000      50.35840000      58.34610000
C       51.96600000      50.71520000      41.59830000
C       49.26370000      43.09050000      47.70860000
C       49.11040000      57.00080000      52.54100000
C       50.77440000      57.02680000      47.75900000
C       42.71620000      48.21540000      49.29420000
C       43.01310000      51.79170000      50.77700000
C       56.73500000      51.65170000      49.01360000
C       52.25910000      53.87180000      54.09660000
C       54.90620000      53.66820000      52.69070000
C       52.97070000      52.85800000      54.89960000
C       47.76520000      54.03730000      45.97480000
C       47.52550000      46.29070000      54.51270000
C       53.16200000      45.07320000      46.20340000
C       45.45560000      53.72630000      47.37970000
C       45.06340000      46.23420000      52.71380000
C       54.28720000      45.79960000      46.87760000
C       47.18580000      52.85880000      45.21370000
C       46.71510000      47.16450000      55.33910000
C       53.82420000      47.23250000      43.92030000
C       52.99410000      46.59430000      54.97750000
C       54.20180000      45.74620000      52.21240000
C       53.54070000      47.56770000      55.75110000
C       47.73620000      46.01310000      45.87320000
C       46.74610000      54.33700000      53.56120000
C       53.05570000      54.54320000      46.55320000
C       45.15110000      46.28080000      47.43050000
C       45.67530000      53.66270000      52.78880000
C       54.12230000      53.80620000      47.24650000
C       47.16910000      47.17520000      45.15080000
C       46.06250000      52.37240000      55.70750000
C       53.82980000      52.64670000      44.01390000
C       44.59380000      52.55310000      52.75200000
C       52.98220000      52.66810000      42.92030000
C       52.97760000      44.92310000      52.39380000
C       55.13480000      52.62370000      47.14750000
C       55.03960000      47.05690000      52.30590000
C       44.24210000      47.33540000      47.41510000
C       46.86080000      52.24530000      56.85020000
C       47.77670000      47.35280000      43.81740000
C       52.93040000      47.77370000      57.03910000
C       47.62640000      44.95700000      47.00930000
C       47.04860000      55.67130000      52.96740000
C       52.64790000      55.71030000      47.32560000
C       44.03690000      47.21800000      52.71470000
C       52.95260000      47.25230000      42.84320000
C       52.32750000      55.12800000      53.15210000
C       55.20060000      47.08230000      46.91360000
C       55.77950000      52.59500000      52.54230000
C       44.45950000      52.71420000      47.39330000
C       47.24400000      47.32550000      56.69800000
C       47.77880000      52.68310000      43.85880000
C       52.37270000      52.75710000      56.25180000
C       47.70290000      55.28550000      47.06890000
C       47.58660000      45.26260000      53.12910000
C       52.80960000      43.78450000      46.88030000
C       53.59910000      55.24260000      49.47070000
C       54.69200000      49.24760000      54.14200000
C       48.67150000      53.34110000      55.61710000
C       46.19500000      55.27190000      50.76140000
C       46.17000000      45.10920000      49.34230000
C       53.92170000      44.18440000      50.31220000
C       45.38050000      49.23420000      46.06940000
C       44.79660000      50.50390000      54.45470000
C       54.90530000      50.65990000      45.21720000
C       51.26060000      53.92270000      44.21760000
C       50.94940000      46.54190000      56.37270000
C       49.75230000      46.04080000      44.17540000
C       54.07070000      44.10540000      48.86660000
C       54.73710000      50.78460000      54.00860000
C       49.50430000      46.65850000      56.30240000
C       46.25130000      45.03850000      50.80720000
C       46.40080000      55.22480000      49.30360000
C       53.80270000      55.10090000      50.92410000
C       45.41050000      50.76960000      46.07670000
C       44.80180000      49.01500000      54.37530000
C       54.92310000      49.17240000      45.16980000
C       51.22520000      45.92520000      44.08920000
C       50.13900000      53.31700000      55.54680000
C       49.79210000      53.86380000      44.29290000
C       54.22100000      48.78740000      55.36610000
C       47.94650000      54.13950000      54.59720000
C       54.37890000      54.36940000      48.60280000
C       46.37430000      48.50570000      45.32120000
C       45.39160000      51.12520000      55.54710000
C       54.38690000      51.35450000      44.12400000
C       51.93540000      54.56690000      45.33810000
C       51.72840000      46.09830000      55.23570000
C       48.99820000      45.60350000      45.24880000
C       45.49850000      54.28250000      51.46040000
C       45.07740000      45.61620000      48.66700000
C       54.73010000      45.10150000      51.01290000
C       53.92870000      51.62940000      54.86840000
C       48.86970000      46.10530000      55.13100000
C       54.67000000      45.14420000      48.15200000
C       46.41470000      51.51280000      45.36090000
C       45.61830000      48.28210000      55.29600000
C       54.39390000      48.51760000      44.05860000
C       51.90690000      45.24040000      45.19460000
C       50.87460000      53.96040000      54.55130000
C       49.04240000      54.38830000      45.33850000
C       45.12040000      45.62100000      51.47040000
C       45.45780000      54.39750000      48.61400000
C       54.81240000      54.32550000      51.43440000
C       49.68200000      45.29610000      54.33160000
C       44.37040000      53.83900000      49.37780000
C       54.01440000      49.27510000      42.88960000
C       50.95820000      44.27180000      45.72500000
C       50.21420000      55.10740000      54.15930000
C       49.64860000      55.56450000      45.74220000
C       55.75160000      53.73550000      50.53660000
C       55.57860000      45.90070000      48.90450000
C       43.94900000      46.07690000      50.73180000
C       45.63760000      48.93840000      56.58650000
C       46.79870000      50.71030000      44.24150000
C       53.85630000      51.06080000      56.19190000
C       48.83730000      55.23920000      54.24040000
C       43.93260000      46.10550000      49.36240000
C       54.01840000      50.63890000      42.91910000
C       51.05960000      55.66950000      45.72510000
C       51.08830000      45.32030000      54.24460000
C       49.59450000      44.50320000      45.81890000
C       55.62540000      45.86990000      50.30240000
C       55.48100000      53.71550000      49.18560000
C       44.46030000      53.71040000      50.74250000
C       45.58320000      50.33440000      56.73200000
C       46.78690000      49.32560000      44.22710000
C       54.00170000      49.70170000      56.44820000
C       48.69730000      48.40870000      58.19120000
C       48.57130000      56.71370000      48.87040000
C       56.43670000      49.16460000      46.85120000
C       50.84220000      47.09980000      41.92700000
C       50.47660000      52.43410000      57.78520000
C       49.46320000      52.86940000      42.14000000
C       52.60560000      56.91610000      51.53740000
C       52.61820000      42.26290000      48.80090000
C       48.59120000      43.83510000      51.29080000
C       42.92990000      49.27260000      52.90490000
C       43.22090000      50.76350000      47.17080000
C       56.63080000      50.43830000      52.59800000
C       49.12350000      52.00740000      57.73110000
C       47.26240000      43.38530000      48.80570000
C       56.42530000      50.59220000      46.89010000
C       50.87760000      52.88070000      41.99880000
C       51.12520000      47.72690000      58.52860000
C       49.42920000      47.14770000      42.08140000
C       51.50870000      43.46310000      51.14490000
C       51.45980000      56.86960000      48.99640000
C       47.14740000      57.40880000      51.25240000
C       43.09570000      50.68500000      52.88180000
C       43.18220000      49.35070000      47.17350000
C       56.36870000      49.04240000      52.52770000
C       52.83530000      44.00980000      51.19950000
C       44.21750000      51.33050000      53.41250000
C       51.75420000      53.32940000      42.99500000
C       47.06900000      44.64330000      48.30650000
C       46.66410000      56.19160000      51.69740000
C       52.65950000      56.00970000      48.73380000
C       55.41460000      51.40570000      46.38010000
C       55.27470000      48.34640000      53.04260000
C       44.28050000      48.59290000      46.77700000
C       48.20990000      52.62450000      56.78710000
C       48.90730000      46.70580000      43.28150000
C       51.70130000      47.18000000      57.40480000
C       52.96390000      55.65770000      51.95390000
C       43.91300000      48.42600000      53.41330000
C       51.72220000      46.58870000      42.89470000
C       47.46680000      55.74620000      48.50310000
C       47.36240000      44.67980000      51.64530000
C       53.29690000      43.25090000      48.09570000
C       55.45210000      48.36720000      46.27010000
C       55.73540000      51.33050000      53.15350000
C       44.35530000      51.46060000      46.76310000
C       48.60710000      47.34870000      57.16690000
C       48.94140000      53.29120000      43.35010000
C       51.00580000      52.95030000      56.57640000
C       49.63420000      49.49900000      58.46100000
C       49.23050000      57.16540000      50.06800000
C       57.01760000      49.11650000      48.15980000
C       50.81280000      48.47160000      41.43350000
C       51.33660000      51.95240000      58.74850000
C       49.36280000      51.51490000      41.66650000
C       51.28450000      57.21120000      51.41950000
C       51.26420000      42.46950000      48.90100000
C       49.22630000      43.15280000      50.17760000
C       42.39340000      49.27900000      51.56420000
C       42.59270000      50.79220000      48.48550000
C       57.17270000      50.47840000      51.25710000
C       48.81660000      50.75590000      58.35990000
C       48.53920000      42.95930000      48.93910000
C       57.03160000      50.58870000      48.18490000
C       50.83230000      51.52630000      41.46700000
C       51.02150000      49.13000000      58.56010000
C       49.34930000      48.51650000      41.64530000
C       50.65260000      42.92490000      50.13200000
C       50.66940000      57.18070000      50.13240000
C       48.51940000      57.38420000      51.29180000
C       42.54710000      50.74260000      51.55730000
C       42.53150000      49.33550000      48.47610000
C       56.96480000      49.04240000      51.20940000
C       51.57230000      56.42680000      46.76120000
C       55.86520000      47.01320000      51.07380000
C       46.47520000      51.05420000      57.59270000
C       48.28220000      56.21000000      53.39520000
C       48.73570000      44.01970000      46.79750000
C       51.72720000      44.76610000      53.11120000
C       43.40090000      47.18210000      48.63220000
C       43.87550000      52.68890000      51.47950000
C       55.92500000      52.65950000      48.38000000
C       53.06900000      51.38270000      42.19660000
C       53.21590000      49.08130000      57.48410000
C       47.55420000      48.64440000      43.26810000
C       51.48060000      43.36520000      46.64710000
C       56.37940000      52.67460000      51.19820000
C       46.50500000      48.26620000      57.46000000
C       48.87330000      44.74810000      53.35980000
C       48.79650000      56.13720000      46.67330000
C       51.09030000      55.86650000      53.38080000
C       43.71350000      52.84410000      48.65140000
C       43.31630000      47.11630000      51.43580000
C       55.92780000      47.02970000      48.18670000
C       53.04930000      48.56010000      42.15620000
C       53.02580000      51.79710000      57.05770000
C       47.55400000      51.39810000      43.28460000
