240
Lattice="100.0 0.0 0.0 0.0 100.0 0.0 0.0 0.0 100.0" Properties=species:S:1:pos:R:3 name=C-97510-5923-1259 pressure=-23.9870268371931 spacegroup=Td times_found=1 energy=-1777.24146751243 pbc="T T T"
C       46.35870000      55.49780000      48.39040000
C       55.49800000      48.39060000      46.35890000
C       48.39060000      46.35890000      55.49800000
C       53.64160000      55.49790000      51.60880000
C       53.64150000      44.50200000      48.39160000
C       46.35820000      44.50240000      51.60920000
C       44.50190000      48.39140000      53.64130000
C       44.50240000      51.60890000      46.35800000
C       55.49770000      51.60910000      53.64170000
C       51.60920000      46.35800000      44.50250000
C       51.60880000      53.64190000      55.49770000
C       48.39140000      53.64120000      44.50180000
C       48.39130000      55.49760000      46.35800000
C       46.35810000      48.39150000      55.49770000
C       55.49780000      46.35820000      48.39150000
C       51.60890000      55.49810000      53.64120000
C       48.39060000      44.50250000      53.64180000
C       51.60910000      44.50190000      46.35890000
C       53.64180000      48.39050000      44.50250000
C       46.35880000      51.60870000      44.50180000
C       53.64130000      51.60930000      55.49790000
C       44.50200000      46.35870000      51.60900000
C       55.49780000      53.64150000      51.60910000
C       44.50230000      53.64160000      48.39040000
C       47.49700000      51.51100000      43.69920000
C       51.51140000      43.69920000      47.49710000
C       43.69930000      47.49690000      51.51120000
C       52.50310000      51.51180000      56.30060000
C       52.50370000      48.48810000      43.69970000
C       47.49620000      48.48910000      56.30050000
C       48.48830000      43.69960000      52.50380000
C       48.48890000      56.30040000      47.49610000
C       51.51140000      56.30070000      52.50300000
C       56.30060000      47.49630000      48.48910000
C       56.30060000      52.50330000      51.51160000
C       43.69960000      52.50340000      48.48810000
C       43.69960000      51.51140000      47.49610000
C       47.49640000      43.69960000      51.51170000
C       51.51170000      47.49610000      43.69970000
C       56.30050000      51.51140000      52.50360000
C       43.69920000      48.48890000      52.50310000
C       56.30070000      48.48830000      47.49710000
C       52.50330000      43.69930000      48.48920000
C       47.49680000      56.30050000      48.48800000
C       52.50350000      56.30060000      51.51110000
C       48.48820000      47.49710000      56.30070000
C       51.51110000      52.50380000      56.30050000
C       48.48900000      52.50300000      43.69920000
C       52.83310000      53.85060000      54.84350000
C       53.85030000      54.84370000      52.83320000
C       54.84350000      52.83350000      53.85040000
C       47.16710000      53.85010000      45.15600000
C       47.16630000      46.15010000      54.84370000
C       52.83350000      46.14920000      45.15680000
C       46.14990000      54.84350000      47.16610000
C       46.14940000      45.15670000      52.83340000
C       53.85040000      45.15610000      47.16730000
C       45.15670000      52.83320000      46.14920000
C       45.15610000      47.16710000      53.85030000
C       54.84380000      47.16630000      46.15010000
C       54.84350000      53.85040000      52.83330000
C       52.83320000      54.84380000      53.85020000
C       53.85010000      52.83360000      54.84360000
C       45.15660000      53.85030000      47.16610000
C       54.84370000      46.14930000      47.16720000
C       45.15610000      46.15000000      52.83330000
C       47.16700000      54.84340000      46.14920000
C       52.83340000      45.15610000      46.15020000
C       47.16640000      45.15670000      53.85050000
C       46.15000000      52.83310000      45.15600000
C       53.85060000      47.16630000      45.15680000
C       46.14930000      47.16710000      54.84360000
C       55.75650000      52.12860000      46.77320000
C       52.12850000      46.77340000      55.75660000
C       46.77310000      55.75650000      52.12840000
C       44.24360000      52.12930000      53.22650000
C       44.24390000      47.87100000      46.77290000
C       55.75600000      47.87110000      53.22740000
C       47.87130000      46.77270000      44.24380000
C       47.87080000      53.22740000      55.75590000
C       52.12940000      53.22650000      44.24360000
C       53.22720000      55.75600000      47.87080000
C       53.22670000      44.24380000      52.12950000
C       46.77300000      44.24370000      47.87130000
C       46.77280000      52.12940000      55.75590000
C       55.75610000      46.77310000      52.12950000
C       52.12930000      55.75600000      46.77280000
C       53.22730000      52.12850000      44.24380000
C       46.77330000      47.87070000      44.24370000
C       53.22660000      47.87140000      55.75660000
C       44.24380000      46.77300000      47.87090000
C       55.75650000      53.22670000      47.87110000
C       44.24370000      53.22720000      52.12840000
C       47.87100000      55.75650000      53.22640000
C       52.12860000      44.24390000      53.22750000
C       47.87110000      44.24360000      46.77330000
C       47.75860000      56.55020000      49.86060000
C       56.55030000      49.86080000      47.75880000
C       49.86070000      47.75890000      56.55030000
C       52.24170000      56.55010000      50.13850000
C       52.24140000      43.44980000      49.86170000
C       47.75830000      43.44990000      50.13920000
C       43.44970000      49.86150000      52.24120000
C       43.45000000      50.13880000      47.75810000
C       56.55000000      50.13880000      52.24190000
C       50.13920000      47.75800000      43.45000000
C       50.13850000      52.24200000      56.55000000
C       49.86160000      52.24110000      43.44970000
C       49.86140000      56.55000000      47.75800000
C       47.75810000      49.86170000      56.55000000
C       56.55010000      47.75830000      49.86170000
C       50.13890000      56.55030000      52.24110000
C       49.86090000      43.45000000      52.24200000
C       50.13880000      43.44970000      47.75890000
C       52.24190000      49.86060000      43.45000000
C       47.75880000      50.13840000      43.44970000
C       52.24120000      50.13930000      56.55020000
C       43.44980000      47.75860000      50.13860000
C       56.55020000      52.24140000      50.13910000
C       43.44990000      52.24170000      49.86060000
C       55.98850000      45.05200000      53.96580000
C       45.05160000      53.96570000      55.98830000
C       53.96560000      55.98840000      45.05170000
C       44.01120000      45.05170000      46.03490000
C       44.01100000      54.94860000      53.96450000
C       55.98920000      54.94770000      46.03480000
C       54.94860000      53.96460000      44.01110000
C       54.94770000      46.03510000      55.98940000
C       45.05210000      46.03450000      44.01110000
C       46.03470000      55.98930000      54.94750000
C       46.03500000      44.01090000      45.05200000
C       53.96470000      44.01140000      54.94880000
C       53.96470000      45.05220000      55.98940000
C       55.98920000      53.96470000      45.05190000
C       45.05180000      55.98930000      53.96450000
C       46.03510000      45.05150000      44.01130000
C       53.96560000      54.94760000      44.01100000
C       46.03460000      54.94870000      55.98830000
C       44.01100000      53.96560000      54.94750000
C       55.98850000      46.03500000      54.94880000
C       44.01130000      46.03460000      45.05180000
C       54.94850000      55.98850000      46.03470000
C       45.05190000      44.01100000      46.03500000
C       54.94780000      44.01130000      53.96590000
C       50.01730000      51.02940000      42.81190000
C       51.02970000      42.81190000      50.01740000
C       42.81190000      50.01710000      51.02950000
C       49.98280000      51.03040000      57.18800000
C       49.98350000      48.96960000      42.81200000
C       50.01640000      48.97060000      57.18810000
C       48.96990000      42.81200000      49.98360000
C       48.97030000      57.18810000      50.01630000
C       51.03010000      57.18800000      49.98270000
C       57.18810000      50.01660000      48.97050000
C       57.18800000      49.98310000      51.03030000
C       42.81200000      49.98330000      48.96970000
C       42.81200000      51.03010000      50.01640000
C       50.01660000      42.81200000      51.03040000
C       51.03030000      50.01630000      42.81200000
C       57.18810000      51.02970000      49.98350000
C       42.81190000      48.97030000      49.98280000
C       57.18800000      48.96990000      50.01730000
C       49.98300000      42.81190000      48.97060000
C       50.01710000      57.18800000      48.96960000
C       49.98330000      57.18810000      51.02940000
C       48.96970000      50.01740000      57.18800000
C       51.02950000      49.98360000      57.18810000
C       48.97050000      49.98270000      42.81190000
C       52.62030000      45.45240000      55.58150000
C       45.45210000      55.58140000      52.62010000
C       55.58140000      52.62030000      45.45220000
C       47.37950000      45.45180000      44.41910000
C       47.37910000      54.54840000      55.58060000
C       52.62110000      54.54750000      44.41880000
C       54.54820000      55.58080000      47.37920000
C       54.54760000      44.41900000      52.62140000
C       45.45210000      44.41880000      47.37940000
C       44.41870000      52.62120000      54.54740000
C       44.41910000      47.37910000      45.45200000
C       55.58080000      47.37950000      54.54840000
C       55.58080000      45.45210000      52.62130000
C       52.62110000      55.58070000      45.45180000
C       45.45180000      52.62120000      55.58060000
C       44.41900000      45.45200000      47.37930000
C       55.58130000      54.54760000      47.37930000
C       44.41890000      54.54820000      52.62010000
C       47.37920000      55.58150000      54.54740000
C       52.62030000      44.41920000      54.54850000
C       47.37940000      44.41870000      45.45230000
C       54.54830000      52.62020000      44.41900000
C       45.45230000      47.37900000      44.41880000
C       54.54750000      47.37960000      55.58150000
C       44.85250000      54.13990000      49.72280000
C       54.14010000      49.72290000      44.85270000
C       49.72300000      44.85270000      54.14010000
C       55.14770000      54.13970000      50.27660000
C       55.14750000      45.86010000      49.72400000
C       44.85230000      45.86040000      50.27660000
C       45.85990000      49.72390000      55.14740000
C       45.86050000      50.27630000      44.85220000
C       54.13950000      50.27690000      55.14780000
C       50.27670000      44.85210000      45.86060000
C       50.27650000      55.14790000      54.13940000
C       49.72380000      55.14730000      45.85980000
C       49.72380000      54.13940000      44.85210000
C       44.85220000      49.72380000      54.13950000
C       54.13970000      44.85230000      49.72400000
C       50.27640000      54.14010000      55.14730000
C       49.72300000      45.86060000      55.14780000
C       50.27680000      45.85980000      44.85270000
C       55.14780000      49.72300000      45.86050000
C       44.85270000      50.27640000      45.85990000
C       55.14730000      50.27680000      54.14010000
C       45.86010000      44.85250000      50.27670000
C       54.13990000      55.14750000      50.27650000
C       45.86030000      55.14760000      49.72280000
C       44.18190000      53.19560000      50.69780000
C       53.19580000      50.69780000      44.18200000
C       50.69800000      44.18200000      53.19590000
C       55.81830000      53.19520000      49.30180000
C       55.81800000      46.80450000      50.69890000
C       44.18180000      46.80470000      49.30160000
C       46.80430000      50.69880000      55.81790000
C       46.80490000      49.30130000      44.18170000
C       53.19510000      49.30200000      55.81840000
C       49.30170000      44.18160000      46.80490000
C       49.30160000      55.81840000      53.19500000
C       50.69860000      55.81790000      46.80420000
C       50.69870000      53.19500000      44.18170000
C       44.18170000      50.69870000      53.19500000
C       53.19520000      44.18180000      50.69890000
C       49.30140000      53.19590000      55.81790000
C       50.69790000      46.80500000      55.81840000
C       49.30190000      46.80420000      44.18200000
C       55.81840000      50.69800000      46.80490000
C       44.18200000      49.30160000      46.80430000
C       55.81800000      49.30180000      53.19580000
C       46.80450000      44.18190000      49.30190000
C       53.19560000      55.81800000      49.30140000
C       46.80470000      55.81830000      50.69770000
