240
Lattice="100.0 0.0 0.0 0.0 100.0 0.0 0.0 0.0 100.0" Properties=species:S:1:pos:R:3 name=C-97510-5923-1228 pressure=0.0287239366227625 energy=-1865.4067256984 spacegroup=Oh times_found=1 pbc="T T T"
C       47.03480000      48.64970000      43.60880000
C       43.61120000      47.02890000      48.65180000
C       48.65680000      43.60790000      47.03360000
C       52.96940000      51.34640000      43.61000000
C       52.96640000      48.65630000      56.39200000
C       47.02940000      51.34760000      56.38920000
C       56.38970000      52.97030000      48.65420000
C       56.39150000      47.03540000      51.35000000
C       43.60760000      52.96550000      51.34400000
C       51.34510000      56.39030000      47.03060000
C       51.34890000      43.61090000      52.97030000
C       48.64920000      56.39090000      52.96550000
C       47.03060000      48.65360000      56.39000000
C       43.61030000      47.02970000      51.34580000
C       48.65490000      43.60970000      52.96940000
C       52.96520000      51.35030000      56.39120000
C       52.97060000      48.65240000      43.61080000
C       47.03360000      51.34370000      43.60800000
C       56.38880000      52.97110000      51.34820000
C       56.39240000      47.03450000      48.65600000
C       43.60850000      52.96460000      48.65000000
C       51.34320000      56.39210000      52.96640000
C       51.35080000      43.60910000      47.03450000
C       48.65110000      56.38910000      47.02970000
C       51.75070000      43.17620000      49.30280000
C       49.30160000      51.74510000      43.17480000
C       43.17530000      49.29770000      51.74540000
C       48.24980000      56.82340000      49.29750000
C       48.25530000      43.17500000      50.70130000
C       51.74420000      56.82540000      50.69830000
C       50.70280000      48.25080000      43.17640000
C       50.69680000      51.74980000      56.82410000
C       49.29870000      48.25430000      56.82470000
C       56.82350000      50.70340000      51.74950000
C       56.82530000      49.30270000      48.25500000
C       43.17590000      50.69630000      48.25010000
C       51.75020000      43.17660000      50.70250000
C       49.29720000      51.74920000      56.82360000
C       43.17650000      49.29660000      48.25050000
C       48.24930000      56.82380000      50.69720000
C       48.25580000      43.17460000      49.30170000
C       51.74470000      56.82500000      49.29870000
C       50.69840000      48.25490000      56.82520000
C       50.70130000      51.74570000      43.17530000
C       49.30320000      48.25020000      43.17590000
C       56.82470000      50.70230000      48.25460000
C       56.82410000      49.30370000      51.74990000
C       43.17470000      50.69730000      51.74500000
C       54.08040000      44.19730000      50.71790000
C       50.71490000      54.07660000      44.19430000
C       44.19360000      50.71350000      54.07590000
C       45.91920000      55.80310000      50.71170000
C       45.92480000      44.19330000      49.28560000
C       54.07570000      55.80630000      49.28480000
C       49.28890000      45.91990000      44.19630000
C       49.28150000      54.07950000      55.80320000
C       50.71470000      45.92410000      55.80620000
C       55.80370000      49.28900000      54.08010000
C       55.80570000      50.71610000      45.92370000
C       44.19690000      49.28140000      45.92030000
C       54.08080000      44.19690000      49.28830000
C       50.71110000      54.08010000      55.80370000
C       44.19630000      50.71100000      45.91990000
C       45.91960000      55.80270000      49.28210000
C       45.92430000      44.19370000      50.71520000
C       54.07520000      55.80670000      50.71440000
C       49.28510000      45.92340000      55.80570000
C       49.28530000      54.07590000      44.19380000
C       50.71850000      45.92050000      44.19680000
C       55.80640000      49.28650000      45.92410000
C       55.80310000      50.71860000      54.07970000
C       44.19430000      49.28390000      54.07630000
C       54.60410000      54.61000000      52.83790000
C       52.83420000      54.60980000      54.60660000
C       54.60430000      52.84120000      54.60780000
C       45.39400000      45.39170000      52.83770000
C       45.39180000      54.60420000      47.15930000
C       54.61010000      45.39410000      47.16510000
C       47.16270000      45.39300000      54.60760000
C       47.16170000      54.60450000      45.39060000
C       52.84130000      45.39270000      45.39520000
C       45.39260000      47.16160000      54.60650000
C       45.39310000      52.83430000      45.39050000
C       54.60990000      47.16290000      45.39530000
C       54.60600000      54.60830000      47.16230000
C       52.83730000      54.60700000      45.39240000
C       54.60740000      52.83840000      45.39350000
C       45.39590000      45.39000000      47.16210000
C       45.38990000      54.60590000      52.83490000
C       54.60820000      45.39580000      52.84070000
C       47.16580000      45.39020000      45.39340000
C       47.15870000      54.60730000      54.60480000
C       52.83830000      45.39550000      54.60940000
C       45.39570000      47.15880000      45.39220000
C       45.39010000      52.83710000      54.60470000
C       54.60690000      47.16570000      54.60950000
C       54.91290000      54.91820000      51.46500000
C       51.46110000      54.91770000      54.91460000
C       54.91330000      51.46860000      54.91670000
C       45.08610000      45.08270000      51.46480000
C       45.08270000      54.91290000      48.53200000
C       54.91820000      45.08620000      48.53820000
C       48.53560000      45.08530000      54.91660000
C       48.53450000      54.91340000      45.08250000
C       51.46870000      45.08360000      45.08640000
C       45.08350000      48.53440000      54.91440000
C       45.08540000      51.46130000      45.08240000
C       54.91780000      48.53570000      45.08650000
C       54.91390000      54.91730000      48.53520000
C       51.46440000      54.91470000      45.08340000
C       54.91650000      51.46560000      45.08560000
C       45.08710000      45.08180000      48.53500000
C       45.08180000      54.91380000      51.46180000
C       54.91730000      45.08710000      51.46800000
C       48.53890000      45.08230000      45.08540000
C       48.53130000      54.91640000      54.91360000
C       51.46550000      45.08660000      54.91750000
C       45.08670000      48.53140000      45.08330000
C       45.08220000      51.46430000      54.91350000
C       54.91460000      48.53870000      54.91760000
C       43.60780000      51.34510000      52.96540000
C       52.97030000      43.61110000      51.34990000
C       51.34780000      52.96650000      43.60890000
C       56.39020000      48.65670000      52.97040000
C       56.39100000      51.34890000      47.03380000
C       43.61100000      48.64930000      47.03050000
C       47.02890000      56.38970000      51.34410000
C       47.03540000      43.60770000      48.65400000
C       52.96550000      56.39150000      48.65200000
C       48.65640000      47.02960000      43.60990000
C       48.64960000      52.96920000      56.38930000
C       51.34620000      47.03470000      56.39190000
C       43.60980000      51.34330000      47.02960000
C       52.97110000      43.61030000      48.65590000
C       51.34360000      52.97040000      56.39010000
C       56.39220000      48.65490000      47.03460000
C       56.38900000      51.35070000      52.96950000
C       43.60900000      48.65110000      52.96620000
C       47.02970000      56.38890000      48.65010000
C       47.03450000      43.60850000      51.34800000
C       52.96460000      56.39230000      51.34600000
C       48.65220000      47.03350000      56.39110000
C       48.65380000      52.96530000      43.60810000
C       51.35040000      47.03080000      43.61070000
C       53.45670000      55.20020000      46.54160000
C       46.53880000      53.45800000      55.19760000
C       55.20020000      46.54540000      53.46070000
C       46.54550000      44.79760000      46.54250000
C       46.53860000      55.19930000      53.45520000
C       53.45910000      44.80280000      53.46060000
C       53.45780000      46.54520000      55.20200000
C       53.45810000      53.45790000      44.80030000
C       46.54530000      46.53900000      44.80020000
C       44.79760000      53.45670000      53.45520000
C       44.80290000      46.53870000      46.54140000
C       55.19940000      53.45920000      46.54270000
C       53.45450000      55.20240000      53.45750000
C       46.54220000      53.45480000      44.79800000
C       55.20240000      46.54330000      46.54480000
C       46.54330000      44.79980000      53.45840000
C       46.54090000      55.19720000      46.53940000
C       53.46140000      44.80070000      46.54480000
C       53.46120000      46.54200000      44.80240000
C       53.45470000      53.46100000      55.19980000
C       46.54190000      46.54210000      55.19970000
C       44.79980000      53.45460000      46.53930000
C       44.80060000      46.54080000      53.45730000
C       55.19710000      53.46130000      53.45860000
C       56.82540000      48.25540000      49.30290000
C       49.29770000      56.82360000      48.25020000
C       48.25060000      49.30150000      56.82400000
C       43.17510000      51.74420000      49.29740000
C       43.17610000      48.24970000      50.69810000
C       56.82340000      51.75070000      50.70150000
C       50.70340000      43.17540000      48.25490000
C       50.69620000      56.82520000      51.74560000
C       49.30260000      43.17580000      51.74930000
C       51.74490000      50.70270000      56.82480000
C       51.75000000      49.29890000      43.17640000
C       48.25450000      50.69700000      43.17480000
C       56.82490000      48.25580000      50.70260000
C       49.29660000      56.82460000      51.74510000
C       48.25510000      49.29730000      43.17520000
C       43.17460000      51.74460000      50.69710000
C       43.17660000      48.24930000      49.29850000
C       56.82390000      51.75030000      49.30190000
C       50.70230000      43.17640000      51.74980000
C       50.69740000      56.82420000      48.25070000
C       49.30380000      43.17480000      48.25440000
C       51.74940000      50.69850000      43.17600000
C       51.74550000      49.30300000      56.82520000
C       48.25000000      50.70110000      56.82360000
C       43.87830000      52.70710000      47.28660000
C       47.29120000      43.87830000      52.71160000
C       52.71380000      47.28870000      43.88040000
C       56.12340000      47.29130000      47.29220000
C       56.11930000      52.71420000      52.71180000
C       43.87900000      47.28750000      52.70950000
C       52.70700000      56.12340000      52.70960000
C       52.71420000      43.87900000      47.29210000
C       47.28760000      56.11930000      47.28660000
C       47.29020000      52.70760000      43.87690000
C       47.28860000      47.29000000      56.12130000
C       52.70740000      52.71370000      56.12140000
C       43.87660000      52.70870000      52.70780000
C       47.29300000      43.87660000      47.29040000
C       52.70980000      47.29240000      56.12310000
C       56.12170000      47.29290000      52.71340000
C       56.12100000      52.71250000      47.29050000
C       43.88070000      47.28580000      47.28820000
C       52.70880000      56.12170000      47.28840000
C       52.71240000      43.88070000      52.71340000
C       47.28580000      56.12100000      52.70790000
C       47.28620000      52.71130000      56.11960000
C       47.29260000      47.28630000      43.87860000
C       52.71140000      52.71000000      43.87870000
C       55.80680000      45.92430000      49.28830000
C       49.28400000      55.80320000      45.92000000
C       45.92040000      49.28520000      55.80360000
C       44.19370000      54.07520000      49.28210000
C       44.19690000      45.91960000      50.71420000
C       55.80270000      54.08080000      50.71550000
C       50.71870000      44.19440000      45.92400000
C       50.71090000      55.80630000      54.07650000
C       49.28640000      44.19620000      54.07960000
C       54.07580000      50.71840000      55.80580000
C       54.08020000      49.28520000      44.19680000
C       45.92360000      50.71120000      44.19370000
C       55.80630000      45.92480000      50.71790000
C       49.28130000      55.80560000      54.07600000
C       45.92420000      49.28160000      44.19420000
C       44.19320000      54.07570000      50.71170000
C       44.19730000      45.91920000      49.28450000
C       55.80310000      54.08040000      49.28580000
C       50.71600000      44.19680000      54.08000000
C       50.71360000      55.80380000      45.92040000
C       49.28910000      44.19370000      45.92350000
C       54.07960000      50.71480000      44.19640000
C       54.07640000      49.28880000      55.80630000
C       45.91980000      50.71480000      55.80320000
