240
Lattice="100.0 0.0 0.0 0.0 100.0 0.0 0.0 0.0 100.0" Properties=species:S:1:pos:R:3 name=C-97510-5923-1416 pressure=-0.0172491113111479 spacegroup=C1 times_found=1 energy=-1793.11549190194 pbc="T T T"
C       48.80660000      51.34640000      57.14310000
C       57.38180000      48.62190000      51.38100000
C       51.46730000      57.52190000      48.55770000
C       51.39980000      51.74680000      42.66250000
C       48.70930000      48.79230000      42.69760000
C       51.44990000      48.44960000      57.38400000
C       42.39420000      48.47950000      48.55850000
C       57.50900000      51.36750000      48.47610000
C       42.58150000      51.20550000      51.47730000
C       48.65010000      57.27860000      51.42440000
C       51.18030000      42.62480000      51.46180000
C       48.38330000      42.78860000      48.60630000
C       48.67590000      48.50990000      57.40310000
C       57.42030000      51.36890000      51.35970000
C       51.24040000      42.74360000      48.70880000
C       51.46950000      48.85510000      42.64240000
C       48.61870000      51.64590000      42.77700000
C       51.55970000      51.34220000      57.29410000
C       42.55200000      51.24870000      48.62020000
C       57.32880000      48.60320000      48.52760000
C       42.39680000      48.43660000      51.47850000
C       48.28450000      42.63600000      51.37940000
C       51.56060000      57.44900000      51.32550000
C       48.54550000      57.38530000      48.66970000
C       49.51080000      52.37580000      56.38280000
C       56.72840000      49.28950000      52.48180000
C       52.52660000      56.65350000      49.09450000
C       50.75670000      52.81180000      43.40670000
C       49.41120000      47.74000000      43.40670000
C       50.77400000      47.35880000      56.70440000
C       43.27400000      49.06840000      47.53560000
C       56.81520000      50.74750000      47.38210000
C       43.31950000      50.48580000      52.49160000
C       47.65320000      56.37650000      50.80320000
C       52.27920000      43.44000000      50.90810000
C       47.25700000      43.44490000      49.23500000
C       49.28720000      47.37480000      56.77160000
C       56.68130000      50.77350000      52.46620000
C       52.29650000      43.43410000      49.42490000
C       50.89690000      47.76280000      43.45080000
C       49.24440000      52.75450000      43.46630000
C       51.02050000      52.41440000      56.44020000
C       43.27910000      50.56060000      47.57660000
C       56.67640000      49.26930000      47.41710000
C       43.28600000      48.99090000      52.51410000
C       47.20650000      43.36980000      50.74460000
C       52.56670000      56.63790000      50.60040000
C       47.59770000      56.43220000      49.28740000
C       58.43310000      50.67990000      50.67560000
C       50.76280000      58.40610000      50.71310000
C       50.81810000      50.69570000      58.26850000
C       41.51690000      50.63850000      49.31870000
C       58.38350000      49.22280000      49.21410000
C       41.46490000      49.19590000      50.76980000
C       49.24630000      58.36620000      49.35430000
C       50.50960000      41.71770000      49.29000000
C       49.01880000      41.67960000      50.68110000
C       49.27890000      50.99000000      41.73890000
C       50.74520000      49.55480000      41.67790000
C       49.36750000      49.26040000      58.34710000
C       58.40020000      49.24170000      50.67000000
C       50.48500000      41.67240000      50.71880000
C       50.80060000      49.23040000      58.35280000
C       41.45860000      49.21430000      49.29220000
C       58.45510000      50.66130000      49.21490000
C       41.52840000      50.61980000      50.78090000
C       49.05200000      41.74920000      49.25030000
C       50.72410000      58.43450000      49.30380000
C       49.28950000      58.31930000      50.76470000
C       49.31620000      49.53210000      41.69390000
C       50.71040000      51.02130000      41.69350000
C       49.39030000      50.71560000      58.23840000
C       45.74720000      50.46440000      55.05480000
C       54.93570000      45.82980000      50.84630000
C       50.66770000      55.74470000      45.37360000
C       54.58520000      50.98880000      44.58390000
C       45.78180000      49.23380000      45.00390000
C       54.55800000      49.12650000      55.30970000
C       44.25780000      45.31570000      49.28180000
C       55.10660000      54.23620000      49.08900000
C       45.09700000      53.99660000      50.75920000
C       49.67300000      55.21670000      54.40480000
C       50.45430000      44.50450000      54.56980000
C       49.35740000      45.05270000      45.70920000
C       45.80050000      49.04000000      55.04440000
C       55.09870000      54.21180000      50.50030000
C       50.77540000      45.13150000      45.85880000
C       54.56760000      49.56680000      44.54970000
C       45.66200000      50.65550000      44.96280000
C       54.59970000      50.54120000      55.36090000
C       45.07220000      54.02340000      49.34940000
C       55.00040000      45.72860000      49.42250000
C       44.23760000      45.28580000      50.67600000
C       49.03220000      44.54510000      54.57640000
C       51.07370000      55.17120000      54.30130000
C       49.27520000      55.69780000      45.41800000
C       42.69720000      47.27270000      49.26960000
C       49.13070000      43.43020000      47.56390000
C       47.59080000      49.45490000      43.30040000
C       56.72420000      47.55710000      50.68350000
C       43.18760000      52.30670000      50.77040000
C       56.91610000      52.47120000      49.16840000
C       50.39060000      43.02600000      52.59440000
C       49.47100000      56.93090000      52.55950000
C       50.70580000      57.22630000      47.38480000
C       52.59570000      49.07680000      56.81900000
C       47.68100000      50.64470000      56.59640000
C       52.56770000      51.08970000      43.14930000
C       43.17010000      52.32920000      49.34560000
C       49.25240000      57.16780000      47.44020000
C       47.55490000      50.89320000      43.37850000
C       56.85760000      52.44610000      50.60790000
C       42.69250000      47.25120000      50.72720000
C       56.66090000      47.55800000      49.24250000
C       50.90850000      56.99570000      52.51650000
C       48.93730000      43.11990000      52.55040000
C       50.57110000      43.37520000      47.61160000
C       52.67180000      50.52280000      56.89280000
C       47.61120000      49.21490000      56.75140000
C       52.60590000      49.63570000      43.05280000
C       51.06450000      43.79000000      53.50930000
C       53.42680000      51.72920000      44.08240000
C       44.20870000      53.03280000      51.37870000
C       48.52780000      44.41840000      46.74680000
C       51.33330000      56.47180000      46.43160000
C       48.94320000      56.03430000      53.43860000
C       46.86240000      51.23920000      55.60880000
C       53.40420000      48.40970000      55.86120000
C       46.83160000      48.72350000      44.21110000
C       55.96880000      53.25160000      48.49630000
C       43.51740000      46.37670000      48.63200000
C       55.77370000      46.82160000      51.39380000
C       51.58970000      56.10350000      53.34000000
C       53.50980000      48.95840000      43.82800000
C       43.49570000      46.33070000      51.34670000
C       48.62820000      56.37770000      46.51930000
C       51.29530000      44.31640000      46.88400000
C       48.29340000      44.04620000      53.41440000
C       46.81530000      48.49030000      55.86090000
C       53.59700000      51.15920000      56.11690000
C       46.72760000      51.47580000      44.36860000
C       55.64810000      46.78120000      48.61930000
C       44.17110000      53.07490000      48.72950000
C       55.86640000      53.21190000      51.20150000
C       46.29870000      47.02930000      45.65980000
C       45.16490000      45.80500000      47.26670000
C       46.30690000      45.87020000      46.48050000
C       53.47470000      46.28990000      54.24440000
C       46.67850000      53.39670000      54.07660000
C       53.60150000      53.83030000      45.70760000
C       54.30650000      46.28080000      53.08120000
C       45.80000000      53.46070000      52.95930000
C       54.45750000      53.81860000      46.85250000
C       52.57010000      45.23910000      54.22040000
C       47.55030000      54.46800000      54.06450000
C       52.74440000      54.91910000      45.74040000
C       46.49580000      53.60910000      45.93050000
C       45.69020000      53.58570000      47.10300000
C       47.28670000      54.74330000      45.91300000
C       54.49870000      52.77010000      54.91590000
C       46.19780000      46.79720000      54.43460000
C       54.16860000      47.47780000      45.32830000
C       54.28370000      53.93110000      52.71510000
C       45.07870000      45.66840000      52.74410000
C       54.14060000      46.61970000      46.41770000
C       53.21010000      54.43470000      53.58230000
C       46.17720000      45.64890000      53.59250000
C       52.97980000      45.79340000      46.38990000
C       48.37860000      54.66830000      45.02170000
C       45.28080000      47.98760000      54.17740000
C       54.26140000      44.80680000      48.84050000
C       52.11110000      54.16420000      54.59140000
C       48.53790000      45.36160000      55.49530000
C       51.83130000      46.04350000      45.42360000
C       55.02890000      48.59280000      45.48710000
C       44.73520000      51.23330000      45.70070000
C       55.13610000      51.59290000      54.47540000
C       45.22580000      44.84950000      51.60270000
C       54.22750000      54.72690000      51.48290000
C       45.96200000      54.48570000      48.28370000
C       48.79460000      45.77270000      44.76050000
C       44.84080000      51.08680000      54.33010000
C       54.20040000      54.72010000      48.04260000
C       51.44240000      45.41200000      55.06370000
C       48.70810000      54.27610000      54.84720000
C       51.60350000      54.77570000      44.91790000
C       55.50030000      51.48890000      45.39940000
C       45.31320000      48.16530000      45.88560000
C       55.44760000      48.59090000      54.49310000
C       46.03970000      54.40190000      51.80050000
C       54.02620000      45.36710000      51.89510000
C       45.28980000      44.93930000      48.37490000
C       47.44920000      55.69630000      46.91610000
C       47.11380000      47.16770000      55.48700000
C       55.23100000      47.14640000      47.31570000
C       52.78400000      55.59720000      52.86460000
C       47.04380000      44.56350000      53.01500000
C       52.58220000      44.73050000      47.27040000
C       53.17920000      47.68020000      44.36690000
C       47.06090000      52.76620000      44.82610000
C       53.38500000      52.51140000      55.68730000
C       44.11220000      46.66290000      52.58710000
C       55.35620000      52.94160000      52.51020000
C       44.60610000      52.72290000      47.44640000
C       47.20750000      44.81650000      47.06010000
C       47.25670000      52.49630000      55.12320000
C       55.54320000      52.93400000      47.19480000
C       52.35640000      44.31040000      53.20380000
C       47.69480000      55.45750000      53.10440000
C       52.58150000      55.86880000      46.75030000
C       53.02560000      52.97180000      44.61200000
C       47.21390000      47.43860000      44.63060000
C       52.96220000      47.16080000      55.36600000
C       44.68270000      52.63300000      52.63370000
C       55.38860000      47.15340000      52.70580000
C       44.15900000      46.76190000      47.41960000
C       52.95890000      44.34890000      51.92130000
C       51.70220000      53.53690000      44.23200000
C       44.22840000      51.38540000      53.20310000
C       46.56730000      44.31870000      48.31060000
C       53.16860000      55.76700000      48.04560000
C       47.06750000      55.43090000      51.82110000
C       48.58130000      53.04910000      55.51710000
C       51.64500000      46.62340000      55.79920000
C       48.49510000      46.93540000      44.21330000
C       56.00970000      51.69920000      46.60220000
C       44.22320000      48.07900000      46.87880000
C       55.90720000      48.36790000      53.27510000
C       53.24940000      55.74810000      51.52980000
C       51.88880000      47.09190000      44.38880000
C       44.20290000      47.96210000      53.16380000
C       46.95140000      55.54950000      48.24770000
C       53.09590000      44.27090000      48.53200000
C       46.47510000      44.17970000      51.69550000
C       48.34120000      46.58160000      55.97190000
C       52.07700000      53.08960000      55.59230000
C       48.31440000      53.41840000      44.35280000
C       55.73020000      48.41530000      46.72010000
C       44.15070000      51.48740000      46.85540000
C       55.77210000      51.71050000      53.18360000
