240
Lattice="100.0 0.0 0.0 0.0 100.0 0.0 0.0 0.0 100.0" Properties=species:S:1:pos:R:3 name=C-97510-5923-526 pressure=2.37694850799118 spacegroup=C1 times_found=1 energy=-1724.06812550461 pbc="T T T"
C       54.02430000      55.68610000      47.20000000
C       55.45360000      47.15920000      54.37430000
C       46.63720000      54.19720000      55.74600000
C       46.23130000      43.88160000      46.81420000
C       54.26700000      44.14800000      52.92410000
C       45.90410000      56.13120000      52.94410000
C       43.72210000      52.77110000      54.24620000
C       56.03590000      52.51860000      45.51830000
C       44.23960000      47.34270000      45.64330000
C       52.85720000      46.23480000      56.26130000
C       47.09230000      45.91280000      44.26920000
C       53.27690000      54.31010000      44.32320000
C       53.96590000      55.41500000      53.02440000
C       55.47270000      46.78500000      45.64970000
C       47.46500000      54.54840000      43.63630000
C       45.90270000      43.75420000      52.73590000
C       54.44250000      43.80550000      47.15610000
C       45.90350000      55.94830000      46.99680000
C       43.78960000      52.53420000      45.98930000
C       55.85520000      52.72430000      53.97790000
C       44.33720000      46.71090000      53.99220000
C       52.96790000      45.80970000      43.80650000
C       46.98320000      46.04150000      56.07550000
C       52.73380000      54.46440000      56.20370000
C       44.51200000      49.34650000      47.00540000
C       49.33010000      46.42850000      44.28410000
C       47.16810000      43.86600000      49.12090000
C       55.49260000      50.35080000      46.23530000
C       44.03070000      50.51660000      53.18750000
C       55.64060000      49.34090000      54.26270000
C       51.01970000      53.85670000      44.21880000
C       48.99650000      53.36920000      55.96330000
C       50.61220000      47.17780000      56.12370000
C       52.91290000      55.39650000      49.36390000
C       46.91930000      56.07160000      50.67410000
C       53.12780000      44.11500000      50.72950000
C       44.19620000      49.05580000      53.13440000
C       49.18760000      47.12540000      56.07450000
C       47.09590000      43.88400000      50.56990000
C       55.68760000      50.37520000      53.49140000
C       44.62660000      50.72450000      47.16700000
C       55.23560000      49.00120000      46.29540000
C       50.45640000      53.42570000      56.11920000
C       49.66480000      53.92860000      43.98340000
C       50.69650000      46.39050000      44.09760000
C       52.90500000      55.30310000      50.79620000
C       46.91490000      56.06970000      49.22580000
C       53.18760000      43.98880000      49.29530000
C       56.09770000      52.80620000      46.88900000
C       53.27160000      47.34680000      56.97030000
C       47.03680000      56.73810000      53.44490000
C       43.99660000      46.63710000      46.81480000
C       55.88300000      47.11060000      52.97890000
C       43.68390000      53.33540000      52.99250000
C       46.30780000      52.96290000      56.34720000
C       53.31770000      53.03990000      43.68880000
C       47.01790000      47.28420000      43.83960000
C       53.03220000      43.95460000      53.52610000
C       47.37190000      43.25960000      46.34560000
C       52.99060000      56.50420000      46.76800000
C       56.27430000      52.86150000      52.65690000
C       53.14530000      47.08010000      43.27170000
C       47.04350000      56.51910000      46.46780000
C       43.83380000      46.36880000      52.71330000
C       56.02600000      46.71840000      46.96260000
C       43.63340000      53.21310000      47.15440000
C       47.15230000      53.18910000      43.75710000
C       53.27790000      53.21970000      56.40200000
C       46.42710000      47.16400000      56.65500000
C       53.25590000      43.50290000      46.51660000
C       47.12910000      43.72430000      53.36990000
C       52.81400000      56.16740000      53.35850000
C       49.57500000      43.80080000      46.14250000
C       44.48880000      46.19160000      49.07830000
C       47.04040000      49.59640000      44.50230000
C       50.75520000      56.27050000      46.30410000
C       49.16160000      55.98980000      53.70950000
C       50.74600000      44.49290000      53.76900000
C       55.37010000      52.80590000      49.16430000
C       44.35220000      53.62050000      50.76390000
C       55.45030000      46.77560000      50.63420000
C       53.23050000      50.68260000      43.94390000
C       46.14740000      50.67660000      55.89860000
C       53.54030000      49.54690000      56.41810000
C       49.34610000      44.44770000      53.71810000
C       44.43850000      46.16250000      50.46060000
C       46.17540000      49.31390000      55.94430000
C       50.52060000      55.90160000      53.73730000
C       49.38020000      56.31330000      46.19570000
C       50.95400000      43.84580000      46.15380000
C       55.37050000      52.76480000      50.55860000
C       44.33340000      53.64220000      49.37440000
C       55.51080000      46.66250000      49.25330000
C       53.52080000      50.89760000      56.14440000
C       47.14050000      50.99580000      44.58440000
C       53.11880000      49.30590000      43.90930000
C       51.96460000      43.52980000      47.19840000
C       44.01460000      47.14920000      51.52650000
C       48.07850000      52.05670000      43.99220000
C       48.29960000      56.52080000      47.20390000
C       51.55280000      56.06860000      52.68960000
C       48.40140000      43.89050000      52.68830000
C       55.87250000      51.87950000      51.61300000
C       43.90300000      52.59300000      48.45680000
C       55.79410000      47.59890000      48.11510000
C       52.14870000      48.23750000      43.60900000
C       47.15820000      48.40870000      56.44520000
C       52.50710000      51.98620000      56.43860000
C       51.77560000      44.01370000      52.79540000
C       44.08340000      47.23930000      48.13180000
C       47.10640000      51.77520000      56.26330000
C       48.25470000      56.46290000      52.69760000
C       51.67940000      56.33060000      47.42110000
C       48.59330000      43.43960000      47.14340000
C       55.82860000      51.87780000      48.05410000
C       43.88020000      52.59270000      51.76690000
C       55.71950000      47.88150000      51.65840000
C       52.51820000      48.59230000      56.71820000
C       47.94510000      48.40670000      44.06310000
C       52.35770000      51.91780000      43.80550000
C       55.04740000      54.06910000      48.48510000
C       54.74650000      48.69030000      56.35560000
C       48.32290000      55.72340000      54.91390000
C       44.92920000      45.08380000      48.25850000
C       55.30950000      45.51730000      51.36880000
C       44.72870000      54.78210000      51.52800000
C       44.87900000      51.32480000      55.57710000
C       54.63130000      51.25270000      44.07420000
C       45.67610000      48.94580000      44.66070000
C       51.48700000      44.95450000      54.92510000
C       48.73470000      44.10270000      44.93810000
C       51.67850000      56.08540000      45.14590000
C       55.16230000      54.10690000      51.31600000
C       54.41640000      48.45020000      44.03400000
C       48.69220000      56.07880000      44.92210000
C       44.68390000      44.89110000      51.14250000
C       55.43670000      45.28920000      48.64970000
C       44.69610000      54.75960000      48.53480000
C       45.92880000      51.80260000      45.08180000
C       54.66990000      51.59460000      55.58750000
C       45.01350000      48.44010000      55.57190000
C       51.72160000      44.25190000      44.99900000
C       48.51270000      44.85950000      54.82900000
C       51.24490000      55.69430000      54.98630000
C       44.68580000      48.71980000      45.72450000
C       48.39480000      45.42060000      44.45540000
C       46.05120000      44.17080000      48.20830000
C       55.58810000      51.19420000      45.17040000
C       44.03670000      51.35140000      54.39350000
C       55.36730000      48.37400000      55.09880000
C       51.98300000      54.82380000      44.51850000
C       48.04210000      54.47530000      55.57800000
C       51.50140000      46.07300000      55.84830000
C       54.03150000      55.09140000      48.49980000
C       45.79370000      55.75270000      51.56200000
C       54.31600000      44.44740000      51.50680000
C       44.47570000      48.11890000      54.27440000
C       48.37660000      45.96460000      55.75150000
C       45.84740000      44.01510000      51.30510000
C       55.51190000      51.44650000      54.43470000
C       44.86960000      51.62150000      46.00480000
C       55.05790000      48.07400000      45.26800000
C       51.30070000      54.60800000      55.95120000
C       48.77870000      54.98190000      43.96180000
C       51.65300000      45.40310000      44.14160000
C       54.04750000      54.93820000      51.66490000
C       45.78650000      55.69940000      48.40290000
C       54.42300000      44.22900000      48.55270000
C       44.52100000      45.34510000      46.91730000
C       45.70860000      47.70240000      43.99770000
C       47.60930000      43.23670000      44.94250000
C       55.61070000      54.07510000      47.19340000
C       44.24520000      54.61260000      52.84170000
C       55.82170000      45.75390000      52.64490000
C       54.63540000      52.60080000      43.72600000
C       44.97290000      52.62920000      56.09460000
C       54.64800000      47.57250000      57.19220000
C       52.86750000      56.82870000      45.39680000
C       47.26040000      56.67160000      54.84950000
C       52.83550000      44.53380000      54.78280000
C       44.08530000      45.02520000      52.41470000
C       45.03130000      47.36670000      56.51610000
C       47.21370000      44.33780000      54.62320000
C       56.24070000      54.18700000      52.20960000
C       44.21800000      54.47980000      47.21570000
C       56.00880000      45.38570000      47.36920000
C       54.53000000      52.96950000      55.81650000
C       45.97840000      53.10760000      44.54190000
C       54.46820000      47.44890000      43.05450000
C       52.56670000      56.13050000      54.73370000
C       47.29490000      56.30140000      45.09800000
C       53.08830000      43.97880000      45.19950000
C       46.22580000      45.18260000      55.20190000
C       45.07070000      55.02360000      46.23420000
C       55.04050000      45.41860000      45.28490000
C       53.52460000      55.36000000      55.37970000
C       46.52920000      55.34810000      44.36570000
C       53.89010000      45.01370000      44.58190000
C       55.40370000      44.56380000      46.40680000
C       44.82690000      44.42830000      53.43140000
C       54.47640000      54.89900000      54.35660000
C       45.57110000      54.47600000      45.00160000
C       55.12340000      53.71360000      54.74330000
C       45.02980000      45.42660000      54.48170000
C       45.76960000      45.52770000      44.82940000
C       45.08740000      55.26970000      53.77530000
C       54.90200000      45.82520000      54.72840000
C       54.60100000      54.52140000      44.99730000
C       45.35030000      54.62230000      55.00820000
C       53.72130000      45.44470000      55.42350000
C       55.21980000      44.95110000      53.62900000
C       45.42580000      44.76270000      45.99090000
C       54.87070000      54.94240000      46.32140000
C       44.36450000      53.57190000      55.27510000
C       55.43870000      53.42190000      44.57680000
C       44.92660000      46.68160000      44.59230000
C       48.11740000      56.39000000      48.56050000
C       55.59800000      48.92790000      47.73500000
C       48.51260000      48.32780000      56.34380000
C       52.03440000      43.65720000      48.56190000
C       48.29470000      43.80850000      51.31740000
C       51.72190000      55.75070000      51.37870000
C       44.24490000      51.27640000      48.38760000
C       55.80360000      50.49720000      52.00650000
C       44.07970000      48.48350000      51.85300000
C       51.13900000      52.19440000      56.38900000
C       49.45200000      52.45270000      43.89430000
C       50.82720000      47.84870000      43.84400000
C       48.12080000      56.33600000      51.33850000
C       55.75920000      49.22270000      51.41710000
C       49.26140000      47.90790000      44.04950000
C       51.91800000      43.94520000      51.43130000
C       48.39750000      43.60240000      48.49350000
C       51.75800000      55.91530000      48.72390000
C       43.91350000      51.21890000      51.96020000
C       55.75840000      50.51820000      47.68700000
C       44.18110000      48.59000000      48.15560000
C       51.05200000      52.37880000      43.99750000
C       48.43810000      52.09670000      56.19110000
C       51.19380000      48.42490000      56.45260000
