240
Lattice="100.0 0.0 0.0 0.0 100.0 0.0 0.0 0.0 100.0" Properties=species:S:1:pos:R:3 name=C-97510-5923-128 pressure=1.74784424693792 energy=-1768.13152091965 spacegroup=Oh times_found=1 pbc="T T T"
C       43.67860000      47.69970000      51.25950000
C       47.69970000      51.25950000      43.67860000
C       51.25950000      43.67860000      47.69970000
C       43.67860000      52.30030000      48.74050000
C       56.32140000      47.69970000      48.74050000
C       56.32140000      52.30030000      51.25950000
C       47.69970000      48.74050000      56.32140000
C       52.30030000      51.25950000      56.32140000
C       52.30030000      48.74050000      43.67860000
C       51.25950000      56.32140000      52.30030000
C       48.74050000      43.67860000      52.30030000
C       48.74050000      56.32140000      47.69970000
C       43.67860000      51.25950000      47.69970000
C       47.69970000      43.67860000      51.25950000
C       51.25950000      47.69970000      43.67860000
C       43.67860000      48.74050000      52.30030000
C       56.32140000      48.74050000      47.69970000
C       56.32140000      51.25950000      52.30030000
C       47.69970000      56.32140000      48.74050000
C       52.30030000      56.32140000      51.25950000
C       52.30030000      43.67860000      48.74050000
C       51.25950000      52.30030000      56.32140000
C       48.74050000      52.30030000      43.67860000
C       48.74050000      47.69970000      56.32140000
C       45.31390000      50.00000000      46.36220000
C       50.00000000      46.36220000      45.31390000
C       46.36220000      45.31390000      50.00000000
C       45.31390000      50.00000000      53.63780000
C       54.68610000      50.00000000      53.63780000
C       54.68610000      50.00000000      46.36220000
C       50.00000000      53.63780000      54.68610000
C       50.00000000      46.36220000      54.68610000
C       50.00000000      53.63780000      45.31390000
C       46.36220000      54.68610000      50.00000000
C       53.63780000      45.31390000      50.00000000
C       53.63780000      54.68610000      50.00000000
C       45.31390000      46.36220000      50.00000000
C       50.00000000      45.31390000      46.36220000
C       46.36220000      50.00000000      45.31390000
C       45.31390000      53.63780000      50.00000000
C       54.68610000      53.63780000      50.00000000
C       54.68610000      46.36220000      50.00000000
C       50.00000000      54.68610000      53.63780000
C       50.00000000      54.68610000      46.36220000
C       50.00000000      45.31390000      53.63780000
C       46.36220000      50.00000000      54.68610000
C       53.63780000      50.00000000      45.31390000
C       53.63780000      50.00000000      54.68610000
C       50.00000000      46.51530000      52.59470000
C       46.51530000      52.59470000      50.00000000
C       52.59470000      50.00000000      46.51530000
C       50.00000000      53.48470000      47.40530000
C       50.00000000      46.51530000      47.40530000
C       50.00000000      53.48470000      52.59470000
C       46.51530000      47.40530000      50.00000000
C       53.48470000      52.59470000      50.00000000
C       53.48470000      47.40530000      50.00000000
C       52.59470000      50.00000000      53.48470000
C       47.40530000      50.00000000      53.48470000
C       47.40530000      50.00000000      46.51530000
C       50.00000000      52.59470000      46.51530000
C       46.51530000      50.00000000      52.59470000
C       52.59470000      46.51530000      50.00000000
C       50.00000000      47.40530000      53.48470000
C       50.00000000      47.40530000      46.51530000
C       50.00000000      52.59470000      53.48470000
C       46.51530000      50.00000000      47.40530000
C       53.48470000      50.00000000      52.59470000
C       53.48470000      50.00000000      47.40530000
C       52.59470000      53.48470000      50.00000000
C       47.40530000      53.48470000      50.00000000
C       47.40530000      46.51530000      50.00000000
C       51.02610000      57.93880000      50.00000000
C       57.93880000      50.00000000      51.02610000
C       50.00000000      51.02610000      57.93880000
C       51.02610000      42.06120000      50.00000000
C       48.97390000      57.93880000      50.00000000
C       48.97390000      42.06120000      50.00000000
C       57.93880000      50.00000000      48.97390000
C       42.06120000      50.00000000      48.97390000
C       42.06120000      50.00000000      51.02610000
C       50.00000000      48.97390000      42.06120000
C       50.00000000      51.02600000      42.06120000
C       50.00000000      48.97390000      57.93880000
C       51.02610000      50.00000000      57.93880000
C       57.93880000      51.02610000      50.00000000
C       50.00000000      57.93880000      51.02600000
C       51.02610000      50.00000000      42.06120000
C       48.97390000      50.00000000      57.93880000
C       48.97390000      50.00000000      42.06120000
C       57.93880000      48.97390000      50.00000000
C       42.06120000      48.97390000      50.00000000
C       42.06120000      51.02610000      50.00000000
C       50.00000000      42.06120000      48.97400000
C       50.00000000      42.06120000      51.02610000
C       50.00000000      57.93880000      48.97390000
C       46.48710000      47.52650000      45.47870000
C       47.52650000      45.47870000      46.48720000
C       45.47870000      46.48710000      47.52650000
C       46.48720000      52.47350000      54.52130000
C       53.51290000      47.52650000      54.52130000
C       53.51280000      52.47350000      45.47870000
C       47.52650000      54.52130000      53.51280000
C       52.47350000      45.47870000      53.51290000
C       52.47350000      54.52130000      46.48710000
C       45.47870000      53.51290000      52.47350000
C       54.52130000      46.48720000      52.47350000
C       54.52130000      53.51280000      47.52650000
C       46.48710000      45.47870000      47.52650000
C       47.52650000      46.48710000      45.47870000
C       45.47870000      47.52650000      46.48720000
C       46.48720000      54.52130000      52.47350000
C       53.51280000      54.52130000      47.52650000
C       53.51290000      45.47870000      52.47350000
C       47.52650000      53.51290000      54.52130000
C       52.47350000      53.51280000      45.47870000
C       52.47350000      46.48720000      54.52130000
C       45.47870000      52.47350000      53.51290000
C       54.52130000      52.47350000      46.48710000
C       54.52130000      47.52650000      53.51280000
C       43.67860000      48.74050000      47.69970000
C       48.74050000      47.69970000      43.67860000
C       47.69970000      43.67860000      48.74050000
C       43.67860000      51.25950000      52.30030000
C       56.32140000      48.74050000      52.30030000
C       56.32140000      51.25950000      47.69970000
C       48.74050000      52.30030000      56.32140000
C       51.25950000      47.69970000      56.32140000
C       51.25950000      52.30030000      43.67860000
C       47.69970000      56.32140000      51.25950000
C       52.30030000      43.67860000      51.25950000
C       52.30030000      56.32140000      48.74050000
C       43.67860000      47.69970000      48.74050000
C       48.74050000      43.67860000      47.69970000
C       47.69970000      48.74050000      43.67860000
C       43.67860000      52.30030000      51.25950000
C       56.32140000      52.30030000      48.74050000
C       56.32140000      47.69970000      51.25950000
C       48.74050000      56.32140000      52.30030000
C       51.25950000      56.32140000      47.69970000
C       51.25950000      43.67860000      52.30030000
C       47.69970000      51.25950000      56.32140000
C       52.30030000      51.25950000      43.67860000
C       52.30030000      48.74050000      56.32140000
C       55.29420000      53.27230000      48.71450000
C       53.27230000      48.71460000      55.29420000
C       48.71460000      55.29420000      53.27230000
C       55.29420000      46.72770000      51.28540000
C       44.70580000      53.27230000      51.28540000
C       44.70580000      46.72770000      48.71460000
C       53.27230000      51.28540000      44.70580000
C       46.72770000      48.71450000      44.70580000
C       46.72770000      51.28550000      55.29420000
C       48.71460000      44.70580000      46.72770000
C       51.28540000      55.29420000      46.72770000
C       51.28540000      44.70580000      53.27230000
C       55.29420000      48.71460000      53.27230000
C       53.27230000      55.29420000      48.71450000
C       48.71460000      53.27230000      55.29420000
C       55.29420000      51.28540000      46.72770000
C       44.70580000      51.28540000      53.27230000
C       44.70580000      48.71460000      46.72770000
C       53.27230000      44.70580000      51.28540000
C       46.72770000      44.70580000      48.71460000
C       46.72770000      55.29420000      51.28540000
C       48.71460000      46.72770000      44.70580000
C       51.28540000      46.72770000      55.29420000
C       51.28540000      53.27230000      44.70580000
C       47.97640000      50.00000000      43.03290000
C       50.00000000      43.03290000      47.97650000
C       43.03290000      47.97650000      50.00000000
C       47.97650000      50.00000000      56.96720000
C       52.02360000      50.00000000      56.96710000
C       52.02350000      50.00000000      43.03280000
C       50.00000000      56.96720000      52.02350000
C       50.00000000      43.03290000      52.02360000
C       50.00000000      56.96710000      47.97640000
C       43.03290000      52.02350000      50.00000000
C       56.96710000      47.97650000      50.00000000
C       56.96710000      52.02350000      50.00000000
C       47.97650000      43.03290000      50.00000000
C       50.00000000      47.97640000      43.03290000
C       43.03280000      50.00000000      47.97650000
C       47.97650000      56.96710000      50.00000000
C       52.02350000      56.96710000      50.00000000
C       52.02350000      43.03290000      50.00000000
C       50.00000000      52.02360000      56.96710000
C       50.00000000      52.02350000      43.03280000
C       50.00000000      47.97650000      56.96720000
C       43.03290000      50.00000000      52.02360000
C       56.96710000      50.00000000      47.97640000
C       56.96720000      50.00000000      52.02350000
C       53.51290000      54.52130000      52.47350000
C       54.52130000      52.47350000      53.51280000
C       52.47350000      53.51290000      54.52130000
C       53.51280000      45.47870000      47.52650000
C       46.48710000      54.52130000      47.52650000
C       46.48720000      45.47870000      52.47350000
C       54.52130000      47.52650000      46.48710000
C       45.47870000      52.47350000      46.48720000
C       45.47870000      47.52650000      53.51290000
C       52.47350000      46.48710000      45.47870000
C       47.52650000      53.51280000      45.47870000
C       47.52650000      46.48720000      54.52130000
C       53.51290000      52.47350000      54.52130000
C       54.52130000      53.51290000      52.47350000
C       52.47350000      54.52130000      53.51280000
C       53.51280000      47.52650000      45.47870000
C       46.48720000      47.52650000      54.52130000
C       46.48710000      52.47350000      45.47870000
C       54.52130000      46.48710000      47.52650000
C       45.47870000      46.48720000      52.47350000
C       45.47870000      53.51280000      47.52650000
C       52.47350000      45.47870000      46.48720000
C       47.52650000      45.47870000      53.51290000
C       47.52650000      54.52130000      46.48710000
C       51.28540000      46.72770000      44.70580000
C       46.72770000      44.70580000      51.28550000
C       44.70580000      51.28540000      46.72770000
C       51.28540000      53.27230000      55.29420000
C       48.71460000      46.72770000      55.29420000
C       48.71460000      53.27230000      44.70580000
C       46.72770000      55.29420000      48.71460000
C       53.27230000      44.70580000      48.71460000
C       53.27230000      55.29420000      51.28540000
C       44.70580000      48.71460000      53.27230000
C       55.29420000      51.28540000      53.27230000
C       55.29420000      48.71450000      46.72770000
C       51.28540000      44.70580000      46.72770000
C       46.72770000      51.28540000      44.70580000
C       44.70580000      46.72770000      51.28550000
C       51.28540000      55.29420000      53.27230000
C       48.71460000      55.29420000      46.72770000
C       48.71460000      44.70580000      53.27230000
C       46.72770000      48.71460000      55.29420000
C       53.27230000      48.71450000      44.70580000
C       53.27230000      51.28540000      55.29420000
C       44.70580000      53.27230000      48.71460000
C       55.29420000      53.27230000      51.28540000
C       55.29420000      46.72770000      48.71460000
