240
Lattice="100.0 0.0 0.0 0.0 100.0 0.0 0.0 0.0 100.0" Properties=species:S:1:pos:R:3 name=C-97510-5923-1382 pressure=-16.079125212571 spacegroup=C1 times_found=1 energy=-1757.48792291748 pbc="T T T"
C       46.93550000      56.42230000      48.69620000
C       48.66770000      46.87960000      56.13940000
C       56.36090000      48.75600000      47.03580000
C       52.99970000      43.65150000      48.77320000
C       53.01870000      56.34740000      51.27310000
C       46.84200000      43.80410000      51.40000000
C       51.22490000      53.08490000      56.35150000
C       51.22700000      46.84310000      43.60110000
C       48.74790000      53.21480000      43.58210000
C       43.75780000      51.24820000      47.12800000
C       43.93870000      48.67200000      53.08460000
C       56.44400000      51.30030000      53.02250000
C       46.87170000      56.32080000      51.25600000
C       48.67830000      47.03230000      43.55230000
C       56.37610000      48.74590000      53.15640000
C       52.93180000      43.66450000      51.22520000
C       53.05090000      56.04420000      48.70350000
C       46.80990000      43.64460000      48.75610000
C       51.39480000      53.17210000      43.77800000
C       51.25170000      46.91840000      56.39480000
C       48.68710000      52.95250000      56.43540000
C       43.63800000      51.24330000      53.05220000
C       43.67160000      48.79920000      47.00140000
C       56.11510000      51.32020000      46.93560000
C       56.22800000      53.22310000      51.47970000
C       51.45480000      55.93970000      53.23120000
C       53.14030000      51.26410000      56.18090000
C       43.95590000      46.78650000      51.29620000
C       43.90460000      53.17810000      48.64700000
C       56.16620000      46.83010000      48.58080000
C       48.67770000      43.87080000      53.22970000
C       48.50300000      56.00990000      46.75490000
C       51.41700000      44.02550000      46.77670000
C       46.78300000      48.67950000      56.12470000
C       46.87360000      51.34880000      43.78700000
C       53.15860000      48.65510000      43.73180000
C       56.12570000      53.22110000      48.73240000
C       51.26400000      56.01740000      46.81840000
C       53.20260000      51.30610000      43.87900000
C       43.98610000      46.75490000      48.52590000
C       44.03550000      53.23480000      51.50420000
C       56.22310000      46.84310000      51.31930000
C       48.65780000      43.86960000      46.86970000
C       48.69520000      56.12670000      53.15650000
C       51.41910000      43.78920000      53.19310000
C       46.80670000      48.61870000      43.79390000
C       46.77050000      51.42330000      56.23210000
C       53.21410000      48.50290000      55.98380000
C       52.50230000      55.31380000      46.50710000
C       46.36470000      52.73220000      55.75140000
C       55.66200000      46.57330000      52.59110000
C       47.37670000      44.41690000      46.60920000
C       47.39970000      55.61640000      53.42820000
C       52.72360000      44.28430000      53.57970000
C       53.74480000      47.24630000      55.23160000
C       53.52420000      52.51770000      44.62660000
C       46.37170000      47.31770000      44.28500000
C       44.75070000      53.75740000      52.77010000
C       44.72490000      46.26380000      47.25260000
C       55.39420000      53.52080000      47.51520000
C       52.72320000      55.20800000      53.76230000
C       46.61270000      52.61220000      44.36640000
C       55.65920000      46.41320000      47.28530000
C       47.46840000      44.60280000      53.55550000
C       47.24200000      55.26770000      46.24060000
C       52.68860000      44.76840000      46.25400000
C       53.40790000      47.37730000      44.30310000
C       53.40100000      52.55880000      55.65750000
C       46.47280000      47.46170000      55.40170000
C       44.32430000      53.56080000      47.30820000
C       44.65350000      46.46990000      52.53270000
C       55.73470000      53.62050000      52.78560000
C       46.51600000      53.79500000      54.77620000
C       55.77140000      47.49520000      53.54680000
C       53.43780000      55.33300000      47.48310000
C       53.39780000      45.99030000      54.70690000
C       52.57560000      53.48720000      44.56830000
C       46.50630000      46.24300000      45.25120000
C       45.25290000      53.40530000      54.03380000
C       45.24440000      46.64050000      46.00050000
C       55.39700000      52.55040000      46.56670000
C       46.42930000      44.28240000      47.52860000
C       46.45950000      55.73650000      52.50120000
C       53.78160000      45.26490000      53.42540000
C       47.51990000      53.57860000      44.23060000
C       54.69740000      46.55230000      46.20620000
C       53.99450000      54.71250000      53.43100000
C       52.46960000      46.43810000      44.20900000
C       52.47090000      53.49810000      55.76300000
C       47.44210000      46.51230000      55.42410000
C       45.31210000      53.43100000      46.25560000
C       44.64140000      47.44500000      53.46640000
C       54.74580000      53.45420000      53.83500000
C       46.50670000      44.56640000      52.59710000
C       45.99880000      54.73130000      46.61090000
C       53.94720000      45.28700000      46.60980000
C       49.19070000      48.19700000      56.34070000
C       56.44060000      49.28720000      48.28290000
C       48.20190000      56.37470000      49.21040000
C       50.75060000      51.71780000      56.45580000
C       50.76270000      48.21220000      43.46060000
C       49.28500000      51.86940000      43.48650000
C       43.69820000      50.75310000      48.38720000
C       43.76690000      49.19400000      51.76080000
C       56.52280000      50.77420000      51.77180000
C       51.70620000      43.63190000      49.21200000
C       51.75410000      56.29170000      50.76270000
C       48.15930000      43.61530000      50.82450000
C       49.23250000      48.27140000      43.45260000
C       56.50720000      49.23590000      51.80230000
C       48.22270000      56.37960000      50.75390000
C       50.81750000      51.85610000      43.55040000
C       50.74430000      48.18280000      56.37010000
C       49.21850000      51.70070000      56.49240000
C       43.70840000      50.74850000      51.78850000
C       43.69930000      49.21120000      48.30350000
C       56.36490000      50.82590000      48.26290000
C       51.66660000      43.58410000      50.75070000
C       51.72360000      56.22790000      49.21810000
C       48.15920000      43.58030000      49.28910000
C       49.41470000      54.48270000      43.58940000
C       43.81360000      49.36730000      54.32760000
C       54.24450000      43.82120000      49.32610000
C       50.47110000      45.63570000      43.67800000
C       50.49020000      54.30990000      56.31420000
C       49.37920000      45.63780000      56.22190000
C       56.19700000      50.86270000      54.29630000
C       56.11020000      49.18080000      45.76570000
C       43.94670000      50.78300000      45.85230000
C       45.65100000      56.29490000      49.17920000
C       45.56020000      43.68430000      50.76200000
C       54.29530000      56.22710000      50.78580000
C       49.10810000      54.23220000      56.20310000
C       43.83230000      49.36920000      45.76450000
C       54.18950000      43.90140000      50.74730000
C       50.76020000      45.64410000      56.25460000
C       50.76000000      54.45740000      43.67700000
C       49.09140000      45.75090000      43.80530000
C       56.15350000      50.57650000      45.71230000
C       56.31190000      49.48030000      54.37920000
C       43.75470000      50.74490000      54.32970000
C       45.62900000      56.33060000      50.55170000
C       45.54010000      43.61260000      49.41620000
C       54.29310000      56.17350000      49.40630000
C       45.51020000      50.71300000      56.16480000
C       56.03190000      45.59460000      50.66640000
C       50.63250000      56.15290000      45.55320000
C       54.43640000      49.29340000      56.05780000
C       54.45910000      50.61430000      43.87080000
C       45.56410000      49.36480000      43.92850000
C       43.94110000      54.44510000      50.70900000
C       43.85660000      45.51750000      49.27740000
C       56.15610000      54.47770000      49.41040000
C       49.27220000      43.99260000      45.59970000
C       49.30940000      55.99990000      54.42330000
C       50.72670000      43.83400000      54.46830000
C       45.61240000      50.70930000      43.97380000
C       56.05390000      45.57540000      49.31780000
C       50.66820000      56.00850000      54.45420000
C       54.43670000      49.26520000      43.89880000
C       54.40680000      50.65380000      56.05020000
C       45.52520000      49.35810000      56.17310000
C       43.92900000      54.43040000      49.34040000
C       43.83590000      45.53080000      50.64560000
C       56.14680000      54.48570000      50.76590000
C       49.37180000      43.82010000      54.47710000
C       49.26640000      56.13670000      45.52440000
C       50.63150000      43.95930000      45.55780000
C       52.39630000      54.76730000      55.11620000
C       54.61860000      52.63090000      54.92980000
C       55.14830000      54.97590000      52.63930000
C       47.57300000      45.19970000      54.86340000
C       47.56540000      54.84900000      44.87900000
C       52.37290000      45.18700000      44.89010000
C       45.16650000      47.55950000      54.79400000
C       45.43120000      52.62440000      45.15560000
C       54.59970000      47.34330000      45.08650000
C       45.18990000      45.13660000      52.48250000
C       44.83230000      54.95360000      47.40360000
C       55.07520000      45.05690000      47.44400000
C       52.46140000      54.79480000      45.16370000
C       54.82060000      52.41560000      45.25630000
C       54.77180000      54.81910000      47.60840000
C       47.32010000      45.14580000      45.39280000
C       47.33170000      54.89260000      54.64840000
C       52.59780000      44.83880000      54.94880000
C       45.01530000      47.48360000      44.87590000
C       45.00340000      52.59380000      55.17780000
C       55.10270000      47.57280000      54.80350000
C       45.14660000      44.90330000      47.56990000
C       45.18300000      55.11080000      52.43680000
C       54.87620000      45.38380000      52.60520000
C       48.09400000      49.25160000      56.34270000
C       56.39820000      48.13820000      49.26020000
C       49.16540000      56.21260000      48.06570000
C       51.85430000      50.65010000      56.35150000
C       51.85570000      49.25490000      43.52190000
C       48.16980000      50.77160000      43.54330000
C       43.77770000      51.89960000      49.37450000
C       43.79400000      48.08710000      50.70920000
C       56.42650000      51.92140000      50.78710000
C       50.75740000      43.75650000      48.08740000
C       50.79820000      56.18490000      51.91580000
C       49.22960000      43.64780000      51.91300000
C       48.12760000      49.28750000      43.54850000
C       56.43720000      48.14520000      50.73800000
C       49.30050000      56.27980000      51.86360000
C       51.88240000      50.77680000      43.58980000
C       51.89960000      49.14740000      56.25250000
C       48.07670000      50.72400000      56.40700000
C       43.83030000      51.93070000      50.83690000
C       43.80050000      48.04980000      49.21460000
C       56.36290000      51.91610000      49.31040000
C       50.70530000      43.62160000      51.89510000
C       50.66390000      56.19590000      48.11640000
C       49.25370000      43.67570000      48.15440000
C       51.19490000      55.29580000      55.55310000
C       55.30520000      51.45610000      55.23470000
C       55.39950000      55.52750000      51.43050000
C       48.72460000      44.64560000      55.44810000
C       48.71340000      55.45200000      44.41000000
C       51.16880000      44.65750000      44.45480000
C       44.56680000      48.70780000      55.33710000
C       44.75950000      51.42950000      44.88550000
C       55.29160000      48.52050000      44.79430000
C       44.58340000      44.53180000      51.36950000
C       44.57330000      55.50520000      48.60750000
C       55.30800000      44.53220000      48.67530000
C       51.36230000      55.41530000      44.55220000
C       55.40190000      51.24890000      44.72230000
C       55.30830000      55.42560000      48.75540000
C       48.48880000      44.82590000      44.70640000
C       48.51220000      55.18580000      55.32690000
C       51.40150000      44.56450000      55.51710000
C       44.51090000      48.72750000      44.67080000
C       44.45910000      51.38250000      55.43040000
C       55.53700000      48.76910000      55.34850000
C       44.55400000      44.41640000      48.71750000
C       44.63870000      55.55510000      51.24710000
C       55.14400000      44.72480000      51.39810000
