240
Lattice="100.0 0.0 0.0 0.0 100.0 0.0 0.0 0.0 100.0" Properties=species:S:1:pos:R:3 name=C-97510-5923-24 pressure=-5.11420549083337e-05 spacegroup=C1 times_found=1 energy=-1780.27306071582 pbc="T T T"
C       54.21800000      55.31340000      49.93500000
C       50.98530000      53.76510000      55.33340000
C       55.12590000      51.05830000      54.36150000
C       53.69650000      45.12310000      50.05520000
C       45.92030000      44.96280000      49.85910000
C       46.17210000      54.71180000      50.02220000
C       49.85550000      46.03810000      45.01650000
C       49.90970000      45.97470000      54.82980000
C       50.03010000      53.81110000      45.01210000
C       54.72940000      50.09140000      46.18950000
C       44.90650000      49.91970000      53.84580000
C       45.02620000      49.86650000      45.96140000
C       53.96770000      50.92270000      55.30310000
C       50.57780000      54.78380000      54.30570000
C       55.24170000      54.34390000      49.89830000
C       53.78730000      50.05650000      45.13720000
C       46.01720000      49.87140000      44.95890000
C       45.81340000      49.76950000      54.92450000
C       49.84030000      45.04560000      46.01580000
C       50.05910000      54.76340000      46.04770000
C       49.97450000      45.00000000      53.81760000
C       54.68180000      46.14450000      50.01400000
C       45.15960000      53.74240000      50.06230000
C       44.92560000      45.96120000      49.85470000
C       46.88660000      51.34560000      56.36480000
C       56.13470000      47.17700000      51.60550000
C       50.92930000      56.79690000      47.11340000
C       47.04870000      48.95840000      42.91470000
C       53.12570000      48.74390000      56.38580000
C       52.85610000      50.89930000      43.01160000
C       57.02250000      53.00910000      48.92550000
C       43.09130000      52.78050000      50.90520000
C       42.92500000      47.04010000      48.90810000
C       50.86740000      42.98200000      52.76700000
C       48.93700000      42.98410000      47.03040000
C       48.85200000      56.15110000      53.21000000
C       47.28700000      56.67370000      50.95950000
C       56.77400000      50.95990000      47.21390000
C       50.90880000      47.05760000      56.76350000
C       46.98930000      42.94800000      48.92260000
C       52.88120000      57.05300000      48.92260000
C       52.79360000      43.12490000      51.08940000
C       56.47620000      49.28050000      53.33800000
C       43.08320000      51.12610000      52.82880000
C       42.97760000      48.96780000      47.00080000
C       50.93540000      52.82500000      42.94610000
C       48.97470000      47.04240000      42.94450000
C       49.29790000      52.58830000      57.04510000
C       55.39690000      53.39870000      45.51740000
C       45.42090000      55.47260000      53.26400000
C       53.24570000      45.27860000      55.48480000
C       55.21420000      46.59850000      55.08270000
C       44.48840000      46.51970000      45.45150000
C       45.05460000      53.40830000      54.60110000
C       45.47390000      44.49990000      46.47250000
C       54.58620000      44.85940000      53.42810000
C       54.43710000      55.48630000      46.46820000
C       53.37380000      54.39090000      44.51200000
C       46.95840000      54.93120000      55.09120000
C       46.51300000      45.50520000      44.46870000
C       55.42790000      45.93490000      53.82450000
C       46.21520000      53.71850000      55.43540000
C       53.38440000      55.41770000      45.48500000
C       55.45510000      54.48170000      46.46570000
C       44.47550000      45.50140000      46.46720000
C       44.70760000      54.27080000      53.48030000
C       45.49580000      46.52010000      44.45900000
C       54.38720000      53.37440000      44.53200000
C       54.08690000      46.36930000      55.84800000
C       53.44910000      44.54900000      54.28900000
C       46.54750000      55.75330000      54.06630000
C       46.50150000      44.50520000      45.46650000
C       50.68460000      47.20290000      45.12850000
C       45.14150000      50.68850000      47.12740000
C       47.05940000      45.04730000      50.72560000
C       52.23450000      53.01230000      55.16490000
C       49.17880000      52.66540000      45.08800000
C       49.06010000      47.13490000      54.75500000
C       45.00340000      49.05450000      52.72050000
C       54.58680000      49.31240000      47.39070000
C       55.38400000      51.74240000      53.14350000
C       47.34930000      54.55720000      49.23010000
C       53.17310000      55.31470000      50.94410000
C       52.56990000      45.22040000      49.20580000
C       50.65290000      45.16100000      47.18890000
C       45.00960000      47.09900000      50.72430000
C       47.17520000      50.70870000      45.06130000
C       51.36750000      55.05120000      53.12660000
C       49.07490000      45.06930000      52.69370000
C       49.26740000      54.61890000      47.22920000
C       45.21640000      52.61130000      49.17460000
C       54.51410000      47.36370000      49.34060000
C       55.32200000      53.35620000      50.92050000
C       46.98180000      48.98310000      54.81770000
C       52.72020000      51.61560000      55.53100000
C       52.63330000      49.21350000      45.19420000
C       52.23180000      56.25310000      45.60940000
C       44.51240000      51.48440000      56.02770000
C       55.96110000      44.75530000      51.46770000
C       52.37270000      43.67970000      53.94990000
C       47.61510000      43.62830000      45.59250000
C       48.35830000      55.12390000      55.37120000
C       45.62330000      47.62540000      43.57190000
C       55.43800000      49.08640000      55.47350000
C       54.26250000      52.24360000      43.68060000
C       56.41970000      54.39460000      47.50510000
C       43.80560000      53.95120000      52.41710000
C       43.57890000      45.61780000      47.56780000
C       52.06270000      45.40500000      56.26510000
C       45.57590000      56.25040000      52.07470000
C       56.22830000      52.24150000      45.67740000
C       52.26690000      54.24520000      43.62900000
C       47.63270000      45.62310000      43.59700000
C       48.85550000      54.41930000      56.42210000
C       45.58060000      43.60780000      47.57600000
C       54.31630000      56.44760000      47.52370000
C       54.79070000      44.33810000      52.08300000
C       55.91160000      47.82380000      55.08930000
C       44.37150000      52.12260000      54.80870000
C       43.61210000      47.63530000      45.56660000
C       54.07480000      56.25800000      48.94660000
C       50.07010000      53.65960000      56.39420000
C       55.92720000      49.95580000      54.46710000
C       53.79370000      44.10460000      51.03390000
C       45.89320000      43.87770000      48.97700000
C       46.07610000      55.88850000      50.76120000
C       49.02250000      45.96500000      43.89450000
C       50.71260000      45.86690000      55.96370000
C       50.87210000      53.90360000      43.89740000
C       55.85540000      50.90010000      46.11690000
C       44.03570000      51.03510000      53.85170000
C       43.91400000      49.02140000      45.91040000
C       54.15440000      49.57900000      55.88990000
C       49.31320000      55.43430000      54.33850000
C       56.21280000      54.20340000      48.92450000
C       53.90740000      50.86290000      43.99630000
C       45.95770000      49.01990000      43.85030000
C       45.68130000      50.74740000      55.95770000
C       49.00020000      43.92760000      45.94770000
C       50.88150000      55.88210000      46.00760000
C       50.91980000      43.93420000      53.82730000
C       55.77220000      46.00870000      50.89830000
C       44.07310000      53.80780000      50.97110000
C       43.84450000      45.93680000      48.96890000
C       42.53230000      46.65970000      47.55690000
C       47.60270000      42.56720000      46.61760000
C       46.65920000      47.61180000      42.51980000
C       42.71420000      52.95810000      52.30660000
C       57.40000000      53.27980000      47.54730000
C       56.25750000      46.87110000      53.00490000
C       47.49000000      56.57200000      53.33790000
C       52.19870000      57.32250000      46.62460000
C       52.28050000      42.63270000      52.90960000
C       46.90910000      52.81780000      56.37070000
C       53.25770000      52.23670000      42.60010000
C       53.34470000      47.33000000      56.65400000
C       42.55160000      47.63480000      46.59340000
C       47.63400000      46.64490000      42.53250000
C       46.61610000      42.55410000      47.57090000
C       41.99430000      52.06800000      52.99190000
C       56.55090000      47.96060000      53.81320000
C       57.29870000      52.22490000      46.68870000
C       48.08030000      53.33520000      56.96270000
C       52.21480000      46.61750000      57.07090000
C       52.28900000      53.21250000      42.57330000
C       46.80960000      57.03770000      52.22720000
C       52.98990000      41.99660000      51.97350000
C       53.20090000      57.42310000      47.54380000
C       47.30590000      53.56290000      48.22500000
C       48.05070000      47.07780000      53.74630000
C       53.53440000      48.34390000      47.33920000
C       47.05050000      46.06380000      51.72510000
C       52.55310000      46.28460000      48.25960000
C       53.53530000      54.61750000      52.10780000
C       48.23190000      52.62820000      46.15150000
C       53.11360000      53.79380000      54.36620000
C       51.60740000      47.24930000      46.21610000
C       54.98020000      53.07170000      53.23800000
C       46.20590000      51.63620000      47.15540000
C       46.00830000      48.04140000      52.74880000
C       47.00690000      48.02580000      53.76610000
C       48.28630000      53.58680000      47.21050000
C       53.50870000      47.34640000      48.32610000
C       47.20800000      51.64980000      46.13130000
C       52.58080000      48.28140000      46.26500000
C       54.45090000      53.54740000      54.41920000
C       48.06320000      46.07300000      52.72330000
C       52.67770000      54.55730000      53.21690000
C       51.58920000      46.23960000      47.22800000
C       54.66350000      53.75980000      52.08150000
C       46.02610000      47.06730000      51.72650000
C       46.24950000      52.59830000      48.19320000
C       51.78350000      49.25170000      56.30250000
C       56.53120000      51.79090000      49.47350000
C       49.48950000      56.08230000      51.88320000
C       51.54920000      50.51470000      43.38470000
C       48.06610000      50.53450000      56.33000000
C       48.33910000      49.35340000      43.33500000
C       55.95490000      48.52360000      51.03870000
C       43.35590000      48.32360000      49.32330000
C       43.45890000      51.48380000      50.48530000
C       49.30860000      43.40040000      48.33030000
C       50.43510000      43.40160000      51.48970000
C       50.63590000      56.34810000      48.42010000
C       51.65620000      56.54040000      49.45100000
C       56.16900000      49.65800000      51.98380000
C       49.26490000      51.21210000      56.72110000
C       51.48590000      43.47890000      50.53700000
C       48.57850000      56.15720000      50.71190000
C       48.27080000      43.37220000      49.33730000
C       56.34830000      50.67690000      48.53300000
C       43.39730000      49.34400000      48.29560000
C       43.44210000      50.52630000      51.53600000
C       49.36190000      48.33760000      43.35510000
C       50.52880000      51.53130000      43.34680000
C       50.58570000      48.35160000      56.32620000
C       50.48340000      44.28270000      48.32090000
C       48.31540000      50.55820000      44.18450000
C       44.17580000      48.26710000      50.54400000
C       50.88940000      55.68050000      51.88570000
C       49.48230000      55.43550000      48.41510000
C       49.21180000      44.22020000      51.53580000
C       48.14290000      49.25640000      55.63390000
C       51.53810000      49.32750000      44.25930000
C       51.71890000      50.68640000      56.05970000
C       44.31210000      51.49340000      49.28320000
C       55.92040000      52.03090000      50.78160000
C       55.32440000      48.54230000      49.65890000
C       50.54800000      48.33020000      44.23720000
C       48.21730000      44.20550000      50.55080000
C       44.27790000      50.52320000      48.27440000
C       50.51610000      51.08200000      56.37950000
C       49.26100000      48.32090000      55.59950000
C       49.31470000      51.54660000      44.18990000
C       48.53800000      55.36940000      49.45100000
C       51.47030000      44.31000000      49.33520000
C       51.84920000      55.87270000      50.77380000
C       44.19190000      49.26910000      51.55580000
C       55.82900000      51.11530000      51.90620000
C       55.42590000      49.51520000      48.58940000
