240
Lattice="100.0 0.0 0.0 0.0 100.0 0.0 0.0 0.0 100.0" Properties=species:S:1:pos:R:3 name=C-97510-5923-556 pressure=-24.5516802292402 spacegroup=C1 times_found=1 energy=-1768.78939114922 pbc="T T T"
C       46.96410000      46.87750000      45.53940000
C       44.97690000      46.29430000      47.70790000
C       47.57350000      45.82910000      46.42920000
C       53.96720000      47.17220000      54.31160000
C       46.01850000      52.81020000      55.35180000
C       53.98750000      52.81270000      44.43630000
C       54.79740000      46.67850000      53.14750000
C       45.65580000      53.85330000      52.47490000
C       54.22310000      53.88510000      47.50580000
C       52.65080000      44.35760000      53.94400000
C       46.76850000      54.76640000      53.01840000
C       53.16860000      54.80380000      46.96190000
C       46.39720000      52.47090000      45.77640000
C       45.50320000      53.07260000      46.83510000
C       47.60900000      55.10360000      46.16990000
C       53.82510000      52.62430000      54.31790000
C       45.99960000      47.34850000      54.55390000
C       53.95010000      47.35550000      44.42220000
C       54.66080000      53.20060000      53.19800000
C       45.13760000      46.88430000      53.38830000
C       54.25770000      46.26090000      47.43050000
C       52.40010000      55.17190000      53.80290000
C       47.21760000      44.35670000      54.08380000
C       53.17440000      45.40490000      46.85370000
C       48.89790000      54.20410000      54.84660000
C       55.56910000      49.21850000      54.46560000
C       54.16990000      55.24300000      49.73340000
C       51.13260000      54.22440000      45.06790000
C       49.69820000      45.84370000      44.89780000
C       50.67780000      45.17620000      55.06580000
C       44.97780000      48.85850000      45.96500000
C       55.02390000      50.80410000      45.30250000
C       44.63970000      50.91840000      54.64160000
C       45.81970000      55.18220000      50.23710000
C       54.18740000      44.80270000      51.07950000
C       45.82940000      45.23940000      49.75600000
C       49.23320000      45.19420000      55.11080000
C       55.53000000      50.65670000      54.47070000
C       54.22300000      44.80550000      49.60820000
C       51.16260000      45.88370000      44.86680000
C       49.66370000      54.25040000      45.13510000
C       50.37250000      54.25660000      54.80450000
C       44.93510000      50.31150000      45.86340000
C       55.01290000      49.36190000      45.30270000
C       44.53110000      49.48270000      54.66010000
C       45.82530000      45.11970000      51.22990000
C       54.10540000      55.16580000      51.19410000
C       45.91230000      55.09990000      48.78350000
C       50.84170000      49.12490000      57.63070000
C       57.74170000      50.79000000      49.15450000
C       49.18590000      58.36100000      50.65360000
C       49.15420000      49.28810000      41.87360000
C       50.56880000      50.78520000      41.74930000
C       49.41190000      50.57460000      57.89910000
C       41.98320000      50.95060000      50.74470000
C       58.00380000      49.29910000      50.55190000
C       41.76850000      49.38680000      49.42350000
C       50.75950000      58.37920000      49.30750000
C       49.24800000      42.01630000      49.13020000
C       50.65530000      41.61710000      50.57880000
C       50.86180000      50.57330000      57.72640000
C       57.75950000      49.32310000      49.13400000
C       49.20700000      41.74840000      50.56590000
C       49.13150000      50.73290000      42.00870000
C       50.60220000      49.33610000      41.64420000
C       49.38470000      49.12810000      57.74730000
C       41.83810000      49.48930000      50.85890000
C       57.98540000      50.77510000      50.57280000
C       41.89740000      50.84680000      49.30730000
C       50.69020000      41.84880000      49.13150000
C       49.31570000      58.38820000      49.19190000
C       50.62910000      58.39970000      50.76840000
C       48.15260000      54.89940000      53.81420000
C       54.44130000      48.48230000      54.81850000
C       54.58420000      54.19660000      48.91070000
C       51.84400000      54.92800000      46.12820000
C       48.93750000      45.43910000      45.99670000
C       51.32580000      44.16230000      54.38000000
C       46.14430000      48.20690000      45.44080000
C       54.37460000      51.46810000      44.27350000
C       45.57410000      51.47760000      55.47310000
C       45.36460000      54.14630000      51.05640000
C       54.76790000      45.95060000      51.74340000
C       44.94100000      46.04320000      49.09800000
C       48.56040000      44.16390000      54.46470000
C       54.36370000      51.33540000      54.81630000
C       54.63940000      45.88200000      48.82310000
C       51.83240000      45.34120000      46.02950000
C       48.99770000      55.15410000      45.91380000
C       51.01000000      55.19120000      54.04620000
C       46.00030000      51.09220000      45.42220000
C       54.34250000      48.70140000      44.28520000
C       45.57350000      48.66130000      55.11280000
C       45.10390000      46.14650000      51.97560000
C       54.64690000      53.98380000      51.82140000
C       45.40070000      53.91130000      48.15900000
C       47.28600000      43.39010000      49.38680000
C       49.42580000      47.09510000      42.80920000
C       42.82760000      49.13660000      47.26300000
C       52.85740000      42.65810000      50.75760000
C       47.05060000      57.30730000      50.37460000
C       52.90950000      57.35210000      49.58760000
C       50.72260000      47.05370000      56.42780000
C       49.31580000      52.75110000      56.80970000
C       50.68990000      52.85500000      43.02790000
C       57.39560000      49.29030000      52.84860000
C       43.01550000      51.00760000      52.89020000
C       56.45220000      50.77310000      47.14680000
C       47.16980000      57.28530000      48.99230000
C       49.34190000      52.74420000      43.31610000
C       42.85930000      50.52310000      47.14230000
C       52.80010000      57.33360000      50.97020000
C       47.17130000      43.07660000      50.72850000
C       52.90170000      42.75230000      49.37940000
C       50.67620000      52.69140000      56.56710000
C       49.33050000      47.07050000      56.49220000
C       50.80170000      47.14350000      42.69050000
C       57.36790000      50.70010000      52.86660000
C       42.75040000      49.63100000      53.04170000
C       56.45900000      49.37470000      47.13630000
C       43.87520000      46.72620000      49.77950000
C       49.55720000      44.43140000      46.76520000
C       46.76720000      49.03130000      44.36210000
C       55.74290000      46.66950000      50.86650000
C       44.37980000      53.33760000      50.43580000
C       55.53560000      53.34360000      49.50750000
C       50.63500000      43.12460000      53.60700000
C       48.88730000      56.07930000      53.25200000
C       51.09110000      56.09440000      46.69560000
C       53.53230000      49.17110000      55.67270000
C       46.44410000      50.64010000      56.31820000
C       53.60330000      50.78900000      43.21660000
C       44.33460000      53.28810000      49.00450000
C       49.67730000      56.22430000      46.59760000
C       46.77750000      50.45830000      44.42800000
C       55.65220000      53.31880000      50.93810000
C       43.97690000      46.76560000      51.19760000
C       55.60120000      46.71020000      49.43580000
C       50.30280000      56.23910000      53.35530000
C       49.23030000      43.12770000      53.64850000
C       50.98240000      44.31060000      46.70280000
C       53.49320000      50.60380000      55.67480000
C       46.46830000      49.23550000      56.06820000
C       53.59570000      49.38630000      43.21550000
C       53.05760000      44.19030000      47.59560000
C       47.53990000      52.67200000      44.80930000
C       43.91210000      47.63210000      53.28840000
C       47.06020000      43.62270000      52.93200000
C       52.60350000      56.18320000      52.91020000
C       47.38780000      56.12150000      47.05700000
C       52.56670000      52.74480000      55.17100000
C       47.25200000      47.07180000      55.40130000
C       52.89610000      47.18510000      43.55800000
C       55.18950000      47.41480000      47.19110000
C       44.27770000      52.33780000      46.94580000
C       55.92420000      52.52330000      53.05250000
C       53.10310000      56.01590000      47.72540000
C       47.67060000      46.96140000      44.29570000
C       44.58730000      52.78030000      52.73930000
C       46.85120000      55.97380000      52.24910000
C       52.80830000      43.56060000      52.83530000
C       47.37640000      44.88800000      47.59230000
C       52.72160000      46.97210000      55.18760000
C       47.16140000      52.85660000      56.10550000
C       52.87240000      52.96630000      43.64920000
C       55.16390000      52.72580000      47.23110000
C       43.95700000      47.17930000      47.48960000
C       56.03250000      47.40530000      53.00240000
C       51.60100000      53.51390000      43.92310000
C       44.09100000      51.66740000      53.57250000
C       53.47640000      43.66380000      51.59560000
C       48.42280000      53.44560000      55.93860000
C       51.45830000      46.27460000      55.49470000
C       48.90440000      46.39380000      43.91260000
C       55.48650000      51.53380000      46.42960000
C       43.87390000      48.33090000      46.69420000
C       56.48570000      48.57070000      53.66520000
C       46.70600000      44.57010000      48.86280000
C       53.62580000      56.28730000      49.00650000
C       46.34130000      56.23810000      50.95980000
C       51.65400000      46.53560000      43.68710000
C       43.59450000      48.86880000      53.87540000
C       53.38390000      56.26930000      51.74910000
C       48.51150000      46.32140000      55.59910000
C       51.26010000      53.36520000      55.46110000
C       48.79360000      53.35310000      44.47170000
C       55.49330000      48.62340000      46.41400000
C       43.92910000      51.07590000      46.41400000
C       56.42030000      51.36100000      53.69020000
C       46.61150000      56.20720000      48.22120000
C       53.63010000      43.82390000      48.83400000
C       46.52270000      43.95210000      51.66710000
C       56.93160000      48.63860000      48.26710000
C       48.41010000      57.74510000      48.37760000
C       48.63420000      48.19770000      57.03030000
C       42.41150000      48.79450000      51.90780000
C       57.46950000      51.47510000      51.64660000
C       42.57600000      51.41900000      48.25060000
C       51.55010000      57.77670000      51.58120000
C       48.22850000      42.30670000      51.37210000
C       51.74300000      42.51420000      48.53310000
C       51.43530000      48.33310000      42.12600000
C       48.55680000      51.61800000      42.90800000
C       51.46520000      51.56640000      56.95880000
C       56.90960000      51.48420000      48.29820000
C       48.38680000      42.95350000      48.58020000
C       48.64680000      51.60530000      57.39900000
C       42.76720000      51.65740000      51.64070000
C       57.51250000      48.55220000      51.60570000
C       42.36920000      48.53910000      48.51400000
C       51.66860000      42.10260000      51.39940000
C       48.13770000      57.68140000      51.26600000
C       51.81440000      57.71190000      48.69510000
C       51.35700000      51.78150000      42.30070000
C       48.56930000      48.24060000      42.56000000
C       51.47920000      48.17430000      56.86000000
C       47.55000000      51.51100000      43.90680000
C       43.21680000      47.59180000      52.04600000
C       51.82700000      43.49350000      47.48350000
C       52.55620000      51.57210000      56.05410000
C       47.40460000      48.21720000      56.30790000
C       52.71710000      48.39280000      42.71150000
C       56.05150000      47.52670000      48.37410000
C       43.54400000      52.48330000      48.15680000
C       56.51170000      52.55560000      51.75840000
C       48.23830000      42.72960000      52.71690000
C       51.35070000      56.96700000      52.71600000
C       48.61940000      56.93210000      47.24350000
C       47.53690000      48.17010000      43.55960000
C       43.78700000      52.65520000      51.51650000
C       51.93810000      56.81480000      47.56470000
C       52.62870000      48.16770000      56.03210000
C       47.35710000      51.58300000      56.84700000
C       52.68680000      51.77560000      42.76860000
C       56.01170000      52.58110000      48.42170000
C       43.16380000      47.38660000      48.72820000
C       56.59700000      47.43200000      51.69820000
C       48.01920000      56.78640000      52.39830000
C       51.61160000      42.69190000      52.67420000
C       48.50950000      43.95260000      47.57700000
