240
Lattice="100.0 0.0 0.0 0.0 100.0 0.0 0.0 0.0 100.0" Properties=species:S:1:pos:R:3 name=C-97510-5923-820 pressure=0.00479955898616435 spacegroup=C1 times_found=1 energy=-1758.1623443579 pbc="T T T"
C       47.22390000      49.20760000      57.62830000
C       49.51340000      57.48280000      47.16700000
C       57.51190000      47.12360000      49.32380000
C       52.88150000      50.77100000      56.62960000
C       47.05630000      50.80560000      43.41300000
C       52.68690000      49.17300000      42.55690000
C       51.08190000      42.81100000      47.01620000
C       49.22770000      42.56220000      52.67210000
C       50.37940000      57.48940000      52.98710000
C       42.85540000      52.81660000      49.55950000
C       57.14080000      52.95130000      50.55600000
C       43.21810000      47.16230000      50.84730000
C       47.01750000      49.37880000      43.32520000
C       48.96120000      57.51930000      52.90980000
C       57.56810000      47.20680000      50.74100000
C       52.73410000      50.58780000      42.65730000
C       47.19100000      50.65100000      57.65270000
C       52.91900000      49.33690000      56.62980000
C       50.64680000      42.62110000      52.75160000
C       49.66800000      42.56780000      46.89510000
C       50.93130000      57.50820000      47.24710000
C       43.09380000      52.75210000      50.95720000
C       56.84060000      52.79490000      49.17580000
C       42.93880000      47.09710000      49.45710000
C       56.20470000      53.39650000      51.48600000
C       53.35220000      51.55180000      55.55850000
C       50.97900000      56.31440000      53.41400000
C       44.44060000      46.80170000      51.41640000
C       56.37280000      46.58470000      48.74860000
C       43.80670000      53.26380000      48.65080000
C       46.54580000      48.48910000      56.63470000
C       53.23880000      48.29030000      43.49730000
C       46.59120000      51.53360000      44.51230000
C       48.38630000      43.58330000      53.14170000
C       51.75820000      43.94380000      46.49990000
C       48.91300000      56.30830000      46.73890000
C       55.60840000      53.14400000      48.62280000
C       53.31710000      51.13640000      43.78620000
C       51.74970000      56.45360000      46.82370000
C       43.86150000      46.68800000      48.50270000
C       56.55110000      46.75640000      51.59380000
C       44.28000000      53.16730000      51.56830000
C       46.54920000      48.53300000      44.34000000
C       53.43210000      48.58080000      55.56140000
C       46.47580000      51.37220000      56.68870000
C       48.85790000      43.54720000      46.33230000
C       51.22910000      43.76900000      53.26920000
C       48.13590000      56.47410000      53.34560000
C       42.25540000      48.38140000      49.50790000
C       48.25300000      49.36070000      42.61100000
C       49.55110000      42.14170000      48.25570000
C       57.54090000      51.54380000      49.13200000
C       42.45750000      51.46340000      51.00750000
C       58.02530000      48.59020000      50.65130000
C       51.32470000      50.71620000      42.35790000
C       48.62820000      50.70030000      57.76460000
C       51.64500000      49.28190000      57.28050000
C       50.82780000      58.03680000      48.60620000
C       49.06770000      58.04250000      51.54780000
C       50.79990000      42.21280000      51.37320000
C       42.52730000      48.41820000      50.94480000
C       48.66130000      49.21630000      57.74310000
C       49.33170000      42.09900000      51.28900000
C       57.83830000      51.67700000      50.56630000
C       42.22070000      51.50870000      49.56630000
C       57.88740000      48.51630000      49.19020000
C       51.60860000      50.76260000      57.28300000
C       48.31200000      50.83470000      42.72770000
C       51.27370000      49.25720000      42.20290000
C       50.54030000      57.98940000      51.64350000
C       49.35490000      57.98490000      48.50980000
C       51.01770000      42.33210000      48.36440000
C       45.46330000      49.28500000      44.96170000
C       49.50320000      44.42940000      45.48460000
C       45.06830000      46.02550000      48.95160000
C       53.97240000      50.28490000      44.68790000
C       45.56770000      50.65260000      55.90370000
C       54.54650000      49.36440000      55.03790000
C       51.19820000      55.26630000      46.19730000
C       48.68170000      55.29060000      53.98840000
C       50.40560000      44.74930000      53.84520000
C       54.89770000      54.05700000      49.50930000
C       45.00530000      54.05220000      50.66710000
C       55.38940000      46.05310000      51.06910000
C       45.60640000      49.19010000      55.87220000
C       48.90970000      44.73270000      53.85350000
C       45.19500000      45.99320000      50.46770000
C       54.50560000      50.83250000      55.03160000
C       45.47350000      50.74960000      45.01710000
C       53.97570000      48.79260000      44.64770000
C       50.17500000      55.28990000      53.93670000
C       49.71180000      55.28030000      46.21990000
C       50.96470000      44.50280000      45.41550000
C       54.99690000      54.03450000      51.00860000
C       44.94990000      53.98910000      49.15940000
C       55.40180000      46.00340000      49.57750000
C       51.23070000      52.60580000      55.84690000
C       52.56420000      56.68800000      51.68730000
C       57.23980000      51.57450000      52.82640000
C       48.56440000      47.32410000      56.29440000
C       51.18130000      47.04550000      42.91760000
C       48.67390000      52.64120000      44.22710000
C       47.23380000      43.14180000      51.00160000
C       52.81850000      43.85020000      48.64330000
C       47.33550000      56.67600000      48.46870000
C       43.82900000      48.51800000      52.90680000
C       56.45320000      48.40680000      47.26930000
C       42.82960000      51.39150000      47.32920000
C       51.47430000      52.59520000      43.82180000
C       52.91810000      56.96970000      48.93560000
C       56.04110000      51.19790000      47.33730000
C       48.41280000      47.22590000      43.60750000
C       51.35930000      47.42640000      55.83460000
C       48.44360000      52.62430000      56.36420000
C       47.47150000      43.36360000      48.23170000
C       52.73480000      43.62950000      51.46680000
C       46.97810000      56.97310000      51.22130000
C       42.80980000      48.57280000      47.25630000
C       57.33260000      48.75600000      52.86640000
C       43.74490000      51.35120000      52.97530000
C       49.37520000      48.22940000      57.04760000
C       48.21000000      57.56060000      49.20590000
C       57.24990000      49.22140000      48.15260000
C       50.71090000      51.73260000      56.83850000
C       49.21040000      51.78240000      43.21960000
C       50.44840000      48.16800000      42.49910000
C       51.93480000      42.89700000      49.23830000
C       48.30150000      42.45190000      50.39690000
C       51.68700000      57.56760000      50.94820000
C       42.28960000      50.69260000      48.42970000
C       57.81400000      50.89540000      51.72750000
C       42.98200000      49.21400000      51.98160000
C       49.02990000      48.23090000      42.78780000
C       48.05720000      57.67250000      50.63630000
C       57.87170000      49.43710000      51.75130000
C       50.63570000      51.74850000      43.02390000
C       49.29560000      51.72990000      57.08480000
C       50.79350000      48.27750000      56.82080000
C       51.86950000      42.80470000      50.67170000
C       48.39980000      42.53940000      48.96190000
C       51.83960000      57.67310000      49.51780000
C       42.94260000      50.65160000      52.01730000
C       57.05080000      50.64950000      48.18080000
C       42.28860000      49.22890000      48.39440000
C       54.46670000      51.03810000      45.74150000
C       51.18480000      45.82260000      54.26840000
C       45.71270000      55.05410000      51.29010000
C       44.43540000      48.60070000      45.59870000
C       55.60940000      48.71840000      54.41770000
C       45.05360000      51.36550000      54.82600000
C       47.99740000      54.12180000      54.54210000
C       51.87000000      54.08450000      45.66590000
C       48.64970000      45.42100000      44.98520000
C       54.23280000      45.47870000      51.75470000
C       46.06230000      45.31440000      48.12470000
C       54.17990000      55.04640000      48.87840000
C       55.52210000      51.53640000      54.39310000
C       51.47630000      45.33290000      44.43620000
C       45.95910000      54.70940000      48.38180000
C       45.13520000      48.49360000      54.76180000
C       54.59930000      48.08220000      45.76970000
C       44.45770000      51.41310000      45.68700000
C       48.90810000      54.21680000      45.82320000
C       50.97950000      54.21470000      54.29820000
C       48.19110000      45.86610000      54.43020000
C       54.37180000      45.48420000      48.79490000
C       45.96620000      45.03890000      51.08290000
C       53.97020000      54.73790000      51.78910000
C       54.21230000      52.38270000      46.27640000
C       52.56980000      46.26810000      54.07080000
C       46.16580000      55.27160000      52.61910000
C       44.47560000      47.33470000      46.19390000
C       55.65870000      47.45760000      53.80470000
C       45.49910000      52.58290000      54.12410000
C       46.69460000      53.19310000      54.78750000
C       53.11320000      53.07130000      45.54360000
C       47.42220000      46.01890000      45.53000000
C       53.22440000      45.44460000      53.00440000
C       46.94190000      45.25100000      46.75760000
C       53.71270000      55.24880000      47.55140000
C       55.47800000      52.78740000      53.75570000
C       52.71060000      45.96220000      44.24260000
C       46.91950000      54.68360000      47.11850000
C       45.64270000      47.32720000      54.01700000
C       54.69550000      46.78790000      46.76060000
C       44.51980000      52.64910000      46.34370000
C       47.52320000      53.81450000      46.04840000
C       52.37520000      53.82570000      54.07730000
C       46.85700000      46.74300000      54.67590000
C       53.92850000      45.64860000      47.40650000
C       46.42240000      44.82140000      52.41420000
C       52.98530000      54.70170000      53.03260000
C       50.52840000      45.99940000      43.56620000
C       46.43250000      44.00150000      50.24290000
C       43.32560000      50.68900000      46.21770000
C       49.56590000      53.49050000      44.85990000
C       50.32600000      53.45630000      55.23410000
C       49.12330000      46.48700000      55.34010000
C       53.56560000      55.92240000      51.06650000
C       46.34690000      55.90310000      49.09640000
C       53.67520000      44.52730000      49.49880000
C       55.57910000      48.97500000      46.34320000
C       44.19100000      49.22610000      54.03870000
C       56.69280000      50.84420000      53.89870000
C       50.49350000      46.54810000      55.20300000
C       46.52160000      44.17050000      48.87200000
C       44.14830000      50.61370000      54.07360000
C       48.96090000      53.49350000      55.41370000
C       50.93670000      53.50870000      44.72090000
C       49.19360000      46.11200000      43.90030000
C       53.71940000      56.11320000      49.70440000
C       46.18460000      56.10670000      50.45530000
C       53.67790000      44.47320000      50.87990000
C       56.73400000      49.47550000      53.91310000
C       43.31660000      49.31850000      46.17750000
C       55.45210000      50.35200000      46.41030000
C       52.47430000      44.19150000      52.74780000
C       44.54500000      52.56700000      52.86610000
C       52.79410000      52.35010000      44.28850000
C       46.96850000      56.39990000      52.58560000
C       52.91910000      56.38170000      47.57800000
C       47.67640000      43.97790000      46.96110000
C       56.60990000      47.45840000      52.80720000
C       43.61020000      47.31720000      47.27100000
C       55.26640000      52.44280000      47.41130000
C       47.26540000      47.28140000      44.53520000
C       52.65900000      47.42270000      55.14880000
C       47.06450000      52.49560000      56.05790000
C       52.84120000      44.48190000      47.31780000
C       43.63540000      52.64060000      47.40580000
C       52.52220000      52.66850000      55.15070000
C       47.65970000      55.95490000      47.27780000
C       52.23450000      55.96520000      52.87330000
C       47.23060000      43.69600000      52.37060000
C       55.93820000      47.09500000      47.50350000
C       44.68940000      47.35230000      52.74430000
C       56.41830000      52.80710000      52.74030000
C       47.18630000      47.41570000      55.97070000
C       52.57280000      47.05400000      43.42350000
C       47.38440000      52.67000000      44.93860000
