240
Lattice="100.0 0.0 0.0 0.0 100.0 0.0 0.0 0.0 100.0" Properties=species:S:1:pos:R:3 name=C-97510-5923-1287 pressure=1.94526038459169 spacegroup=C1 times_found=1 energy=-1764.96904613344 pbc="T T T"
C       56.60240000      50.49630000      47.07860000
C       50.74640000      47.08390000      56.88130000
C       47.05310000      56.79430000      50.76980000
C       56.33830000      49.25840000      52.75840000
C       43.89420000      50.65040000      52.80120000
C       43.83170000      49.36210000      46.96880000
C       50.65540000      52.84050000      43.76620000
C       49.12600000      47.17700000      43.46900000
C       49.06760000      52.77140000      56.56130000
C       47.09750000      43.53930000      49.43670000
C       52.80890000      56.25700000      49.19610000
C       52.98760000      43.87660000      50.80000000
C       43.85360000      50.81200000      46.97350000
C       49.31670000      47.03310000      56.90280000
C       52.76220000      56.14360000      50.63790000
C       43.80560000      49.21000000      52.82900000
C       56.30180000      50.69950000      52.71010000
C       56.56240000      49.06370000      47.08820000
C       49.21290000      52.92350000      43.65760000
C       50.55960000      47.16220000      43.44080000
C       50.50690000      52.75860000      56.57450000
C       52.96310000      43.85530000      49.35200000
C       47.05820000      56.83510000      49.34230000
C       47.12250000      43.66580000      50.87090000
C       52.86600000      47.19760000      55.92460000
C       47.06620000      55.86540000      52.91470000
C       55.81590000      52.70070000      47.06110000
C       52.86850000      52.76020000      44.69080000
C       46.84970000      47.21040000      43.89990000
C       46.80800000      52.69530000      56.05440000
C       47.11530000      44.25640000      47.20400000
C       52.74550000      55.88820000      46.89570000
C       52.95310000      44.76200000      53.03560000
C       56.01060000      46.95280000      52.85300000
C       44.72330000      52.90530000      52.85100000
C       44.65140000      47.10730000      46.99980000
C       47.15750000      47.01730000      56.02400000
C       52.70660000      55.16580000      52.82360000
C       44.70420000      53.06550000      47.04000000
C       46.89680000      52.96180000      43.95720000
C       52.78060000      47.12050000      44.19910000
C       52.67660000      52.71560000      55.69740000
C       52.88590000      44.72170000      47.11920000
C       47.07610000      56.01670000      47.16260000
C       47.13360000      44.62040000      53.07220000
C       44.11900000      46.89680000      52.80140000
C       55.82910000      52.97670000      52.64310000
C       56.07740000      46.79840000      47.14320000
C       42.67560000      50.78430000      50.63370000
C       50.73320000      50.77750000      42.39430000
C       50.81740000      42.70160000      50.84680000
C       42.64280000      49.35140000      49.14840000
C       57.87260000      50.63440000      49.19210000
C       57.78920000      49.22840000      50.69340000
C       50.70230000      49.25210000      58.01200000
C       49.19830000      50.67920000      57.92010000
C       49.25020000      49.34470000      42.19980000
C       50.74620000      57.66460000      49.34270000
C       49.33580000      42.49580000      49.42990000
C       49.29150000      57.80260000      50.80950000
C       57.77540000      50.66840000      50.66320000
C       49.29090000      50.81230000      42.30510000
C       49.35370000      42.59620000      50.88370000
C       57.86420000      49.18140000      49.22560000
C       42.69970000      50.79980000      49.16160000
C       42.59410000      49.34050000      50.62350000
C       49.24090000      49.21630000      58.01860000
C       50.64890000      50.71830000      57.93210000
C       50.70270000      49.31300000      42.23460000
C       49.29030000      57.87860000      49.34790000
C       50.80230000      42.65140000      49.39830000
C       50.73980000      57.55850000      50.78490000
C       47.94850000      45.53660000      45.30720000
C       45.34470000      45.13150000      48.22760000
C       44.98690000      48.32260000      44.88690000
C       47.89430000      54.44480000      54.72730000
C       51.78370000      45.43760000      55.06820000
C       51.60510000      54.81140000      45.10060000
C       45.36930000      54.98610000      51.75910000
C       55.07720000      45.03170000      51.82880000
C       54.51050000      54.55320000      47.90950000
C       45.08920000      51.56260000      54.86700000
C       54.57650000      48.10260000      54.44450000
C       54.79110000      51.52830000      45.48310000
C       51.60920000      45.53840000      45.21940000
C       55.05050000      44.97220000      48.28260000
C       54.69370000      47.91060000      45.46700000
C       51.50580000      54.33570000      54.73730000
C       48.31020000      45.34620000      55.09630000
C       47.94550000      54.66780000      45.33730000
C       54.73620000      54.78220000      51.53870000
C       45.06100000      44.97530000      51.74310000
C       45.37880000      55.07170000      48.26720000
C       54.47340000      51.85450000      54.31960000
C       45.37970000      47.89830000      54.62790000
C       45.00080000      51.88200000      44.89720000
C       44.45620000      54.82210000      50.73770000
C       54.58470000      50.46880000      44.63860000
C       50.79980000      44.48360000      54.90720000
C       44.35770000      45.25990000      49.17590000
C       55.46430000      54.47230000      48.96770000
C       56.00530000      45.11080000      50.76940000
C       54.39260000      49.27280000      55.24240000
C       45.27610000      50.40550000      55.64700000
C       45.10300000      49.38390000      43.95770000
C       50.47390000      55.62200000      45.31030000
C       49.07640000      44.68080000      45.49430000
C       49.01900000      55.31270000      54.59740000
C       55.54270000      54.60350000      50.40090000
C       45.11650000      50.82540000      43.96590000
C       49.33700000      44.44290000      54.92290000
C       56.00330000      45.07260000      49.32840000
C       44.46030000      54.85960000      49.27430000
C       44.20580000      45.17060000      50.62080000
C       45.43070000      48.97100000      55.56650000
C       54.34930000      50.72890000      55.19310000
C       54.55220000      49.02100000      44.57920000
C       49.03680000      55.57600000      45.44390000
C       50.52880000      44.72740000      45.45250000
C       50.46530000      55.21460000      54.58740000
C       49.16470000      56.46130000      53.71630000
C       56.63810000      53.60580000      49.02940000
C       53.65040000      49.29550000      56.49740000
C       49.21540000      43.59750000      46.45260000
C       50.57840000      56.71260000      46.27050000
C       50.81270000      43.64630000      53.73900000
C       56.97440000      46.19320000      50.75960000
C       43.63350000      53.64400000      50.70870000
C       43.48610000      46.40130000      49.12520000
C       53.58520000      50.61070000      43.61430000
C       46.19260000      49.36540000      42.99690000
C       46.17540000      50.49030000      56.78820000
C       50.60870000      56.27330000      53.62560000
C       43.63700000      53.68280000      49.23450000
C       46.25550000      49.03500000      56.76530000
C       50.66720000      43.72990000      46.47700000
C       49.12310000      56.73450000      46.32330000
C       49.33990000      43.60150000      53.75920000
C       43.32070000      46.31750000      50.58880000
C       56.64760000      53.65900000      50.48660000
C       56.98910000      46.14060000      49.28960000
C       46.21480000      50.83600000      43.01410000
C       53.62370000      49.15700000      43.46700000
C       53.59780000      50.74150000      56.44480000
C       51.65520000      53.54020000      44.52840000
C       53.75760000      44.55880000      51.82940000
C       44.58300000      51.64880000      53.57330000
C       51.70590000      46.42140000      56.05040000
C       47.99580000      53.43280000      55.77100000
C       48.04960000      46.50770000      44.23280000
C       53.47960000      55.55650000      48.07340000
C       46.37610000      44.21990000      48.39730000
C       46.34280000      55.97950000      51.71660000
C       44.48890000      48.32110000      46.20170000
C       55.80480000      51.46500000      46.41300000
C       55.61410000      48.18540000      53.45630000
C       48.09780000      53.63800000      44.33180000
C       46.34860000      44.40580000      51.84820000
C       55.51610000      51.76970000      53.33630000
C       48.36980000      46.31860000      56.09200000
C       51.45610000      53.39140000      55.73450000
C       51.54000000      46.47530000      44.21370000
C       46.35290000      56.06340000      48.36210000
C       53.71970000      44.51220000      48.30270000
C       53.46720000      55.35050000      51.60630000
C       55.76840000      48.00010000      46.43570000
C       44.51720000      51.86600000      46.21600000
C       44.44180000      48.07450000      53.54450000
C       56.95350000      47.06480000      48.26130000
C       47.22000000      48.08890000      56.94370000
C       48.16490000      56.90890000      47.27550000
C       56.69400000      52.72930000      51.52640000
C       43.34900000      47.22380000      51.63400000
C       43.81910000      52.81690000      48.18370000
C       47.17870000      51.82950000      43.11300000
C       52.67980000      48.18720000      43.29210000
C       52.63260000      51.69280000      56.65540000
C       48.29820000      43.73540000      52.87560000
C       51.62000000      56.14730000      52.69600000
C       51.73080000      43.83390000      47.34810000
C       43.72530000      47.32040000      48.12900000
C       52.76880000      48.29390000      56.80520000
C       51.62280000      56.73750000      47.19190000
C       43.83130000      52.71890000      51.70660000
C       56.87360000      47.18620000      51.72790000
C       56.76980000      52.62490000      48.08970000
C       52.68830000      51.65240000      43.74150000
C       47.12740000      48.34600000      43.04940000
C       47.07200000      51.55040000      56.89420000
C       51.82490000      43.84780000      52.83310000
C       48.17430000      56.73400000      52.82350000
C       48.22640000      43.40920000      47.36920000
C       57.25980000      51.26730000      48.13740000
C       51.44060000      48.24990000      57.41230000
C       48.20610000      57.29660000      51.49620000
C       57.12330000      48.57710000      51.70910000
C       43.35630000      51.38140000      51.67510000
C       43.27980000      48.67510000      48.12370000
C       51.36940000      51.71910000      43.18150000
C       48.51390000      48.31280000      42.76820000
C       48.44780000      51.64270000      57.26580000
C       48.24920000      42.97060000      48.73860000
C       51.70320000      57.01970000      48.58860000
C       51.83520000      43.36010000      51.49860000
C       43.34290000      51.47810000      48.14800000
C       48.56610000      48.14270000      57.47090000
C       51.67140000      56.73740000      51.38900000
C       43.12530000      48.61500000      51.66900000
C       57.05270000      51.35510000      51.61520000
C       57.26720000      48.44460000      48.21330000
C       48.57910000      51.83250000      42.89940000
C       51.32590000      48.23600000      42.81070000
C       51.29050000      51.70440000      57.22730000
C       51.78220000      43.32440000      48.68910000
C       48.20590000      57.39330000      48.63740000
C       48.30290000      43.20720000      51.55400000
C       46.36720000      46.75540000      54.87920000
C       46.81110000      54.89930000      46.33460000
C       55.39430000      45.64200000      47.09330000
C       45.69610000      53.06450000      44.56120000
C       53.63350000      46.82580000      45.28870000
C       53.47190000      52.97970000      54.56330000
C       47.10270000      45.52410000      54.22010000
C       52.72950000      54.20740000      53.91100000
C       52.88390000      45.63710000      45.99140000
C       55.15110000      54.13220000      52.71070000
C       44.69980000      45.68790000      52.89760000
C       45.58060000      54.22810000      47.04110000
C       53.64260000      46.94120000      54.77100000
C       52.79370000      55.22500000      45.72670000
C       45.55120000      45.96720000      46.99950000
C       53.99420000      52.77520000      45.60850000
C       45.67330000      47.14120000      44.54570000
C       45.67020000      52.75170000      55.34350000
C       52.96280000      45.66750000      54.17100000
C       46.78800000      54.71410000      53.69680000
C       46.81930000      45.32410000      46.32520000
C       45.57470000      54.07910000      52.93780000
C       55.41700000      45.75390000      52.99520000
C       54.69850000      53.52600000      46.79990000
