240
Lattice="100.0 0.0 0.0 0.0 100.0 0.0 0.0 0.0 100.0" Properties=species:S:1:pos:R:3 name=C-97510-5923-827 pressure=4.39567010942558 energy=-1663.38603844444 spacegroup=Th times_found=1 pbc="T T T"
C       50.72360000      44.51750000      52.53950000
C       52.54010000      50.72450000      44.51780000
C       44.51820000      52.54080000      50.72470000
C       49.27690000      55.48160000      52.54160000
C       49.27580000      44.51850000      47.45850000
C       50.72370000      55.48240000      47.46030000
C       47.45880000      49.27740000      44.51810000
C       47.46000000      50.72280000      55.48240000
C       52.54110000      49.27520000      55.48160000
C       55.48200000      47.45900000      50.72260000
C       55.48210000      52.54040000      49.27620000
C       44.51780000      47.45980000      49.27640000
C       50.72310000      44.51840000      47.45840000
C       52.54120000      50.72260000      55.48190000
C       44.51800000      52.54100000      49.27740000
C       49.27640000      55.48250000      47.46050000
C       49.27630000      44.51760000      52.53970000
C       50.72420000      55.48150000      52.54150000
C       47.45990000      49.27550000      55.48220000
C       47.45890000      50.72480000      44.51840000
C       52.54000000      49.27720000      44.51760000
C       55.48180000      47.45920000      49.27530000
C       55.48220000      52.54020000      50.72360000
C       44.51790000      47.45960000      50.72380000
C       43.76180000      48.65650000      47.00080000
C       46.99990000      43.76250000      48.65490000
C       48.65490000      47.00160000      43.76180000
C       56.23760000      51.34450000      47.00000000
C       56.23810000      48.65480000      52.99870000
C       43.76250000      51.34410000      53.00050000
C       52.99980000      56.23790000      48.65650000
C       52.99940000      43.76170000      51.34290000
C       47.00090000      56.23780000      51.34570000
C       51.34380000      53.00060000      43.76250000
C       51.34480000      46.99920000      56.23720000
C       48.65650000      52.99860000      56.23850000
C       43.76240000      48.65550000      53.00000000
C       47.00020000      43.76210000      51.34350000
C       48.65620000      46.99940000      56.23750000
C       56.23820000      51.34350000      52.99920000
C       56.23750000      48.65590000      46.99950000
C       43.76190000      51.34520000      47.00130000
C       53.00010000      56.23750000      51.34510000
C       52.99910000      43.76220000      48.65430000
C       47.00060000      56.23830000      48.65710000
C       51.34510000      52.99840000      56.23820000
C       51.34350000      47.00140000      43.76150000
C       48.65520000      53.00080000      43.76280000
C       52.95250000      44.98110000      52.04370000
C       52.04450000      52.95340000      44.98200000
C       44.98210000      52.04460000      52.95350000
C       47.04790000      55.01810000      52.04610000
C       47.04690000      44.98220000      47.95460000
C       52.95260000      55.01860000      47.95570000
C       47.95440000      47.04840000      44.98130000
C       47.95580000      52.95180000      55.01910000
C       52.04520000      47.04640000      55.01760000
C       55.01860000      47.95430000      52.95170000
C       55.01810000      52.04510000      47.04730000
C       44.98120000      47.95590000      47.04760000
C       52.95210000      44.98190000      47.95390000
C       52.04560000      52.95160000      55.01870000
C       44.98140000      52.04570000      47.04830000
C       47.04750000      55.01890000      47.95630000
C       47.04740000      44.98140000      52.04430000
C       52.95310000      55.01780000      52.04540000
C       47.95550000      47.04660000      55.01800000
C       47.95480000      52.95360000      44.98240000
C       52.04420000      47.04820000      44.98090000
C       55.01790000      47.95540000      47.04650000
C       55.01880000      52.04410000      52.95240000
C       44.98190000      47.95490000      52.95270000
C       43.22080000      49.27190000      48.16780000
C       48.16670000      43.22130000      49.27010000
C       49.27030000      48.16840000      43.22080000
C       56.77880000      50.72880000      48.16660000
C       56.77910000      49.27050000      51.83200000
C       43.22130000      50.72890000      51.83370000
C       51.83310000      56.77900000      49.27220000
C       51.83250000      43.22080000      50.72740000
C       48.16760000      56.77890000      50.73020000
C       50.72820000      51.83400000      43.22130000
C       50.72950000      48.16590000      56.77850000
C       49.27200000      51.83170000      56.77930000
C       43.22120000      49.27120000      51.83340000
C       48.16690000      43.22100000      50.72780000
C       49.27180000      48.16600000      56.77870000
C       56.77920000      50.72810000      51.83220000
C       56.77870000      49.27110000      48.16630000
C       43.22090000      50.72950000      48.16800000
C       51.83330000      56.77870000      50.72990000
C       51.83240000      43.22110000      49.26980000
C       48.16750000      56.77920000      49.27260000
C       50.72970000      51.83160000      56.77920000
C       50.72800000      48.16830000      43.22070000
C       49.27050000      51.83410000      43.22150000
C       56.46830000      51.45870000      49.28690000
C       49.28780000      56.46810000      51.46020000
C       51.45960000      49.28610000      56.46800000
C       43.53150000      48.54150000      49.28770000
C       43.53180000      51.45920000      50.71370000
C       56.46830000      48.54060000      50.71180000
C       50.71250000      43.53140000      51.45770000
C       50.71290000      56.46850000      48.54210000
C       49.28680000      43.53200000      48.54000000
C       48.54180000      50.71160000      56.46860000
C       48.54030000      49.28850000      43.53170000
C       51.45830000      50.71380000      43.53170000
C       56.46850000      51.45850000      50.71230000
C       49.28750000      56.46860000      48.54230000
C       51.45820000      49.28840000      43.53140000
C       43.53170000      48.54130000      50.71310000
C       43.53170000      51.45940000      49.28820000
C       56.46820000      48.54080000      49.28630000
C       50.71220000      43.53190000      48.53980000
C       50.71320000      56.46800000      51.46000000
C       49.28710000      43.53150000      51.45790000
C       48.54040000      50.71390000      43.53200000
C       48.54170000      49.28620000      56.46830000
C       51.45970000      50.71150000      56.46830000
C       56.41140000      50.70190000      45.74610000
C       45.74710000      56.41190000      50.70310000
C       50.70200000      45.74550000      56.41100000
C       43.58770000      49.29960000      45.74720000
C       43.58870000      50.70110000      54.25420000
C       56.41220000      49.29740000      54.25260000
C       54.25310000      43.58790000      50.69990000
C       54.25360000      56.41170000      49.29920000
C       45.74620000      43.58860000      49.29780000
C       49.29940000      54.25230000      56.41260000
C       49.29760000      45.74780000      43.58750000
C       50.70110000      54.25450000      43.58890000
C       56.41230000      50.70040000      54.25280000
C       45.74690000      56.41210000      49.30010000
C       50.70060000      45.74770000      43.58740000
C       43.58860000      49.29810000      54.25390000
C       43.58780000      50.70260000      45.74740000
C       56.41130000      49.29890000      45.74580000
C       54.25290000      43.58810000      49.29690000
C       54.25380000      56.41140000      50.70220000
C       45.74640000      43.58830000      50.70080000
C       49.29800000      54.25450000      43.58900000
C       49.29890000      45.74550000      56.41110000
C       50.70240000      54.25220000      56.41250000
C       54.81570000      47.03510000      51.87810000
C       51.87900000      54.81610000      47.03640000
C       47.03630000      51.87840000      54.81630000
C       45.18470000      52.96420000      51.88010000
C       45.18400000      47.03630000      48.12090000
C       54.81560000      52.96440000      48.12090000
C       48.12030000      45.18500000      47.03500000
C       48.12150000      54.81520000      52.96540000
C       51.87910000      45.18370000      52.96320000
C       52.96470000      48.11990000      54.81500000
C       52.96390000      51.87980000      45.18440000
C       47.03510000      48.12190000      45.18430000
C       54.81530000      47.03580000      48.11990000
C       51.87970000      54.81500000      52.96500000
C       47.03530000      51.88010000      45.18500000
C       45.18430000      52.96490000      48.12190000
C       45.18440000      47.03560000      51.87910000
C       54.81600000      52.96370000      51.87910000
C       48.12100000      45.18390000      52.96360000
C       48.12090000      54.81630000      47.03680000
C       51.87850000      45.18480000      47.03460000
C       52.96370000      48.12160000      45.18370000
C       52.96490000      51.87810000      54.81570000
C       47.03610000      48.12020000      54.81560000
C       45.69380000      45.65540000      51.98860000
C       51.98830000      45.69450000      45.65450000
C       45.65510000      51.99000000      45.69470000
C       54.30660000      54.34390000      51.98930000
C       54.30570000      45.65560000      48.00980000
C       45.69390000      54.34510000      48.01230000
C       48.01080000      54.30700000      45.65650000
C       48.01130000      45.69320000      54.34400000
C       51.98970000      54.30530000      54.34510000
C       54.34400000      48.01160000      45.69300000
C       54.34510000      51.98800000      54.30600000
C       45.65580000      48.01050000      54.30630000
C       45.69340000      45.65610000      48.01070000
C       51.98920000      45.69300000      54.34350000
C       45.65600000      51.98840000      54.30700000
C       54.30620000      54.34460000      48.01140000
C       54.30610000      45.65490000      51.98770000
C       45.69430000      54.34440000      51.99020000
C       48.01170000      54.30550000      54.34550000
C       48.01030000      45.69470000      45.65490000
C       51.98870000      54.30680000      45.65600000
C       54.34490000      48.01000000      54.30530000
C       54.34420000      51.98950000      45.69370000
C       45.65490000      48.01200000      45.69400000
C       45.35940000      53.63350000      45.42160000
C       45.42060000      45.35930000      53.63210000
C       53.63170000      45.42110000      45.35850000
C       54.63960000      46.36810000      45.41930000
C       54.64100000      53.63140000      54.57970000
C       45.36000000      46.36700000      54.57940000
C       54.58020000      54.63940000      53.63280000
C       54.57890000      45.36010000      46.36630000
C       45.42040000      54.64120000      46.36890000
C       46.36730000      54.58050000      45.36090000
C       46.36780000      45.41990000      54.63990000
C       53.63320000      54.57850000      54.64080000
C       45.36040000      53.63190000      54.58070000
C       45.41980000      45.36060000      46.36720000
C       53.63270000      45.41950000      54.63910000
C       54.64060000      46.36650000      54.57840000
C       54.64000000      53.63300000      45.42060000
C       45.35900000      46.36860000      45.42030000
C       54.57940000      54.64070000      46.36790000
C       54.57960000      45.35880000      53.63110000
C       45.42110000      54.63990000      53.63370000
C       46.36830000      54.57890000      54.64150000
C       46.36680000      45.42150000      45.35920000
C       53.63220000      54.58010000      45.36010000
C       54.92420000      44.87450000      49.25860000
C       49.25980000      54.92550000      44.87560000
C       44.87510000      49.25950000      54.92500000
C       45.07560000      55.12570000      49.26150000
C       45.07520000      44.87480000      50.73950000
C       54.92490000      55.12490000      50.74030000
C       50.73910000      45.07630000      44.87370000
C       50.74070000      54.92360000      55.12610000
C       49.26030000      45.07460000      55.12450000
C       55.12590000      50.73880000      54.92420000
C       55.12480000      49.26070000      45.07480000
C       44.87420000      50.74110000      45.07610000
C       54.92440000      44.87430000      50.73850000
C       49.26090000      54.92370000      55.12630000
C       44.87410000      49.26120000      45.07580000
C       45.07580000      55.12550000      50.74140000
C       45.07510000      44.87510000      49.25970000
C       54.92480000      55.12520000      49.26050000
C       50.74020000      45.07450000      55.12440000
C       50.73970000      54.92540000      44.87550000
C       49.25930000      45.07640000      44.87390000
C       55.12490000      50.74050000      45.07500000
C       55.12580000      49.25890000      54.92390000
C       44.87520000      50.73930000      54.92520000
