240
Lattice="100.0 0.0 0.0 0.0 100.0 0.0 0.0 0.0 100.0" Properties=species:S:1:pos:R:3 name=C-97510-5923-1345 pressure=63.8018220835217 energy=-1663.38566773973 spacegroup=Th times_found=1 pbc="T T T"
C       53.00000000      51.34450000      43.76240000
C       51.34420000      43.76210000      52.99950000
C       43.76200000      52.99950000      51.34400000
C       47.00000000      51.34410000      56.23770000
C       47.00080000      48.65580000      43.76190000
C       52.99920000      48.65550000      56.23800000
C       48.65590000      43.76220000      47.00010000
C       48.65540000      56.23780000      52.99970000
C       51.34450000      56.23800000      47.00070000
C       56.23790000      52.99970000      48.65620000
C       56.23780000      47.00040000      51.34470000
C       43.76230000      47.00040000      48.65520000
C       53.00000000      48.65590000      43.76230000
C       51.34400000      56.23780000      52.99990000
C       43.76210000      47.00030000      51.34380000
C       47.00000000      48.65550000      56.23760000
C       47.00080000      51.34450000      43.76200000
C       52.99920000      51.34420000      56.23810000
C       48.65580000      56.23790000      47.00050000
C       48.65550000      43.76210000      52.99940000
C       51.34460000      43.76220000      47.00030000
C       56.23800000      47.00050000      48.65600000
C       56.23770000      52.99960000      51.34480000
C       43.76220000      52.99960000      48.65530000
C       52.95230000      47.95500000      55.01850000
C       47.95490000      55.01820000      52.95260000
C       55.01840000      52.95270000      47.95560000
C       47.04780000      47.95520000      44.98140000
C       47.04710000      52.04470000      55.01820000
C       52.95290000      52.04500000      44.98190000
C       52.04500000      55.01850000      47.04770000
C       52.04470000      44.98160000      52.95260000
C       47.95540000      44.98170000      47.04710000
C       44.98150000      52.95250000      52.04460000
C       44.98180000      47.04740000      47.95470000
C       55.01820000      47.04740000      52.04510000
C       52.95220000      52.04480000      55.01860000
C       47.95500000      44.98160000      52.95230000
C       55.01850000      47.04750000      47.95540000
C       47.04780000      52.04500000      44.98150000
C       47.04710000      47.95500000      55.01810000
C       52.95290000      47.95530000      44.98180000
C       52.04510000      44.98180000      47.04740000
C       52.04460000      55.01830000      52.95290000
C       47.95530000      55.01840000      47.04740000
C       44.98150000      47.04730000      52.04450000
C       44.98180000      52.95260000      47.95490000
C       55.01820000      52.95260000      52.04530000
C       50.71230000      48.54090000      56.46830000
C       48.54090000      56.46830000      50.71280000
C       56.46840000      50.71280000      48.54150000
C       49.28770000      48.54120000      43.53160000
C       49.28680000      51.45880000      56.46830000
C       50.71310000      51.45910000      43.53180000
C       51.45890000      56.46840000      49.28760000
C       51.45900000      43.53170000      50.71260000
C       48.54120000      43.53170000      49.28700000
C       43.53160000      50.71260000      51.45850000
C       43.53180000      49.28730000      48.54060000
C       56.46820000      49.28730000      51.45940000
C       50.71230000      51.45880000      56.46840000
C       48.54110000      43.53170000      50.71240000
C       56.46840000      49.28740000      48.54150000
C       49.28770000      51.45910000      43.53170000
C       49.28690000      48.54090000      56.46820000
C       50.71320000      48.54120000      43.53170000
C       51.45910000      43.53170000      49.28720000
C       51.45880000      56.46830000      50.71300000
C       48.54100000      56.46830000      49.28740000
C       43.53160000      49.28720000      51.45850000
C       43.53180000      50.71270000      48.54060000
C       56.46820000      50.71270000      51.45940000
C       43.58830000      45.74660000      49.29790000
C       45.74710000      49.29860000      43.58790000
C       49.29880000      43.58830000      45.74640000
C       56.41180000      45.74670000      50.70180000
C       56.41180000      54.25350000      49.29900000
C       43.58810000      54.25330000      50.70120000
C       54.25290000      49.29830000      56.41200000
C       54.25380000      50.70180000      43.58850000
C       45.74620000      50.70130000      56.41150000
C       50.70130000      43.58810000      54.25320000
C       50.70170000      56.41190000      45.74690000
C       49.29810000      56.41170000      54.25350000
C       43.58820000      54.25330000      49.29820000
C       45.74710000      50.70170000      43.58790000
C       49.29870000      56.41190000      45.74680000
C       56.41170000      54.25340000      50.70210000
C       56.41190000      45.74670000      49.29880000
C       43.58820000      45.74650000      50.70100000
C       54.25290000      50.70140000      56.41210000
C       54.25380000      49.29870000      43.58850000
C       45.74620000      49.29830000      56.41150000
C       50.70120000      56.41170000      54.25360000
C       50.70190000      43.58830000      45.74650000
C       49.29830000      43.58810000      54.25310000
C       51.83240000      49.27100000      56.77900000
C       49.27100000      56.77890000      51.83300000
C       56.77900000      51.83290000      49.27170000
C       48.16760000      49.27130000      43.22090000
C       48.16670000      50.72860000      56.77880000
C       51.83330000      50.72900000      43.22120000
C       50.72890000      56.77900000      48.16740000
C       50.72880000      43.22100000      51.83270000
C       49.27140000      43.22110000      48.16690000
C       43.22100000      51.83270000      50.72840000
C       43.22110000      48.16710000      49.27070000
C       56.77890000      48.16720000      50.72920000
C       51.83240000      50.72870000      56.77910000
C       49.27110000      43.22100000      51.83260000
C       56.77900000      48.16730000      49.27160000
C       48.16760000      50.72900000      43.22090000
C       48.16670000      49.27100000      56.77880000
C       51.83330000      49.27140000      43.22120000
C       50.72900000      43.22110000      48.16700000
C       50.72860000      56.77890000      51.83310000
C       49.27120000      56.77900000      48.16730000
C       43.22100000      48.16710000      50.72830000
C       43.22110000      51.83280000      49.27080000
C       56.77890000      51.83290000      50.72940000
C       47.03580000      54.81560000      48.12080000
C       54.81580000      48.12100000      47.03600000
C       48.12060000      47.03550000      54.81540000
C       52.96410000      54.81560000      51.87940000
C       52.96450000      45.18450000      48.12100000
C       47.03560000      45.18430000      51.87880000
C       45.18420000      48.12080000      52.96390000
C       45.18460000      51.87910000      47.03540000
C       54.81540000      51.87910000      52.96470000
C       51.87940000      47.03590000      45.18440000
C       51.87870000      52.96420000      54.81590000
C       48.12120000      52.96440000      45.18430000
C       47.03590000      45.18440000      48.12060000
C       54.81580000      51.87920000      47.03610000
C       48.12060000      52.96410000      54.81560000
C       52.96420000      45.18430000      51.87920000
C       52.96440000      54.81570000      48.12120000
C       47.03550000      54.81550000      51.87900000
C       45.18420000      51.87900000      52.96400000
C       45.18460000      48.12090000      47.03530000
C       54.81540000      48.12090000      52.96460000
C       51.87940000      52.96450000      45.18460000
C       51.87880000      47.03560000      54.81570000
C       48.12130000      47.03580000      45.18410000
C       54.34470000      45.69400000      48.01120000
C       45.69360000      48.01090000      54.34420000
C       48.01130000      54.34460000      45.69380000
C       45.65540000      45.69380000      51.98860000
C       45.65560000      54.30610000      48.01090000
C       54.34430000      54.30610000      51.98940000
C       54.30650000      48.01120000      45.65570000
C       54.30580000      51.98890000      54.34490000
C       45.69410000      51.98900000      45.65520000
C       51.98860000      54.34440000      54.30640000
C       51.98930000      45.65560000      45.69390000
C       48.01080000      45.65530000      54.30590000
C       54.34460000      54.30630000      48.01150000
C       45.69350000      51.98880000      54.34430000
C       48.01140000      45.65560000      45.69360000
C       45.65530000      54.30600000      51.98880000
C       45.65570000      45.69390000      48.01060000
C       54.34440000      45.69380000      51.98910000
C       54.30640000      51.98910000      45.65580000
C       54.30590000      48.01100000      54.34470000
C       45.69420000      48.01110000      45.65510000
C       51.98870000      45.65540000      54.30620000
C       51.98920000      54.34470000      45.69410000
C       48.01070000      54.34440000      54.30610000
C       45.42080000      46.36760000      45.35930000
C       46.36790000      45.35980000      45.42010000
C       45.36000000      45.42050000      46.36710000
C       54.57920000      46.36750000      54.64050000
C       54.57980000      53.63260000      45.36010000
C       45.42010000      53.63220000      54.64010000
C       53.63220000      45.35960000      54.57960000
C       53.63270000      54.64050000      45.42090000
C       46.36720000      54.64010000      54.57940000
C       54.64010000      45.42040000      53.63260000
C       54.64050000      54.57970000      46.36800000
C       45.35940000      54.57940000      53.63220000
C       45.42080000      53.63250000      45.35950000
C       46.36780000      54.64040000      45.42040000
C       45.35990000      54.57960000      46.36740000
C       54.57920000      53.63230000      54.64070000
C       54.57990000      46.36770000      45.35990000
C       45.42020000      46.36740000      54.63990000
C       53.63210000      54.64020000      54.57990000
C       53.63280000      45.35980000      45.42060000
C       46.36730000      45.35950000      54.57910000
C       54.64000000      54.57950000      53.63290000
C       54.64060000      45.42060000      46.36780000
C       45.35950000      45.42030000      53.63200000
C       50.72410000      47.45960000      44.51790000
C       47.45940000      44.51790000      50.72340000
C       44.51810000      50.72370000      47.45900000
C       49.27600000      47.45920000      55.48190000
C       49.27670000      52.54070000      44.51800000
C       50.72330000      52.54050000      55.48220000
C       52.54070000      44.51800000      49.27630000
C       52.54050000      55.48200000      50.72400000
C       47.45940000      55.48200000      49.27630000
C       55.48180000      50.72370000      52.54100000
C       55.48220000      49.27640000      47.45980000
C       44.51780000      49.27620000      52.54020000
C       50.72400000      52.54080000      44.51810000
C       47.45930000      55.48200000      50.72370000
C       44.51810000      49.27630000      47.45900000
C       49.27590000      52.54040000      55.48210000
C       49.27670000      47.45950000      44.51780000
C       50.72330000      47.45930000      55.48200000
C       52.54060000      55.48210000      49.27660000
C       52.54060000      44.51800000      50.72370000
C       47.45950000      44.51800000      49.27600000
C       55.48180000      49.27630000      52.54090000
C       55.48220000      50.72380000      47.45980000
C       44.51780000      50.72350000      52.54030000
C       45.07510000      49.25990000      55.12500000
C       49.26030000      55.12550000      45.07550000
C       55.12540000      45.07550000      49.26030000
C       54.92490000      49.26030000      44.87500000
C       54.92420000      50.73980000      55.12570000
C       45.07580000      50.74000000      44.87430000
C       50.73950000      55.12520000      54.92480000
C       50.74030000      44.87480000      45.07530000
C       49.25980000      44.87450000      54.92440000
C       44.87470000      45.07540000      50.73950000
C       44.87470000      54.92450000      49.25990000
C       55.12520000      54.92460000      50.74040000
C       45.07510000      50.73970000      55.12500000
C       49.26050000      44.87480000      45.07520000
C       55.12530000      54.92460000      49.26060000
C       54.92490000      50.74010000      44.87500000
C       54.92420000      49.26000000      55.12560000
C       45.07580000      49.26020000      44.87430000
C       50.73970000      44.87450000      54.92450000
C       50.74020000      55.12550000      45.07560000
C       49.25970000      55.12520000      54.92470000
C       44.87460000      54.92450000      50.73970000
C       44.87480000      45.07540000      49.25960000
C       55.12530000      45.07550000      50.74010000
