240
Lattice="100.0 0.0 0.0 0.0 100.0 0.0 0.0 0.0 100.0" Properties=species:S:1:pos:R:3 name=C-97510-5923-47 pressure=0.0175198040533513 energy=-1780.26174708488 spacegroup=C1 times_found=1 pbc="T T T"
C       44.55780000      48.65350000      55.41310000
C       48.65940000      55.41180000      44.60530000
C       55.41400000      44.60330000      48.67050000
C       55.19730000      51.47840000      55.27340000
C       44.57700000      51.33290000      44.57670000
C       55.42110000      48.65910000      44.57000000
C       51.34140000      44.58060000      44.58170000
C       48.63220000      44.54890000      55.41760000
C       51.37380000      55.48630000      55.45340000
C       44.54040000      55.41320000      48.65760000
C       55.54240000      55.47000000      51.29580000
C       44.56940000      44.57200000      51.32800000
C       44.57950000      48.65480000      44.57410000
C       48.70300000      55.39250000      55.36540000
C       55.40590000      44.61370000      51.34900000
C       55.42560000      51.33600000      44.55460000
C       44.57650000      51.33250000      55.40540000
C       55.29240000      48.75880000      55.37270000
C       51.31450000      44.54430000      55.43280000
C       48.66350000      44.57840000      44.57770000
C       51.33530000      55.39980000      44.63470000
C       44.53590000      55.41370000      51.33890000
C       55.40860000      55.43100000      48.65230000
C       44.57490000      44.57400000      48.64990000
C       47.55870000      54.80580000      54.80150000
C       54.80460000      54.80580000      47.55370000
C       54.75300000      47.59460000      54.79420000
C       52.42550000      45.15930000      54.83890000
C       47.55280000      45.18250000      45.18030000
C       52.43970000      54.78400000      45.23410000
C       45.18150000      45.18070000      47.54280000
C       54.79750000      45.22340000      52.45330000
C       45.14040000      54.81160000      52.45090000
C       45.18370000      52.44020000      54.79950000
C       54.82250000      52.44360000      45.16340000
C       45.18480000      47.54650000      45.17980000
C       47.54240000      54.80560000      45.19480000
C       55.07550000      54.85740000      52.43850000
C       54.81640000      47.55600000      45.18490000
C       52.44860000      45.18770000      45.18790000
C       47.52260000      45.15650000      54.81390000
C       52.57500000      54.93630000      55.17510000
C       45.17030000      45.17570000      52.43980000
C       54.81130000      45.20520000      47.55890000
C       45.14740000      54.81020000      47.54730000
C       45.17860000      52.44260000      45.18360000
C       54.87580000      52.64900000      54.58930000
C       45.15800000      47.53930000      54.81150000
C       43.76360000      45.55480000      50.66520000
C       45.56160000      50.67150000      43.77140000
C       50.67840000      43.77590000      45.56570000
C       56.37150000      54.50630000      50.59240000
C       43.73710000      54.42660000      49.31880000
C       56.22360000      45.58510000      49.33060000
C       54.43540000      49.31910000      43.76450000
C       45.54320000      49.31610000      56.21670000
C       54.23580000      50.81710000      56.10230000
C       49.31840000      56.20050000      45.60560000
C       50.73720000      56.22150000      54.36750000
C       49.30340000      43.75340000      54.43050000
C       43.76670000      45.55570000      49.31270000
C       45.55470000      50.66920000      56.21310000
C       50.65670000      43.75340000      54.43520000
C       56.28750000      54.47630000      49.24890000
C       43.73610000      54.42650000      50.67180000
C       56.21960000      45.58980000      50.68350000
C       54.30370000      49.42440000      56.13750000
C       45.56310000      49.31900000      43.77020000
C       54.43660000      50.67160000      43.75690000
C       49.35900000      56.17430000      54.37660000
C       50.66960000      56.19170000      45.62690000
C       49.32590000      43.77470000      45.56310000
C       56.37210000      50.78190000      48.12830000
C       50.70810000      48.10960000      56.34380000
C       48.11740000      56.29000000      50.75980000
C       43.66660000      49.22800000      48.15400000
C       56.33580000      49.26760000      51.81730000
C       43.66110000      50.75260000      51.82910000
C       49.22980000      51.83910000      56.32210000
C       50.76090000      51.83330000      43.68300000
C       49.23650000      48.16030000      43.67540000
C       51.82880000      43.69530000      50.76700000
C       48.15700000      43.67750000      49.23170000
C       51.83440000      56.20660000      49.32930000
C       56.41190000      50.79370000      51.79680000
C       50.76290000      48.16080000      43.67640000
C       48.11910000      56.28850000      49.24680000
C       43.66100000      49.22620000      51.82980000
C       56.35290000      49.25220000      48.14320000
C       43.66210000      50.75400000      48.15460000
C       49.23400000      51.83530000      43.68180000
C       50.71160000      51.84230000      56.37000000
C       49.19050000      48.11810000      56.34000000
C       51.83280000      43.69320000      49.24060000
C       48.15360000      43.67590000      50.75700000
C       51.87120000      56.20110000      50.84050000
C       52.50910000      46.47790000      55.41710000
C       46.46410000      55.37920000      52.54470000
C       55.40450000      52.54190000      46.47570000
C       47.46400000      53.48760000      55.37390000
C       52.53330000      53.47670000      44.63870000
C       47.46440000      46.50300000      44.61240000
C       53.47530000      44.64970000      52.54540000
C       46.50340000      44.61500000      47.45650000
C       53.46550000      55.31580000      47.51910000
C       44.61430000      47.45840000      46.49940000
C       55.34700000      47.51070000      53.48110000
C       44.60740000      52.52550000      53.48140000
C       52.53590000      46.50810000      44.62070000
C       46.47090000      55.37170000      47.46350000
C       55.63110000      52.62850000      53.38620000
C       47.45730000      53.48930000      44.61730000
C       52.71070000      53.55830000      55.71530000
C       47.42470000      46.47360000      55.39150000
C       53.49040000      44.63530000      47.46990000
C       46.49190000      44.60910000      52.52760000
C       53.70790000      55.25370000      52.75940000
C       44.59300000      47.45180000      53.48900000
C       55.39110000      47.47510000      46.50310000
C       44.60350000      52.52930000      46.50260000
C       50.70520000      54.42140000      56.17140000
C       54.42170000      56.14810000      50.74610000
C       56.08470000      50.74790000      54.39500000
C       49.28780000      45.52510000      56.23410000
C       50.67860000      45.56310000      43.77500000
C       49.32480000      54.43340000      43.79630000
C       45.55530000      43.76880000      50.66550000
C       54.42970000      43.80030000      49.33440000
C       45.52410000      56.21490000      49.32380000
C       43.75690000      49.31670000      54.42790000
C       56.23600000      49.32490000      45.54380000
C       43.76920000      50.66840000      45.55670000
C       50.67670000      54.43040000      43.80820000
C       54.40250000      56.16830000      49.38120000
C       56.24010000      50.67750000      45.53370000
C       49.32610000      45.56210000      43.77260000
C       50.64230000      45.52090000      56.24110000
C       49.35120000      54.41420000      56.18240000
C       45.55820000      43.76940000      49.31320000
C       54.42510000      43.80650000      50.68680000
C       45.52230000      56.21540000      50.67730000
C       43.77070000      49.31600000      45.55580000
C       56.12220000      49.40120000      54.41160000
C       43.76600000      50.66920000      54.42600000
C       51.74390000      49.18150000      56.34020000
C       49.18920000      56.28660000      51.80970000
C       56.41130000      51.86690000      49.18800000
C       48.14520000      50.74960000      56.32020000
C       51.83670000      50.75950000      43.67410000
C       48.16130000      49.23420000      43.67550000
C       50.75290000      43.68230000      51.83790000
C       49.23410000      43.68010000      48.16050000
C       50.74060000      56.24120000      48.23240000
C       43.66610000      48.15340000      49.22800000
C       56.33510000      48.18630000      50.75630000
C       43.65380000      51.82750000      50.75580000
C       51.83680000      49.23430000      43.67470000
C       49.21260000      56.26910000      48.20020000
C       56.46890000      51.88350000      50.70890000
C       48.15980000      50.76100000      43.67740000
C       51.70920000      50.71020000      56.41590000
C       48.13270000      49.21380000      56.32630000
C       50.76090000      43.68500000      48.16390000
C       49.22560000      43.67480000      51.83330000
C       50.73080000      56.32330000      51.82000000
C       43.66300000      48.15230000      50.75500000
C       56.34260000      48.18150000      49.22660000
C       43.65350000      51.82800000      49.22940000
C       53.75060000      53.42470000      54.71350000
C       53.35340000      54.70860000      54.00420000
C       55.73670000      53.59210000      52.47640000
C       46.47500000      47.44140000      55.38500000
C       53.49320000      47.46610000      44.62140000
C       46.50020000      52.53130000      44.61600000
C       47.44550000      44.60100000      53.48840000
C       52.53520000      44.62400000      46.50980000
C       47.44240000      55.36250000      46.51910000
C       44.59870000      46.49540000      52.52950000
C       55.38660000      46.52280000      47.46590000
C       44.58590000      53.48820000      47.45890000
C       53.49690000      52.52680000      44.61070000
C       52.50930000      55.31940000      46.56780000
C       55.40950000      53.50220000      47.43200000
C       46.50630000      47.46010000      44.61330000
C       53.44720000      47.45510000      55.38530000
C       46.50280000      52.52980000      55.37050000
C       47.46320000      44.61590000      46.50110000
C       52.51880000      44.61750000      53.50700000
C       47.43350000      55.37430000      53.49050000
C       44.61260000      46.50060000      47.45630000
C       55.37140000      46.54310000      52.53230000
C       44.58500000      53.48690000      52.52900000
C       43.86330000      51.31730000      46.83040000
C       51.32710000      46.83680000      43.87530000
C       46.82680000      43.87020000      51.31700000
C       56.14190000      48.68290000      46.82270000
C       43.85470000      48.66340000      53.15570000
C       56.21410000      51.36400000      53.11140000
C       48.67130000      53.16050000      43.88160000
C       51.40790000      53.15250000      56.20630000
C       48.63050000      46.79670000      56.14110000
C       53.18620000      56.00100000      51.50200000
C       46.79680000      56.11040000      48.67500000
C       53.15830000      43.89500000      48.68090000
C       43.86470000      51.31530000      53.15290000
C       51.29210000      46.79140000      56.15520000
C       46.83270000      43.87200000      48.66610000
C       56.08170000      48.72590000      53.14610000
C       43.86840000      48.66620000      46.82900000
C       56.15770000      51.33730000      46.80320000
C       48.67130000      53.15720000      56.10780000
C       51.32330000      53.15520000      43.89360000
C       48.67460000      46.83480000      43.87120000
C       53.13860000      56.02800000      48.74690000
C       46.79180000      56.11290000      51.33010000
C       53.15040000      43.90530000      51.33310000
C       48.65700000      56.09160000      46.86890000
C       56.13300000      46.85550000      48.67280000
C       46.80970000      48.65540000      56.12460000
C       51.32650000      43.87950000      46.83990000
C       48.65780000      43.86230000      53.15690000
C       51.23060000      56.36700000      53.09120000
C       43.84270000      53.15420000      48.66710000
C       56.38150000      53.23640000      51.24890000
C       43.85980000      46.82710000      51.31740000
C       52.96140000      51.23780000      56.35330000
C       46.83370000      51.32260000      43.87300000
C       53.16210000      48.67150000      43.87220000
C       48.65980000      56.08850000      53.13230000
C       56.12420000      46.86630000      51.32820000
C       46.83670000      48.67020000      43.87110000
C       51.31320000      43.87060000      53.16560000
C       48.67330000      43.87490000      46.83460000
C       51.30200000      56.05830000      46.90830000
C       43.84250000      53.15350000      51.32040000
C       56.19060000      53.18850000      48.61740000
C       43.86640000      46.82940000      48.66440000
C       53.16350000      51.32210000      43.86340000
C       46.83130000      51.31730000      56.11480000
C       53.08100000      48.68600000      56.09890000
