240
Lattice="100.0 0.0 0.0 0.0 100.0 0.0 0.0 0.0 100.0" Properties=species:S:1:pos:R:3 name=C-97510-5923-604 pressure=28.238961439806 spacegroup=Td times_found=1 energy=-1726.24839432314 pbc="T T T"
C       48.34190000      57.35180000      49.34110000
C       49.34130000      48.34090000      57.35160000
C       57.35130000      49.33990000      48.34020000
C       51.66010000      57.35140000      50.65910000
C       48.34000000      42.64860000      50.65920000
C       51.65800000      42.64820000      49.34060000
C       50.65820000      48.34090000      42.64830000
C       49.34040000      51.65920000      42.64850000
C       50.66000000      51.65890000      57.35150000
C       42.64850000      49.34190000      51.65970000
C       57.35180000      50.65810000      51.65840000
C       42.64830000      50.66010000      48.34160000
C       49.34170000      57.35170000      48.34110000
C       57.35130000      48.33990000      49.34020000
C       48.34150000      49.34100000      57.35170000
C       50.66030000      57.35150000      51.65910000
C       50.65800000      42.64830000      48.34080000
C       49.34000000      42.64850000      51.65900000
C       42.64820000      48.34190000      50.65980000
C       42.64860000      51.66010000      49.34160000
C       57.35190000      51.65800000      50.65850000
C       51.65830000      49.34070000      42.64820000
C       51.65980000      50.65880000      57.35140000
C       48.34030000      50.65940000      42.64860000
C       47.39440000      51.60820000      43.27040000
C       43.27000000      47.39570000      51.60830000
C       51.60660000      43.27000000      47.39460000
C       52.60600000      51.60730000      56.72960000
C       47.39520000      48.39250000      56.73000000
C       52.60430000      48.39200000      43.26990000
C       56.72930000      47.39390000      48.39160000
C       43.27040000      52.60610000      48.39290000
C       56.73030000      52.60430000      51.60710000
C       48.39160000      43.27040000      52.60530000
C       51.60890000      56.72960000      52.60510000
C       48.39290000      56.73010000      47.39500000
C       43.27020000      51.60870000      47.39550000
C       51.60670000      47.39470000      43.27000000
C       47.39400000      43.27050000      51.60790000
C       56.73030000      51.60680000      52.60460000
C       56.72940000      48.39140000      47.39420000
C       43.27020000      48.39320000      52.60580000
C       48.39250000      47.39490000      56.72990000
C       48.39200000      52.60550000      43.27040000
C       51.60870000      52.60490000      56.72970000
C       52.60410000      43.26980000      48.39190000
C       52.60630000      56.72940000      51.60760000
C       47.39560000      56.73020000      48.39260000
C       54.99110000      55.96000000      49.26420000
C       49.26590000      54.99030000      55.96080000
C       55.96100000      49.26370000      54.98970000
C       45.01060000      55.96130000      50.73590000
C       54.98960000      44.03870000      50.73490000
C       45.00880000      44.04010000      49.26500000
C       50.73550000      54.99030000      44.03940000
C       49.26340000      45.00990000      44.03940000
C       50.73530000      45.00950000      55.96050000
C       44.03880000      49.26550000      45.01020000
C       55.96030000      50.73460000      45.00910000
C       44.03990000      50.73620000      54.99090000
C       49.26590000      55.96070000      54.99050000
C       55.96120000      54.98950000      49.26410000
C       54.99080000      49.26390000      55.96020000
C       50.73570000      55.96060000      45.00970000
C       50.73500000      44.03920000      54.99020000
C       49.26330000      44.03950000      45.00970000
C       44.04010000      54.99110000      50.73600000
C       44.03860000      45.01050000      49.26510000
C       55.96000000      45.00890000      50.73480000
C       45.00900000      49.26540000      44.03980000
C       45.01030000      50.73600000      55.96110000
C       54.98990000      50.73480000      44.03890000
C       46.49110000      51.41210000      44.30060000
C       44.29990000      46.49220000      51.41210000
C       51.41050000      44.30010000      46.49130000
C       53.50920000      51.41100000      55.69950000
C       46.49180000      48.58890000      55.70010000
C       53.50780000      48.58800000      44.29990000
C       55.69920000      46.49070000      48.58790000
C       44.30060000      53.50930000      48.58900000
C       55.70040000      53.50770000      51.41110000
C       48.58800000      44.30040000      53.50860000
C       51.41270000      55.69950000      53.50850000
C       48.58890000      55.70000000      46.49170000
C       44.30010000      51.41240000      46.49200000
C       51.41050000      46.49140000      44.30010000
C       46.49080000      44.30070000      51.41180000
C       55.70030000      51.41070000      53.50800000
C       55.69930000      48.58770000      46.49090000
C       44.30040000      48.58920000      53.50900000
C       48.58850000      46.49160000      55.69990000
C       48.58840000      53.50880000      44.30040000
C       51.41260000      53.50830000      55.69970000
C       53.50760000      44.29980000      48.58800000
C       53.50940000      55.69930000      51.41130000
C       46.49210000      55.70030000      48.58880000
C       56.07280000      46.68080000      52.32410000
C       52.32520000      56.07280000      46.68150000
C       46.68260000      52.32510000      56.07340000
C       43.92620000      46.68250000      47.67580000
C       56.07330000      53.31750000      47.67480000
C       43.92760000      53.31910000      52.32530000
C       47.67640000      56.07340000      53.31860000
C       52.32420000      43.92660000      53.31800000
C       47.67420000      43.92730000      46.68180000
C       53.31810000      52.32430000      43.92660000
C       46.68080000      47.67580000      43.92720000
C       53.31860000      47.67480000      56.07270000
C       52.32480000      46.68130000      56.07280000
C       46.68270000      56.07350000      52.32510000
C       56.07310000      52.32390000      46.68110000
C       47.67430000      46.68210000      43.92710000
C       47.67630000      53.31860000      56.07330000
C       52.32460000      53.31810000      43.92670000
C       53.31890000      56.07260000      47.67510000
C       53.31770000      43.92640000      52.32430000
C       46.68060000      43.92740000      47.67550000
C       43.92760000      52.32550000      53.31890000
C       43.92630000      47.67620000      46.68220000
C       56.07310000      47.67440000      53.31770000
C       49.96880000      46.15360000      56.02780000
C       56.02750000      49.96800000      46.15310000
C       46.15450000      56.02840000      49.96920000
C       50.03010000      46.15370000      43.97210000
C       49.96870000      53.84640000      43.97220000
C       50.03230000      53.84630000      56.02790000
C       43.97250000      49.96950000      53.84690000
C       56.02820000      50.03040000      53.84580000
C       43.97180000      50.03210000      46.15420000
C       53.84720000      56.02740000      50.03090000
C       46.15280000      43.97270000      50.03150000
C       53.84550000      43.97160000      49.96830000
C       56.02730000      46.15280000      49.96820000
C       46.15420000      49.96920000      56.02820000
C       49.96920000      56.02790000      46.15370000
C       43.97160000      46.15450000      50.03180000
C       43.97270000      53.84720000      49.96940000
C       56.02840000      53.84550000      50.03070000
C       53.84580000      49.96830000      43.97180000
C       53.84690000      50.03060000      56.02750000
C       46.15310000      50.03180000      43.97250000
C       50.03240000      56.02780000      53.84640000
C       50.03000000      43.97220000      46.15360000
C       49.96830000      43.97210000      53.84630000
C       56.42850000      52.90190000      49.00890000
C       49.01070000      56.42830000      52.90300000
C       52.90330000      49.00900000      56.42790000
C       43.57230000      52.90370000      50.99110000
C       56.42790000      47.09630000      50.98990000
C       43.57130000      47.09810000      49.01010000
C       50.99110000      56.42810000      47.09720000
C       49.00830000      43.57200000      47.09720000
C       50.98990000      43.57160000      52.90260000
C       47.09650000      49.01000000      43.57200000
C       52.90230000      50.99020000      43.57150000
C       47.09790000      50.99080000      56.42850000
C       49.01050000      52.90290000      56.42830000
C       52.90360000      56.42780000      49.00930000
C       56.42840000      49.00860000      52.90220000
C       50.99030000      52.90270000      43.57170000
C       50.99070000      47.09700000      56.42810000
C       49.00850000      47.09740000      43.57180000
C       47.09820000      56.42860000      50.99080000
C       47.09620000      43.57220000      49.00970000
C       52.90200000      43.57140000      50.99020000
C       43.57140000      49.01040000      47.09780000
C       43.57220000      50.99130000      52.90340000
C       56.42810000      50.98970000      47.09660000
C       55.65830000      47.81740000      54.65720000
C       54.65830000      55.65750000      47.81780000
C       47.81930000      54.65800000      55.65840000
C       44.34110000      47.81900000      45.34280000
C       55.65800000      52.18110000      45.34180000
C       44.34260000      52.18250000      54.65830000
C       45.34330000      55.65870000      52.18230000
C       54.65710000      44.34120000      52.18130000
C       45.34130000      44.34250000      47.81860000
C       52.18190000      54.65750000      44.34170000
C       47.81700000      45.34260000      44.34200000
C       52.18170000      45.34190000      55.65790000
C       54.65800000      47.81750000      55.65770000
C       47.81940000      55.65840000      54.65800000
C       55.65860000      54.65700000      47.81770000
C       45.34140000      47.81890000      44.34230000
C       45.34310000      52.18240000      55.65860000
C       54.65750000      52.18120000      44.34150000
C       52.18220000      55.65790000      45.34210000
C       52.18150000      44.34150000      54.65740000
C       47.81700000      44.34220000      45.34240000
C       44.34270000      54.65850000      52.18240000
C       44.34100000      45.34310000      47.81870000
C       55.65770000      45.34150000      52.18120000
C       45.39610000      52.50350000      46.43520000
C       46.43430000      45.39660000      52.50310000
C       52.50190000      46.43440000      45.39580000
C       54.60460000      52.50220000      53.56490000
C       45.39610000      47.49770000      53.56570000
C       54.60320000      47.49660000      46.43420000
C       53.56440000      45.39570000      47.49680000
C       46.43510000      54.60440000      47.49750000
C       53.56620000      54.60340000      52.50260000
C       47.49710000      46.43500000      54.60410000
C       52.50380000      53.56490000      54.60370000
C       47.49720000      53.56570000      45.39640000
C       46.43460000      52.50340000      45.39650000
C       52.50190000      45.39580000      46.43440000
C       45.39590000      46.43530000      52.50320000
C       53.56610000      52.50230000      54.60360000
C       53.56450000      47.49670000      45.39570000
C       46.43480000      47.49760000      54.60420000
C       47.49690000      45.39640000      53.56550000
C       47.49750000      54.60430000      46.43500000
C       52.50380000      54.60350000      53.56510000
C       54.60320000      46.43410000      47.49670000
C       54.60460000      53.56460000      52.50240000
C       45.39640000      53.56600000      47.49760000
C       51.70310000      42.94540000      50.69530000
C       50.69510000      51.70400000      42.94570000
C       42.94590000      50.69650000      51.70470000
C       48.29490000      42.94590000      49.30460000
C       51.70490000      57.05410000      49.30440000
C       48.29700000      57.05450000      50.69580000
C       49.30540000      51.70410000      57.05440000
C       50.69590000      48.29580000      57.05420000
C       49.30360000      48.29610000      42.94570000
C       57.05420000      50.69460000      48.29530000
C       42.94540000      49.30550000      48.29660000
C       57.05440000      49.30350000      51.70340000
C       50.69470000      42.94560000      51.70390000
C       42.94600000      51.70500000      50.69620000
C       51.70350000      50.69540000      42.94550000
C       49.30340000      42.94580000      48.29590000
C       49.30560000      57.05440000      51.70420000
C       50.69630000      57.05420000      48.29600000
C       57.05450000      51.70310000      49.30380000
C       57.05410000      48.29500000      50.69480000
C       42.94540000      48.29690000      49.30510000
C       48.29670000      50.69570000      57.05450000
C       48.29520000      49.30480000      42.94580000
C       51.70460000      49.30420000      57.05410000
