240
Lattice="100.0 0.0 0.0 0.0 100.0 0.0 0.0 0.0 100.0" Properties=species:S:1:pos:R:3 name=C-97510-5923-512 pressure=-25.0170448766678 spacegroup=C1 times_found=1 energy=-1742.17083595507 pbc="T T T"
C       48.27440000      56.98250000      48.44300000
C       47.94320000      48.12560000      56.69270000
C       56.58250000      48.25570000      48.34730000
C       51.56530000      43.20870000      48.53670000
C       51.76050000      56.89820000      51.57150000
C       48.60950000      43.39000000      52.17980000
C       51.55120000      51.04130000      56.55610000
C       52.03610000      48.38260000      43.57440000
C       48.42490000      51.29350000      43.30770000
C       43.68980000      52.17520000      48.77830000
C       43.21100000      48.25250000      51.02930000
C       56.25090000      52.03370000      50.96110000
C       48.88010000      56.86790000      51.94800000
C       48.39260000      48.39630000      43.41900000
C       56.21860000      48.47670000      51.13500000
C       51.48770000      43.42200000      52.22500000
C       51.15650000      56.96430000      48.06010000
C       48.70620000      43.46290000      48.54530000
C       52.08800000      51.25140000      43.43090000
C       51.58580000      48.18140000      56.87930000
C       47.95750000      50.96140000      56.36200000
C       43.42880000      51.83850000      51.60390000
C       43.43060000      48.61980000      48.20220000
C       56.59680000      51.93250000      48.13220000
C       54.55060000      48.62650000      54.44120000
C       54.29730000      55.11550000      47.66200000
C       47.97580000      54.27540000      54.90320000
C       44.58220000      51.03520000      54.84800000
C       45.02060000      48.98350000      45.04430000
C       55.61550000      51.41400000      44.79430000
C       45.51410000      45.34480000      48.50300000
C       45.74520000      54.98540000      52.24450000
C       54.48700000      45.33490000      51.77510000
C       51.50220000      44.89400000      55.69390000
C       52.05690000      54.51670000      44.97580000
C       48.49090000      45.28630000      45.22360000
C       55.51080000      48.28590000      45.02050000
C       54.88420000      55.45230000      50.90220000
C       48.24210000      54.46640000      45.29700000
C       45.11350000      52.55270000      45.45230000
C       44.83590000      47.75580000      54.25260000
C       54.79320000      52.21180000      54.29020000
C       45.32930000      44.91470000      52.12540000
C       45.14560000      55.52000000      49.04490000
C       54.69740000      44.92980000      48.46340000
C       51.72680000      45.15890000      45.23460000
C       51.75820000      54.24320000      54.60010000
C       48.38640000      44.77840000      55.69030000
C       49.46010000      53.52030000      43.46270000
C       42.90980000      48.90650000      53.41380000
C       53.82090000      43.09640000      49.72580000
C       50.85920000      46.17420000      43.35860000
C       50.54910000      53.27690000      56.43550000
C       49.15320000      45.94510000      57.53530000
C       56.51770000      51.03880000      53.29450000
C       57.36850000      49.18560000      46.10080000
C       43.32560000      51.40420000      46.38600000
C       46.18990000      57.33130000      49.97030000
C       46.37140000      43.22670000      50.96340000
C       53.84450000      57.31510000      50.07200000
C       49.14840000      53.22700000      56.54650000
C       43.23190000      50.01520000      46.13350000
C       53.76820000      43.26510000      51.13040000
C       50.57590000      45.95420000      57.55830000
C       50.85670000      53.49470000      43.32940000
C       49.42880000      46.16720000      43.31350000
C       57.40690000      50.60690000      46.02560000
C       56.45120000      49.62820000      53.38630000
C       42.79150000      50.28790000      53.63940000
C       46.44630000      57.09390000      51.33000000
C       46.38810000      43.36800000      49.56190000
C       53.58800000      57.15640000      48.70040000
C       55.04220000      46.24960000      48.06010000
C       47.85510000      55.23560000      46.53820000
C       46.10540000      47.60320000      54.95050000
C       44.95360000      54.16420000      48.85540000
C       44.10370000      46.20700000      50.84350000
C       55.07380000      54.08600000      51.02550000
C       51.78210000      44.37640000      46.40310000
C       52.16290000      55.05750000      53.39030000
C       48.36530000      44.49940000      54.31880000
C       53.59420000      51.02770000      55.68650000
C       54.13470000      48.17690000      44.74620000
C       46.29830000      51.37200000      44.03440000
C       54.71970000      46.64670000      51.34270000
C       49.12420000      55.76230000      53.82410000
C       46.26430000      48.44080000      44.62710000
C       45.11820000      53.66890000      52.29370000
C       44.96790000      46.57800000      47.91650000
C       54.93920000      53.81390000      47.53960000
C       51.63090000      44.62460000      54.31940000
C       50.91370000      55.95470000      46.13230000
C       48.64310000      44.82610000      46.54550000
C       54.24290000      51.47850000      44.51100000
C       53.45340000      47.99960000      55.16390000
C       45.93410000      51.12750000      55.13980000
C       47.50250000      56.59220000      52.08440000
C       51.55880000      46.78920000      56.97210000
C       56.80560000      51.69290000      46.75120000
C       52.86390000      43.73350000      52.12370000
C       52.53560000      56.70200000      47.90830000
C       47.33160000      43.75530000      48.63220000
C       48.09440000      52.34430000      56.14880000
C       48.40310000      47.03450000      43.74390000
C       51.94890000      52.63780000      43.64470000
C       43.57980000      48.86020000      46.84410000
C       43.29970000      51.45850000      52.96950000
C       55.96900000      48.66240000      52.50790000
C       46.90440000      56.96730000      48.77910000
C       51.88070000      47.02050000      43.87250000
C       56.05280000      52.00530000      52.35260000
C       52.97200000      43.29940000      48.63060000
C       53.13000000      56.89070000      51.24030000
C       47.22420000      43.59700000      52.04310000
C       48.41130000      52.66510000      43.68510000
C       48.13130000      46.73130000      56.89090000
C       51.57220000      52.40240000      56.16300000
C       43.37120000      48.06120000      52.41330000
C       43.86590000      52.25440000      47.39010000
C       56.74530000      48.23340000      46.95570000
C       46.29820000      52.57820000      44.68710000
C       44.55890000      46.08050000      52.13200000
C       53.11920000      44.48110000      46.62310000
C       53.67300000      46.96780000      45.54110000
C       53.62680000      52.25170000      55.07670000
C       46.79990000      46.31080000      54.83790000
C       54.41790000      53.78590000      52.32800000
C       54.73810000      46.75420000      46.66500000
C       45.59340000      53.93460000      47.53040000
C       46.58410000      55.01780000      47.23200000
C       47.13620000      45.21510000      53.87660000
C       53.43790000      54.86160000      52.68650000
C       46.29250000      52.43320000      54.53150000
C       45.40120000      47.12060000      46.54010000
C       52.80090000      45.46080000      53.85490000
C       52.99940000      46.58240000      54.91360000
C       53.83920000      52.73610000      45.19290000
C       46.52940000      47.17610000      45.39140000
C       54.81090000      53.08430000      46.26780000
C       54.08890000      47.30700000      52.38730000
C       45.29370000      52.83920000      53.49830000
C       47.88880000      55.17560000      53.85740000
C       47.56490000      45.44550000      47.10420000
C       52.15120000      55.37640000      46.05850000
C       55.70050000      53.12870000      50.13700000
C       51.30670000      56.09430000      52.68600000
C       52.67110000      50.20960000      56.15310000
C       43.75260000      47.23990000      50.10570000
C       44.29900000      53.17040000      49.68010000
C       55.75680000      47.22080000      48.97780000
C       49.28330000      43.87220000      53.37940000
C       48.72480000      56.23150000      47.28910000
C       50.87870000      43.78260000      47.38060000
C       46.86610000      48.66690000      55.81490000
C       47.24570000      50.52770000      43.64420000
C       53.22470000      49.07470000      44.03320000
C       55.75810000      53.05670000      48.62620000
C       50.16210000      56.41110000      47.10550000
C       53.27200000      50.56110000      43.93160000
C       44.02660000      47.42060000      48.68930000
C       44.26710000      52.98900000      51.18050000
C       55.61010000      47.35080000      50.42310000
C       49.46000000      43.96000000      47.40270000
C       49.87190000      56.27010000      52.87500000
C       50.76420000      43.91580000      53.37920000
C       47.24280000      49.09950000      43.82350000
C       46.84250000      50.19050000      55.77740000
C       52.64330000      48.75870000      56.10750000
C       49.19310000      57.50440000      49.38070000
C       48.99780000      48.91090000      57.18640000
C       57.04020000      49.40160000      49.02490000
C       50.81830000      42.82680000      49.65830000
C       50.84550000      57.46980000      50.65860000
C       49.35550000      42.89470000      51.10640000
C       50.45260000      50.37820000      57.10090000
C       50.97390000      49.08900000      42.98500000
C       49.53470000      50.55840000      42.89390000
C       43.02460000      51.06240000      49.27440000
C       42.79940000      49.45800000      50.48930000
C       56.88180000      50.94270000      50.37310000
C       49.40340000      57.46750000      50.82130000
C       49.51260000      49.10240000      42.92670000
C       56.89060000      49.48260000      50.44960000
C       50.79690000      42.87060000      51.13030000
C       50.63490000      57.50500000      49.21770000
C       49.37500000      42.88900000      49.63670000
C       51.00120000      50.52740000      42.93760000
C       50.46850000      48.93920000      57.28150000
C       48.99720000      50.33150000      57.02550000
C       42.91230000      50.91030000      50.69290000
C       42.91140000      49.62510000      49.05730000
C       57.03630000      50.88440000      48.95220000
C       44.92000000      53.00910000      46.77630000
C       46.53330000      44.61380000      52.79380000
C       52.53040000      46.35400000      44.97000000
C       55.75670000      47.58810000      46.22120000
C       55.03050000      52.76600000      53.01140000
C       44.32370000      47.17410000      52.99720000
C       53.85530000      55.85470000      51.79400000
C       53.69500000      44.17660000      47.77320000
C       46.17320000      55.96630000      48.17310000
C       47.52830000      53.31010000      44.63000000
C       47.59520000      45.93080000      55.91110000
C       52.44280000      53.04210000      55.20960000
C       44.27810000      51.94570000      53.80340000
C       46.75540000      44.87880000      47.97860000
C       52.20420000      46.09320000      55.95690000
C       54.83180000      48.10450000      53.14720000
C       55.85830000      52.23940000      45.91960000
C       44.58510000      48.19170000      46.13910000
C       53.05600000      55.65540000      47.09410000
C       53.42190000      44.93090000      52.70350000
C       46.98810000      55.49630000      52.83450000
C       47.34370000      53.04770000      55.15640000
C       47.66750000      46.46470000      44.85750000
C       52.72940000      53.32720000      44.63610000
C       45.02980000      56.37820000      50.11950000
C       49.22830000      44.63450000      56.78050000
C       56.60950000      49.12400000      44.80720000
C       54.91470000      44.12320000      49.59800000
C       55.00160000      56.36760000      49.87530000
C       45.21320000      44.12280000      50.97700000
C       50.56920000      54.37570000      55.45500000
C       50.81400000      44.98580000      44.21190000
C       49.44430000      54.59430000      44.46840000
C       44.16980000      51.54780000      45.19310000
C       43.80110000      48.68070000      54.56920000
C       55.66840000      51.12530000      54.48840000
C       45.34400000      56.10500000      51.45980000
C       49.39730000      45.00550000      44.19330000
C       55.51930000      49.69160000      54.57110000
C       54.85440000      44.24730000      50.99900000
C       54.69000000      56.17880000      48.52040000
C       45.26380000      44.38100000      49.56170000
C       50.87370000      54.64070000      44.25120000
C       50.62800000      44.67620000      56.77280000
C       49.13490000      54.40120000      55.66550000
C       43.63770000      50.03990000      54.87510000
C       44.17020000      50.13160000      44.97880000
C       56.66760000      50.51780000      44.70900000
