240
Lattice="100.0 0.0 0.0 0.0 100.0 0.0 0.0 0.0 100.0" Properties=species:S:1:pos:R:3 name=C-97510-5923-1043 pressure=-0.0125718408921976 energy=-1739.52488861722 spacegroup=C1 times_found=1 pbc="T T T"
C       55.66620000      47.84130000      53.44250000
C       53.44180000      56.01920000      48.24480000
C       47.85530000      53.54300000      55.68530000
C       55.69200000      51.97760000      46.45860000
C       44.25820000      52.02560000      53.62540000
C       44.43100000      47.94260000      46.55520000
C       53.56720000      44.33130000      51.97910000
C       46.45900000      44.38800000      48.01180000
C       46.37760000      56.14780000      51.82390000
C       48.23460000      46.48740000      43.94960000
C       51.80340000      46.48340000      56.03200000
C       52.12980000      53.45900000      44.34880000
C       44.37320000      48.00240000      53.67260000
C       46.39730000      55.64540000      47.99530000
C       51.86350000      53.45410000      55.64760000
C       44.35530000      51.99680000      46.58400000
C       55.96710000      51.76010000      53.47000000
C       55.66450000      47.97440000      46.33260000
C       46.51250000      43.94730000      51.83550000
C       53.50830000      43.91380000      48.15120000
C       53.37420000      55.64830000      52.16460000
C       52.15300000      46.44560000      44.24350000
C       47.89620000      46.48700000      55.72100000
C       48.23240000      53.41050000      44.03920000
C       50.63180000      56.40990000      48.26110000
C       48.20390000      50.73290000      56.36290000
C       56.24920000      48.18790000      50.65160000
C       50.76610000      43.76160000      51.76460000
C       49.25380000      43.77520000      48.22500000
C       49.20100000      56.52760000      51.76390000
C       48.30260000      49.24890000      43.45200000
C       51.77290000      49.27930000      56.42320000
C       51.85100000      50.68860000      43.55300000
C       56.18790000      51.77400000      49.25050000
C       43.76830000      51.85090000      50.81240000
C       43.84740000      48.27720000      49.34820000
C       49.19620000      56.24920000      48.24450000
C       51.76250000      50.70620000      56.27130000
C       43.91830000      48.28310000      50.81470000
C       49.33480000      43.60070000      51.76740000
C       50.68290000      43.59590000      48.22050000
C       50.63790000      56.41360000      51.80640000
C       51.84940000      49.22080000      43.51830000
C       48.20900000      49.26660000      56.40290000
C       48.30300000      50.66450000      43.48750000
C       43.68810000      51.84600000      49.36640000
C       56.33320000      51.75770000      50.67450000
C       56.14560000      48.21570000      49.18930000
C       54.95560000      54.09890000      49.43220000
C       49.05490000      55.25040000      54.07230000
C       54.05520000      49.13510000      55.09200000
C       55.35590000      45.76620000      50.63550000
C       44.69190000      45.83840000      49.35220000
C       44.77280000      54.25340000      50.71800000
C       49.42440000      44.97640000      45.88670000
C       50.60740000      44.97030000      54.10040000
C       50.80180000      55.08280000      45.97590000
C       54.26590000      50.62490000      44.51920000
C       45.75480000      50.66200000      55.48840000
C       46.06570000      49.22700000      44.92370000
C       44.56400000      54.27090000      49.33270000
C       50.44850000      55.30640000      54.16500000
C       45.76540000      49.28220000      55.53940000
C       44.91750000      45.87230000      50.72970000
C       55.12810000      45.81360000      49.25840000
C       55.02800000      54.04890000      50.84650000
C       50.83840000      44.87000000      45.91250000
C       49.19290000      44.88130000      54.07170000
C       49.38980000      54.97520000      45.94470000
C       46.05570000      50.64580000      44.96870000
C       54.07880000      50.54650000      55.00300000
C       54.26920000      49.24590000      44.45170000
C       43.53830000      49.34650000      51.75460000
C       51.57840000      43.11060000      49.29180000
C       49.36000000      51.59090000      43.06050000
C       43.39850000      50.77630000      48.45070000
C       56.80920000      50.67400000      51.54590000
C       56.50110000      49.30060000      48.26480000
C       51.60780000      56.69780000      50.76690000
C       48.25330000      56.69240000      49.25640000
C       48.43340000      43.12690000      50.69430000
C       49.27690000      48.31390000      56.70130000
C       50.78560000      48.25970000      43.21360000
C       50.72210000      51.62780000      56.68200000
C       56.60070000      49.24340000      51.60540000
C       48.33620000      43.37570000      49.27310000
C       50.78960000      51.65730000      43.26440000
C       56.59480000      50.73780000      48.32680000
C       43.41570000      50.78070000      51.71620000
C       43.55190000      49.35660000      48.38780000
C       48.30690000      56.95870000      50.67410000
C       51.53320000      56.89920000      49.33640000
C       51.67730000      43.35080000      50.71460000
C       50.70580000      48.38780000      56.90340000
C       49.35780000      48.33030000      43.00630000
C       49.28380000      51.70320000      56.59960000
C       52.54020000      55.75660000      53.27580000
C       52.89630000      52.63240000      55.15810000
C       55.66460000      52.87740000      52.71140000
C       52.71730000      44.21590000      47.05630000
C       47.30620000      44.23890000      52.93140000
C       47.29160000      55.10020000      47.06270000
C       53.28290000      47.22000000      44.04650000
C       46.76760000      47.26040000      55.92540000
C       47.16410000      52.58310000      44.36650000
C       55.18980000      46.97260000      47.19370000
C       44.85650000      47.01490000      52.80230000
C       44.19380000      53.17080000      47.32040000
C       47.17320000      55.84880000      52.91710000
C       46.75130000      52.71280000      55.83240000
C       44.72480000      53.06380000      52.79400000
C       47.33290000      44.87200000      47.03000000
C       52.70430000      44.81960000      52.97070000
C       52.66880000      55.72410000      47.13720000
C       47.15310000      47.30150000      44.26070000
C       52.91450000      47.25580000      55.73910000
C       53.25850000      52.66670000      44.19640000
C       44.21890000      46.81640000      47.33430000
C       55.85160000      46.71670000      52.65750000
C       55.15350000      52.96740000      47.31430000
C       46.95880000      43.39570000      48.83540000
C       48.90710000      46.96770000      42.80400000
C       43.55970000      48.93830000      46.99650000
C       46.93660000      57.23010000      51.09260000
C       52.90470000      57.13960000      48.92130000
C       53.05410000      43.35050000      51.15130000
C       48.85800000      53.10480000      56.57450000
C       51.21450000      53.05320000      43.36940000
C       51.13700000      47.02500000      57.15780000
C       43.20450000      51.27560000      53.06140000
C       56.77700000      51.26100000      46.98980000
C       56.59200000      48.79080000      52.99370000
C       52.93510000      42.81850000      48.85230000
C       51.21470000      46.86460000      43.29160000
C       56.57400000      48.87120000      46.88240000
C       52.98940000      56.61670000      51.22800000
C       46.88570000      56.66540000      48.79060000
C       47.07330000      42.84790000      51.13180000
C       51.22850000      52.97350000      56.79150000
C       48.90750000      52.95660000      42.88510000
C       48.83970000      46.92020000      56.65980000
C       57.08390000      51.09350000      52.90880000
C       43.23250000      51.26050000      47.09830000
C       43.45880000      48.89570000      53.12840000
C       50.86180000      53.92070000      57.81700000
C       58.14400000      50.56310000      53.70490000
C       53.86070000      57.40950000      50.49120000
C       50.44640000      46.00150000      42.52440000
C       49.59280000      46.07340000      57.45960000
C       49.41260000      53.84660000      41.88750000
C       57.35520000      49.71440000      46.07900000
C       42.65450000      49.71090000      53.93830000
C       42.13920000      50.83600000      46.27120000
C       53.72150000      41.76020000      49.39450000
C       46.27550000      41.80220000      50.58230000
C       46.03850000      57.52880000      49.49050000
C       49.71760000      53.94770000      57.28660000
C       42.12470000      50.85070000      53.91440000
C       46.12410000      58.25250000      50.52010000
C       49.41810000      46.10040000      41.79070000
C       50.60970000      46.21050000      58.20450000
C       50.44750000      53.92770000      42.61230000
C       42.81870000      49.76790000      46.16000000
C       57.40470000      49.54080000      53.83000000
C       57.84820000      50.87020000      46.10430000
C       46.13040000      42.53370000      49.56270000
C       53.87310000      42.48430000      50.41840000
C       53.72160000      58.16280000      49.48150000
C       52.87560000      45.72080000      54.08730000
C       54.51990000      52.92060000      44.68150000
C       45.61400000      54.21010000      52.94920000
C       53.12160000      54.63600000      46.35410000
C       46.74750000      54.75830000      53.72110000
C       47.17680000      45.78040000      45.91910000
C       53.68850000      46.81370000      54.63560000
C       46.38980000      46.89350000      45.38110000
C       45.47100000      52.95760000      55.39000000
C       44.61650000      45.52930000      47.03600000
C       55.42350000      45.43750000      52.95190000
C       54.23050000      54.08390000      47.15460000
C       46.86150000      45.32030000      53.73500000
C       46.38580000      52.98400000      45.47680000
C       54.56220000      53.64050000      53.15940000
C       47.15450000      54.13230000      45.99120000
C       52.75530000      55.24880000      54.53310000
C       53.17280000      45.29290000      46.25210000
C       45.48600000      46.96720000      55.50030000
C       54.55600000      46.93510000      44.50180000
C       54.01250000      52.81350000      54.24880000
C       54.30310000      45.83250000      47.02820000
C       45.73680000      45.87030000      52.96130000
C       44.60490000      54.44920000      47.00750000
C       54.39790000      45.04470000      48.26230000
C       48.37930000      54.24460000      45.19540000
C       44.95860000      48.13750000      54.97470000
C       54.29820000      54.58330000      52.06130000
C       45.10900000      55.04220000      48.16410000
C       45.63550000      45.08880000      51.72430000
C       47.98320000      45.58460000      54.64210000
C       52.05620000      45.55870000      45.33760000
C       51.56440000      54.70800000      55.00920000
C       45.47230000      51.83950000      45.73980000
C       54.81620000      51.58630000      54.31050000
C       55.07340000      48.10780000      45.03200000
C       45.18250000      45.01350000      48.19460000
C       52.01900000      54.37290000      45.42270000
C       54.60390000      47.92840000      54.36490000
C       45.50280000      55.01010000      51.71900000
C       54.28480000      54.86310000      48.39900000
C       54.85100000      44.94110000      51.79030000
C       51.63760000      45.65170000      54.87060000
C       48.40030000      45.67220000      45.12090000
C       47.87760000      54.49610000      54.62850000
C       55.08340000      51.74250000      45.16410000
C       44.90460000      51.77950000      54.89790000
C       45.50740000      48.02840000      45.65820000
C       52.90960000      51.25940000      55.57940000
C       55.85440000      52.95480000      51.32170000
C       51.14050000      55.95880000      53.06610000
C       53.10400000      48.63320000      43.86360000
C       46.94730000      48.67430000      56.09570000
C       47.10830000      51.21520000      44.11090000
C       55.58820000      47.02860000      48.57810000
C       44.46480000      47.08640000      51.41720000
C       43.98040000      53.09150000      48.74470000
C       51.31920000      44.05490000      47.01290000
C       48.70320000      44.06650000      52.97420000
C       48.65850000      55.53970000      47.09850000
C       46.93870000      51.30360000      56.02420000
C       44.31340000      53.04400000      51.41040000
C       48.56120000      56.05060000      52.96300000
C       47.10660000      48.68030000      44.03660000
C       52.97410000      48.64650000      55.93090000
C       53.09730000      51.26340000      43.95520000
C       44.11420000      47.01030000      48.75750000
C       55.95970000      46.91970000      51.23660000
C       55.53010000      52.94080000      48.70330000
C       48.70210000      44.44200000      47.06320000
C       51.32650000      44.41790000      52.92990000
C       51.27660000      55.91230000      47.07110000
