240
Lattice="100.0 0.0 0.0 0.0 100.0 0.0 0.0 0.0 100.0" Properties=species:S:1:pos:R:3 name=C-97510-5923-810 pressure=53.0039581761633 spacegroup=C1 times_found=1 energy=-1764.57894083056 pbc="T T T"
C       42.80580000      48.53240000      51.59280000
C       48.40280000      51.70720000      42.83050000
C       51.88380000      42.84460000      48.78250000
C       43.01910000      51.51680000      48.22110000
C       56.85670000      48.60710000      48.17960000
C       57.07150000      51.35170000      51.65570000
C       48.46360000      48.23710000      57.32770000
C       51.30430000      51.78210000      57.20570000
C       51.36440000      48.27450000      42.94850000
C       51.90790000      56.75280000      51.43250000
C       48.29610000      43.31490000      51.44830000
C       48.31840000      57.08920000      48.74270000
C       57.00510000      48.59590000      51.66940000
C       51.21480000      51.77320000      42.74530000
C       48.36380000      43.04080000      48.66580000
C       57.07660000      51.39490000      48.14400000
C       42.74780000      48.67860000      48.08080000
C       42.82180000      51.35250000      51.72930000
C       51.33340000      48.30210000      57.33580000
C       48.45160000      51.74720000      56.98320000
C       48.56590000      48.22300000      43.14200000
C       48.40220000      57.07110000      51.54840000
C       51.79900000      43.15850000      51.59740000
C       51.82390000      56.72120000      48.61100000
C       53.71340000      44.41790000      51.87500000
C       44.20970000      51.53250000      53.50100000
C       51.45650000      53.51850000      44.17190000
C       53.71930000      55.47280000      48.21790000
C       46.53510000      44.42280000      48.09530000
C       46.54600000      55.68040000      52.00110000
C       44.10370000      48.40490000      46.27390000
C       55.61670000      51.88720000      46.36630000
C       55.53400000      48.18700000      53.44010000
C       51.59900000      46.45210000      55.99970000
C       48.21810000      53.65080000      55.68260000
C       48.33950000      46.42270000      44.51650000
C       46.43300000      44.59700000      51.66240000
C       55.58900000      51.79280000      53.41490000
C       47.97770000      53.51520000      44.29170000
C       46.50460000      55.75310000      48.51860000
C       53.72160000      44.15810000      48.46200000
C       53.78470000      55.47050000      51.73730000
C       55.49680000      48.32910000      46.37150000
C       44.30320000      51.80460000      46.31110000
C       44.23670000      48.05600000      53.42910000
C       48.25870000      46.39510000      55.98710000
C       51.62160000      53.58910000      55.85850000
C       51.91110000      46.49130000      44.39810000
C       44.51630000      45.47660000      48.95010000
C       45.14520000      49.19910000      44.26950000
C       49.60090000      44.42430000      45.37890000
C       44.64710000      54.54670000      50.96870000
C       55.88480000      45.14010000      50.68830000
C       55.99080000      54.83900000      49.22230000
C       45.34020000      50.51510000      55.30720000
C       54.34860000      49.27520000      55.23980000
C       54.48480000      50.97090000      44.42320000
C       49.43490000      55.81160000      54.95100000
C       50.68770000      44.49870000      54.89950000
C       50.48580000      55.28560000      45.42300000
C       55.73530000      45.21320000      49.24260000
C       54.64000000      49.53940000      44.33840000
C       51.03560000      44.52440000      45.52420000
C       56.00720000      54.82360000      50.66360000
C       44.39970000      45.32730000      50.38280000
C       44.68720000      54.61040000      49.51840000
C       54.35630000      50.73860000      55.21930000
C       45.36900000      49.06470000      55.34980000
C       45.02340000      50.63910000      44.11620000
C       50.87430000      55.63230000      54.84280000
C       49.22480000      44.49350000      54.86350000
C       49.03720000      55.35380000      45.48990000
C       49.31310000      42.58360000      50.87570000
C       42.30770000      50.81580000      49.18890000
C       50.60590000      49.23010000      42.30370000
C       49.41760000      57.62490000      49.36660000
C       50.81080000      42.34010000      49.48140000
C       50.91110000      57.44190000      50.77270000
C       42.19740000      49.29560000      50.60570000
C       57.70610000      50.67890000      50.63030000
C       57.59860000      49.23080000      49.16550000
C       50.57640000      50.79060000      57.81320000
C       49.13840000      49.31460000      57.85810000
C       49.11840000      50.67320000      42.25050000
C       50.77680000      42.50130000      50.92980000
C       57.68040000      50.67400000      49.15380000
C       49.16340000      49.21060000      42.38410000
C       50.87830000      57.43580000      49.32350000
C       49.33850000      42.44100000      49.43750000
C       49.45230000      57.60640000      50.81970000
C       57.65000000      49.23950000      50.63730000
C       42.23020000      50.74650000      50.65390000
C       42.20170000      49.36330000      49.13730000
C       49.12380000      50.77280000      57.71050000
C       50.60030000      49.32640000      57.90850000
C       50.56920000      50.70050000      42.17440000
C       45.15440000      45.13270000      51.55370000
C       44.87290000      51.73410000      45.01840000
C       52.10040000      45.46620000      45.40730000
C       45.51500000      54.79980000      48.43930000
C       54.73610000      45.09050000      48.30460000
C       55.08430000      54.94030000      51.72560000
C       45.25650000      47.95100000      54.46160000
C       54.54830000      51.89180000      54.39470000
C       54.88280000      48.39570000      45.12170000
C       51.78640000      54.61000000      54.93520000
C       48.21130000      45.41660000      55.00140000
C       47.90430000      54.49260000      45.35450000
C       54.99630000      44.99390000      51.79070000
C       54.58920000      52.03870000      45.36280000
C       48.43940000      45.17770000      45.13320000
C       55.03280000      54.96510000      48.18630000
C       45.47620000      45.39230000      47.89730000
C       45.53060000      54.65610000      52.08850000
C       54.51080000      48.10440000      54.43720000
C       45.17580000      51.59330000      54.47770000
C       45.04940000      48.26640000      45.27010000
C       48.32010000      54.93800000      55.10690000
C       51.68600000      45.44490000      55.04320000
C       51.54800000      54.45360000      45.17910000
C       47.03250000      51.66800000      43.16470000
C       51.92280000      43.27200000      47.40420000
C       43.16890000      47.15470000      51.50350000
C       47.13610000      48.20810000      56.76510000
C       52.66330000      51.74010000      56.68170000
C       52.75670000      48.37920000      43.23680000
C       51.90050000      56.27740000      52.77790000
C       48.26160000      43.81870000      52.77730000
C       48.24670000      56.62910000      47.38370000
C       43.64880000      52.80800000      48.29180000
C       56.37320000      47.26800000      48.19670000
C       56.83580000      52.74280000      51.65100000
C       52.58810000      51.83180000      43.18330000
C       48.46020000      43.30890000      47.26840000
C       56.72960000      47.21760000      51.66310000
C       52.67350000      48.31800000      56.75740000
C       47.15810000      51.70500000      56.35460000
C       47.22390000      48.20960000      43.62410000
C       48.43440000      56.75980000      52.92500000
C       51.76790000      43.74270000      52.89360000
C       51.73440000      56.18770000      47.28120000
C       56.83910000      52.78990000      48.17600000
C       43.21310000      47.31070000      48.04740000
C       43.32120000      52.70030000      51.78720000
C       46.80750000      54.69460000      46.41280000
C       54.50800000      45.93790000      47.09510000
C       46.28000000      46.83800000      54.72560000
C       47.03920000      45.61410000      54.09070000
C       52.97830000      54.37230000      54.06590000
C       53.25110000      45.27070000      46.40930000
C       55.40390000      54.21510000      52.89180000
C       44.67130000      45.73050000      52.73090000
C       45.56910000      54.03740000      47.15770000
C       45.60960000      52.87720000      44.68260000
C       54.25250000      47.21050000      44.71270000
C       53.61750000      53.07160000      54.67540000
C       52.83150000      54.34460000      45.92730000
C       45.26230000      46.38050000      46.74770000
C       53.56720000      46.93320000      54.75370000
C       52.88680000      45.63420000      54.16200000
C       47.18270000      55.29930000      54.37170000
C       47.25900000      44.73730000      45.75460000
C       45.30990000      53.61400000      53.19020000
C       55.30930000      45.76030000      52.92370000
C       55.34080000      54.26830000      47.00230000
C       53.55750000      53.14780000      45.20320000
C       45.92440000      47.08080000      45.49870000
C       45.96200000      52.85780000      54.42250000
C       50.63450000      47.13800000      56.80420000
C       47.23710000      56.43410000      50.93400000
C       56.32090000      50.77400000      47.04300000
C       50.46410000      52.84310000      43.41500000
C       49.32400000      47.15580000      43.76670000
C       49.16330000      52.90110000      56.48520000
C       47.20810000      43.76240000      49.24160000
C       52.99490000      56.17030000      49.26810000
C       52.97540000      43.62060000      50.91570000
C       56.26950000      49.26460000      52.75410000
C       43.43620000      50.56650000      52.79680000
C       43.36550000      49.41170000      46.97680000
C       49.20480000      47.10520000      56.80110000
C       53.02890000      56.17570000      50.71790000
C       43.50130000      50.84310000      47.03830000
C       49.03320000      52.84410000      43.49520000
C       50.77270000      47.14640000      43.69420000
C       50.60080000      52.91460000      56.60350000
C       53.01210000      43.45870000      49.48880000
C       47.22340000      56.48620000      49.50320000
C       47.20330000      43.87040000      50.68560000
C       43.46820000      49.13170000      52.76210000
C       56.29880000      50.70320000      52.74100000
C       56.24340000      49.33090000      47.08470000
C       47.13390000      44.74050000      52.93030000
C       44.57230000      52.97510000      47.14270000
C       53.07430000      47.24930000      44.06660000
C       47.14840000      55.75730000      47.27730000
C       52.99250000      44.17730000      47.26520000
C       52.99330000      55.30210000      52.95200000
C       43.97490000      46.87580000      52.66870000
C       55.98570000      53.00950000      52.77800000
C       55.39580000      47.08600000      47.11180000
C       52.78880000      52.81720000      55.78740000
C       47.05760000      47.11260000      55.87840000
C       46.76890000      52.80560000      44.00890000
C       52.89960000      44.67180000      53.06680000
C       55.97260000      53.08130000      47.06440000
C       47.07430000      47.12760000      44.61120000
C       52.86600000      55.27050000      47.04720000
C       47.30830000      44.10300000      46.93820000
C       47.27170000      55.95410000      53.20320000
C       55.89450000      46.96170000      52.79810000
C       44.22070000      52.77650000      52.86450000
C       44.14170000      47.20540000      46.99470000
C       47.02410000      52.85060000      55.42060000
C       52.77170000      47.21200000      55.88600000
C       52.69300000      52.87310000      44.12130000
C       56.93190000      53.73090000      49.18870000
C       53.58140000      49.30190000      56.47630000
C       49.47600000      56.73330000      53.83320000
C       56.78540000      46.27380000      50.64860000
C       43.50640000      53.65550000      50.82940000
C       43.33990000      46.33750000      48.99300000
C       53.57750000      50.89720000      43.28390000
C       46.25930000      49.16030000      43.36180000
C       46.27520000      50.64740000      56.38860000
C       49.51960000      43.35710000      46.36510000
C       50.65700000      56.29860000      46.42790000
C       50.72090000      43.61430000      53.76810000
C       43.61780000      53.66210000      49.37200000
C       46.23240000      49.19440000      56.51300000
C       50.93370000      56.53290000      53.72350000
C       43.28210000      46.25670000      50.44570000
C       56.94110000      53.71090000      50.66030000
C       56.62780000      46.33870000      49.18050000
C       46.13050000      50.62160000      43.18120000
C       53.65850000      49.44110000      43.26760000
C       53.57990000      50.74940000      56.45190000
C       50.97300000      43.38730000      46.43500000
C       49.20410000      56.45080000      46.42910000
C       49.24670000      43.62450000      53.71980000
