240
Lattice="100.0 0.0 0.0 0.0 100.0 0.0 0.0 0.0 100.0" Properties=species:S:1:pos:R:3 name=C-97510-5923-877 pressure=-7.81013213980836 spacegroup=C1 times_found=1 energy=-1756.69219915539 pbc="T T T"
C       53.08600000      53.58590000      54.97190000
C       54.85870000      53.10120000      53.36990000
C       53.36840000      55.07430000      53.03410000
C       47.03420000      53.24960000      45.21550000
C       53.03730000      46.86110000      45.22660000
C       47.25500000      46.87210000      54.92420000
C       45.17940000      52.87630000      46.88710000
C       55.05250000      47.10020000      46.86450000
C       45.31470000      47.03980000      53.44470000
C       46.86900000      54.84890000      47.07190000
C       53.52140000      45.19840000      46.99460000
C       46.93310000      45.25830000      52.85960000
C       52.99200000      46.47750000      54.69760000
C       54.76670000      46.99880000      53.07170000
C       53.12520000      44.97410000      52.75980000
C       46.91810000      46.62670000      44.99790000
C       52.94460000      53.14370000      45.05270000
C       47.18460000      53.04890000      54.83960000
C       44.89030000      46.95500000      46.39510000
C       54.79840000      53.00380000      46.68230000
C       45.20680000      52.78760000      53.13940000
C       46.40450000      45.12820000      46.88150000
C       53.13060000      54.86140000      46.97900000
C       46.78970000      54.68360000      52.96780000
C       49.95180000      49.23630000      56.84550000
C       56.55710000      49.64770000      49.31820000
C       49.28160000      56.54680000      49.55200000
C       50.43740000      49.19270000      43.50960000
C       49.03470000      50.69320000      43.41710000
C       51.10080000      51.36280000      57.35300000
C       42.69570000      49.02010000      51.42530000
C       56.55570000      51.07140000      50.79140000
C       43.16330000      50.16320000      49.25320000
C       50.76070000      56.65960000      50.96160000
C       49.19560000      43.24230000      50.05560000
C       51.33590000      42.67280000      48.90500000
C       49.95330000      50.73880000      56.84410000
C       56.61730000      51.07910000      49.29700000
C       48.55320000      42.74300000      48.91920000
C       50.45390000      50.66190000      43.50370000
C       49.01410000      49.19610000      43.39820000
C       51.10560000      48.57660000      57.31060000
C       43.18990000      50.15710000      50.75830000
C       56.47240000      49.64800000      50.78150000
C       42.60220000      49.03670000      48.63660000
C       50.69440000      43.17430000      50.05330000
C       49.26520000      56.61920000      50.98240000
C       50.75310000      56.55550000      49.54170000
C       47.23200000      45.47320000      45.79310000
C       45.70210000      47.29330000      45.26630000
C       45.22570000      45.86910000      47.19810000
C       52.55730000      45.28440000      54.00170000
C       47.47580000      54.28230000      54.13370000
C       52.54920000      54.41250000      45.73160000
C       54.04510000      47.30360000      54.28390000
C       45.93580000      52.44750000      54.41920000
C       54.17430000      52.56150000      45.45110000
C       54.39070000      45.72200000      52.45760000
C       45.58310000      54.00540000      52.53900000
C       54.34610000      54.16220000      47.35300000
C       47.45610000      54.47710000      45.84170000
C       45.87520000      52.56380000      45.64680000
C       45.62500000      54.11790000      47.47740000
C       52.71920000      54.75180000      54.23240000
C       47.55810000      45.62590000      54.12940000
C       52.70750000      45.64490000      45.93990000
C       54.14920000      52.76550000      54.56830000
C       46.01810000      47.44990000      54.63690000
C       54.30720000      47.46440000      45.62730000
C       54.50990000      54.29040000      52.67360000
C       45.70190000      45.98170000      52.61130000
C       54.73620000      45.85110000      47.42490000
C       47.31240000      55.66790000      48.24040000
C       48.48710000      47.25040000      55.74590000
C       55.82290000      48.29970000      47.31430000
C       52.89060000      55.82550000      51.87700000
C       47.25630000      44.49400000      51.54860000
C       53.18250000      44.26150000      48.03700000
C       51.78610000      47.24710000      44.47320000
C       48.11820000      52.78640000      44.34430000
C       51.95530000      53.25610000      55.80620000
C       44.37900000      48.09620000      53.15510000
C       55.57490000      51.92380000      52.90490000
C       44.34540000      51.61370000      47.25270000
C       46.72680000      44.36970000      48.06310000
C       48.46310000      52.71260000      55.66630000
C       55.67840000      51.93890000      47.16750000
C       52.71940000      44.17860000      51.51950000
C       47.22670000      55.58340000      51.89760000
C       52.72630000      55.66820000      48.19570000
C       51.76620000      52.67580000      44.26140000
C       48.11230000      47.08700000      44.31170000
C       51.95920000      46.78660000      55.65030000
C       44.35070000      51.57970000      52.74480000
C       55.50760000      48.26770000      52.71110000
C       44.09320000      48.11520000      46.72230000
C       54.80160000      49.24990000      43.93930000
C       43.97200000      54.60960000      49.28810000
C       49.23200000      43.80910000      54.54280000
C       45.48540000      49.29240000      56.30290000
C       53.94320000      50.69550000      55.99910000
C       45.79500000      50.72510000      43.90710000
C       55.99700000      54.27800000      50.69130000
C       43.94390000      46.13830000      50.71910000
C       56.34080000      45.28700000      49.32460000
C       50.69660000      44.04710000      46.07020000
C       49.28510000      56.08910000      45.21210000
C       50.67860000      56.20280000      54.21020000
C       54.78580000      50.69400000      43.87840000
C       43.81720000      46.13900000      49.29290000
C       49.25840000      56.08300000      54.22680000
C       45.47220000      50.73910000      56.19780000
C       53.92780000      49.26940000      55.93780000
C       45.78980000      49.30400000      43.78950000
C       56.19550000      45.26590000      50.77010000
C       43.95320000      54.59550000      50.73020000
C       55.98550000      54.27950000      49.26980000
C       50.73230000      56.06200000      45.19550000
C       49.27020000      44.03080000      46.06100000
C       50.67370000      43.66440000      54.52580000
C       48.73900000      48.51100000      56.44700000
C       56.48290000      48.48460000      48.57010000
C       48.53910000      56.39030000      48.39320000
C       51.59320000      48.44070000      43.69580000
C       48.03220000      51.65790000      43.52000000
C       52.03280000      52.24950000      56.69730000
C       43.39620000      48.05700000      52.24400000
C       56.40150000      52.05730000      51.76580000
C       43.62240000      51.36050000      48.50560000
C       51.71670000      56.61260000      51.97950000
C       48.46530000      43.70780000      51.26330000
C       52.20190000      43.34800000      47.96580000
C       48.74370000      51.47920000      56.40680000
C       56.48800000      52.06930000      48.31440000
C       47.69330000      43.43430000      47.99260000
C       51.60670000      51.41750000      43.60390000
C       48.01220000      48.23190000      43.45720000
C       52.03890000      47.73640000      56.59520000
C       43.63990000      51.35140000      51.48350000
C       56.29770000      48.49040000      51.53330000
C       43.20060000      48.07570000      47.73590000
C       51.43440000      43.53490000      51.26510000
C       48.31790000      56.47460000      51.99740000
C       51.50750000      56.40000000      48.38230000
C       48.65790000      57.04570000      46.03750000
C       46.38380000      48.67340000      57.18170000
C       57.27790000      46.16680000      48.75330000
C       51.21290000      57.14550000      53.23400000
C       48.54950000      43.02050000      53.62070000
C       51.33740000      43.05100000      46.85500000
C       53.95650000      48.56860000      43.04030000
C       46.76070000      51.25430000      42.97350000
C       53.15090000      51.36620000      56.98890000
C       43.01090000      46.95800000      51.40410000
C       56.91580000      53.34050000      51.32130000
C       43.07270000      53.75100000      48.65040000
C       48.55720000      43.08430000      46.87020000
C       46.37900000      51.38190000      57.03080000
C       56.95560000      53.37180000      48.70870000
C       51.25140000      42.78210000      53.60620000
C       48.67110000      57.02450000      53.28670000
C       51.37740000      57.00020000      46.01980000
C       53.94170000      51.28100000      42.91580000
C       46.76060000      48.70190000      42.87360000
C       53.15230000      48.58990000      56.91610000
C       43.04130000      53.73330000      51.35600000
C       57.02590000      46.15720000      51.46110000
C       42.86120000      46.97610000      48.62970000
C       54.91640000      51.36860000      45.08900000
C       45.18030000      54.74240000      51.35900000
C       51.38330000      44.83320000      54.74330000
C       45.23710000      51.30850000      54.92950000
C       54.37150000      48.64700000      54.74310000
C       45.30570000      48.62100000      44.88050000
C       54.77830000      54.63420000      48.64300000
C       44.87780000      45.59060000      48.57790000
C       54.91320000      45.04470000      51.30520000
C       48.61270000      45.14640000      45.53160000
C       51.34370000      54.81280000      45.04500000
C       48.70400000      54.83750000      54.61160000
C       54.97150000      48.67240000      45.19720000
C       45.15540000      45.65530000      51.30990000
C       51.39760000      55.12710000      54.66940000
C       45.28580000      48.62150000      55.11280000
C       54.44180000      51.38590000      54.88370000
C       45.39700000      51.32040000      45.12210000
C       55.16670000      45.10670000      48.60950000
C       45.21510000      54.79650000      48.67860000
C       54.85440000      54.70270000      51.34210000
C       48.64570000      54.86240000      45.10060000
C       51.35300000      45.22080000      45.61080000
C       48.70110000      45.08620000      54.79980000
C       50.74970000      56.91380000      47.26880000
C       47.61950000      50.73790000      56.89060000
C       56.90430000      47.39390000      50.81670000
C       49.05160000      58.41040000      53.31750000
C       50.64730000      43.07120000      52.37880000
C       49.25240000      42.15260000      47.75110000
C       52.70740000      50.64420000      43.08750000
C       46.84300000      49.16820000      41.49810000
C       52.28140000      49.27960000      57.87110000
C       42.01410000      47.89500000      49.37640000
C       58.20480000      53.36870000      49.35930000
C       43.18990000      52.48920000      50.72920000
C       50.61020000      42.13030000      47.73460000
C       47.61980000      49.27790000      56.93380000
C       58.11960000      53.25870000      50.62440000
C       49.18780000      43.17130000      52.38110000
C       50.28560000      58.17250000      53.09790000
C       49.29120000      56.91880000      47.27660000
C       52.70710000      49.18480000      43.14020000
C       46.90400000      50.37950000      41.89140000
C       52.27230000      50.63740000      57.89860000
C       43.18770000      52.49620000      49.26770000
C       57.01360000      47.39480000      49.36230000
C       42.07220000      47.87010000      50.73400000
C       55.58440000      49.34960000      46.31390000
C       46.33640000      55.43350000      49.31730000
C       49.41810000      46.12180000      55.50580000
C       44.57600000      49.20380000      54.02780000
C       55.17640000      50.77430000      53.77680000
C       44.60490000      50.65290000      46.12920000
C       53.76210000      55.45480000      50.72910000
C       46.13860000      44.86840000      50.60240000
C       54.04650000      44.41930000      49.16300000
C       50.70870000      46.27130000      44.84500000
C       49.24230000      53.70290000      44.49070000
C       50.81680000      54.06700000      55.45100000
C       55.54410000      50.80090000      46.25820000
C       45.92590000      44.81460000      49.18720000
C       49.40290000      53.84460000      55.38910000
C       44.54950000      50.62430000      53.86500000
C       55.12210000      49.31980000      53.70330000
C       44.51360000      49.23790000      45.91790000
C       53.85290000      44.38340000      50.58290000
C       46.31470000      55.40310000      50.76900000
C       53.71230000      55.38240000      49.27370000
C       50.69470000      53.66980000      44.45660000
C       49.25040000      46.22360000      44.76740000
C       50.83460000      45.92730000      55.47020000
