240
Lattice="100.0 0.0 0.0 0.0 100.0 0.0 0.0 0.0 100.0" Properties=species:S:1:pos:R:3 name=C-97510-5923-1363 pressure=254.414668727304 spacegroup=C1 times_found=1 energy=-1792.7802406436 pbc="T T T"
C       48.64110000      42.29000000      48.64470000
C       48.67340000      48.55850000      42.69320000
C       42.95840000      48.69710000      48.62490000
C       48.45270000      57.53990000      51.32790000
C       51.45340000      57.40650000      48.66220000
C       51.44920000      42.50400000      51.52520000
C       48.56620000      51.49360000      57.39390000
C       51.52030000      51.38910000      42.50350000
C       51.32090000      48.59350000      57.09720000
C       42.72180000      51.37900000      51.51660000
C       57.27260000      51.32540000      48.40090000
C       57.60530000      48.59420000      51.28400000
C       51.49290000      42.53270000      48.73110000
C       51.42340000      48.46410000      42.60650000
C       57.32040000      48.56900000      48.42700000
C       51.36950000      57.47020000      51.42670000
C       48.57480000      57.36420000      48.55880000
C       48.57200000      42.22520000      51.45000000
C       51.30960000      51.43240000      57.07980000
C       48.75110000      51.47310000      42.52180000
C       48.57180000      48.54160000      57.37440000
C       57.53680000      51.37960000      51.22120000
C       42.72330000      51.44120000      48.58540000
C       42.87310000      48.63080000      51.46920000
C       55.49930000      47.22470000      52.70140000
C       52.73080000      55.41200000      47.17250000
C       46.69290000      52.69010000      55.84590000
C       55.25230000      52.88500000      47.24180000
C       44.66440000      53.06940000      52.68730000
C       44.91040000      47.14000000      47.36780000
C       52.43310000      44.33900000      53.20190000
C       47.38630000      44.50470000      47.30980000
C       47.25760000      55.72940000      52.95420000
C       46.97570000      47.59020000      44.47830000
C       52.87000000      47.29790000      55.17430000
C       53.27630000      52.49010000      44.22470000
C       44.75780000      47.02110000      52.77940000
C       47.47290000      55.29520000      46.97680000
C       52.85120000      52.70780000      55.13020000
C       44.28270000      53.30460000      47.37820000
C       55.43720000      52.73630000      52.63150000
C       55.21240000      47.00340000      47.42190000
C       47.21140000      44.36040000      52.82530000
C       52.52980000      44.48080000      47.21580000
C       52.39920000      55.65650000      53.12750000
C       53.21140000      47.28910000      44.22990000
C       46.77130000      47.42140000      55.72640000
C       47.17340000      52.69220000      44.34650000
C       44.97310000      48.41230000      54.59480000
C       54.07790000      45.29190000      48.52230000
C       48.52760000      54.15830000      45.21630000
C       45.43070000      52.01480000      45.76130000
C       55.43090000      50.72780000      54.16250000
C       55.03470000      48.16570000      45.37600000
C       54.10360000      54.58690000      51.83620000
C       45.49840000      55.06950000      48.27160000
C       45.77190000      44.48960000      50.75600000
C       48.02360000      45.71640000      54.64350000
C       51.80430000      45.90090000      45.52140000
C       51.38830000      54.45670000      54.86680000
C       55.44280000      49.27420000      54.17840000
C       45.81530000      44.52840000      49.30180000
C       51.95170000      54.11100000      45.32600000
C       55.05840000      51.50570000      45.38260000
C       44.91940000      51.77340000      54.65320000
C       45.20350000      48.59880000      45.62890000
C       45.71900000      54.89840000      51.66450000
C       54.36560000      55.21800000      48.79770000
C       54.13430000      45.39680000      51.92210000
C       51.39280000      45.55380000      54.90620000
C       48.24810000      45.91160000      45.56100000
C       47.97000000      54.30720000      54.67340000
C       55.94580000      46.80860000      51.41840000
C       51.47270000      55.88310000      46.76990000
C       46.43220000      51.37230000      56.34820000
C       55.68440000      53.22320000      48.54400000
C       44.09090000      53.35940000      51.41320000
C       44.42500000      46.72180000      48.61230000
C       51.15190000      43.79730000      53.49910000
C       48.66300000      44.03900000      46.90580000
C       48.47200000      56.23330000      53.37680000
C       46.64530000      48.84370000      43.90750000
C       53.27990000      48.56590000      55.61380000
C       53.60920000      51.23930000      43.63570000
C       44.34300000      46.65450000      51.48840000
C       48.77790000      55.81160000      46.71810000
C       53.26590000      51.44720000      55.58560000
C       43.85070000      53.52770000      48.72640000
C       55.85700000      53.12200000      51.32920000
C       55.77100000      46.74540000      48.70880000
C       48.45630000      43.84950000      53.27650000
C       51.30400000      44.00390000      46.80250000
C       51.12410000      56.20520000      53.43940000
C       53.55910000      48.55280000      43.65690000
C       46.45500000      48.68170000      56.30900000
C       46.71820000      51.49070000      43.84100000
C       50.41100000      55.37570000      54.41280000
C       54.36480000      50.72510000      55.13070000
C       55.02390000      54.13580000      50.79710000
C       50.70830000      44.97030000      45.91720000
C       49.02070000      44.71460000      54.28740000
C       49.49690000      55.04000000      45.73740000
C       54.61250000      49.17160000      44.39890000
C       45.41200000      49.35340000      55.56050000
C       45.74910000      50.97220000      44.76250000
C       55.01000000      45.78570000      49.46060000
C       44.82170000      45.57290000      50.75400000
C       44.64740000      54.53100000      49.34500000
C       49.00750000      55.31090000      54.33770000
C       45.40110000      50.74480000      55.58520000
C       44.77890000      54.42010000      50.73470000
C       49.28790000      44.97180000      45.96380000
C       50.41730000      44.63430000      54.43200000
C       50.90600000      55.03670000      45.75770000
C       45.66210000      49.56910000      44.70950000
C       54.37490000      49.28590000      55.14640000
C       54.63580000      50.56340000      44.40370000
C       44.86120000      45.60740000      49.31750000
C       55.05670000      45.81530000      50.87100000
C       55.08030000      54.27520000      49.37450000
C       45.77770000      46.41070000      53.67140000
C       52.94480000      45.61670000      46.48310000
C       46.43390000      53.12270000      45.49490000
C       45.03810000      54.43100000      47.09850000
C       54.33490000      53.62900000      52.99470000
C       54.09440000      46.06880000      47.28770000
C       52.55400000      54.66960000      54.09000000
C       47.28610000      54.21120000      45.99460000
C       46.87590000      45.49680000      53.68950000
C       45.78000000      47.25890000      54.76410000
C       54.30510000      47.01740000      45.02390000
C       53.43500000      53.60420000      54.10080000
C       54.37790000      46.35190000      53.06660000
C       47.07130000      45.65470000      46.47350000
C       54.24500000      52.64650000      45.21540000
C       54.22010000      53.47330000      46.32820000
C       45.72540000      54.08290000      52.87730000
C       45.96020000      46.55470000      46.49810000
C       46.84660000      54.57670000      53.69450000
C       53.09290000      54.33670000      46.29300000
C       52.57600000      45.33130000      54.15640000
C       53.46430000      46.39160000      54.16640000
C       45.99170000      47.43700000      45.43940000
C       45.58410000      52.93830000      55.06370000
C       49.21700000      58.46840000      50.63400000
C       50.75820000      49.28650000      58.15610000
C       58.35160000      50.69850000      49.01500000
C       49.40800000      41.34200000      49.33130000
C       50.84670000      41.47840000      50.80210000
C       50.71280000      58.41430000      49.26100000
C       50.79430000      50.64910000      41.57000000
C       49.34520000      50.75460000      58.27870000
C       49.33790000      49.20460000      41.65870000
C       58.52430000      49.27010000      50.47700000
C       41.88440000      49.26440000      49.29760000
C       41.77580000      50.66890000      50.77300000
C       50.68900000      58.44340000      50.68640000
C       49.34400000      49.27430000      58.27320000
C       41.80210000      50.68320000      49.29960000
C       50.86380000      41.48070000      49.37120000
C       49.38850000      41.31990000      50.77020000
C       49.24860000      58.40110000      49.21060000
C       49.38390000      50.67850000      41.57640000
C       50.75750000      50.74630000      58.15200000
C       50.74840000      49.17040000      41.62480000
C       41.85320000      49.24750000      50.75660000
C       58.37320000      49.26030000      49.02450000
C       58.49900000      50.71410000      50.46190000
C       50.80140000      47.50440000      43.55430000
C       43.58800000      50.90740000      47.51300000
C       47.51990000      42.91480000      50.77030000
C       50.60420000      52.51150000      56.38710000
C       49.45540000      52.48530000      43.34100000
C       49.10780000      47.48400000      56.49810000
C       43.53370000      49.28370000      52.59810000
C       56.54310000      49.14870000      47.34420000
C       56.92540000      50.72760000      52.33770000
C       47.47520000      56.62180000      49.15780000
C       52.43400000      56.61600000      50.86510000
C       52.47330000      43.38190000      49.44680000
C       49.28480000      47.55640000      43.60140000
C       56.54010000      50.65660000      47.33600000
C       52.46860000      43.39620000      50.94460000
C       49.09200000      52.55410000      56.50600000
C       50.96020000      52.44600000      43.35970000
C       50.61630000      47.51310000      56.40490000
C       56.95530000      49.26460000      52.36890000
C       43.67340000      49.39560000      47.55320000
C       43.49050000      50.80230000      52.61410000
C       52.46960000      56.66080000      49.37550000
C       47.41630000      56.72200000      50.66460000
C       47.56210000      42.95400000      49.30120000
C       51.53610000      46.79320000      55.55940000
C       55.69120000      51.59500000      46.64360000
C       46.73370000      55.88490000      51.64400000
C       51.98030000      53.08230000      44.27880000
C       48.01330000      53.24340000      55.69620000
C       48.25340000      46.95710000      44.53330000
C       55.99240000      48.50780000      53.15700000
C       44.52710000      48.46630000      46.85220000
C       44.30810000      51.81320000      53.34960000
C       46.85030000      43.97740000      48.55230000
C       53.08570000      44.35420000      51.93980000
C       53.23910000      55.81420000      48.46430000
C       48.05290000      46.80500000      55.64660000
C       44.41270000      51.98110000      46.82430000
C       53.05660000      55.64740000      51.86380000
C       48.50570000      53.16760000      44.20820000
C       51.52520000      53.22080000      55.52690000
C       51.84450000      46.85500000      44.42490000
C       44.34450000      48.32760000      53.33050000
C       55.64900000      48.17070000      46.67480000
C       55.95070000      51.47770000      53.11440000
C       53.08310000      44.29650000      48.51130000
C       46.75990000      43.89530000      51.52990000
C       46.78620000      55.71090000      48.19830000
C       56.79770000      47.50310000      49.23670000
C       49.35380000      56.79750000      47.49930000
C       47.38280000      49.29650000      57.09900000
C       56.81160000      52.42230000      50.57050000
C       43.08580000      52.58830000      49.36090000
C       43.47240000      47.54240000      50.76690000
C       49.16480000      42.84720000      52.58420000
C       50.73040000      43.02040000      47.59250000
C       50.56640000      57.09350000      52.56190000
C       47.56020000      50.81430000      42.96060000
C       52.40970000      50.73740000      56.49120000
C       52.63870000      49.17760000      42.86780000
C       43.51780000      47.58030000      49.31740000
C       50.79440000      56.83510000      47.52690000
C       52.41760000      49.28770000      56.50400000
C       43.16110000      52.53330000      50.80810000
C       56.68470000      52.41320000      49.13270000
C       56.91710000      47.50760000      50.67520000
C       50.60690000      42.89330000      52.64080000
C       49.30680000      42.98190000      47.58140000
C       49.12680000      57.12470000      52.52580000
C       52.68560000      50.62600000      42.83590000
C       47.37800000      50.74770000      57.11530000
C       47.53180000      49.37640000      43.02550000
