240
Lattice="100.0 0.0 0.0 0.0 100.0 0.0 0.0 0.0 100.0" Properties=species:S:1:pos:R:3 name=C-97510-5923-1189 pressure=-2.20488842274052 spacegroup=Td times_found=1 energy=-1773.62151474971 pbc="T T T"
C       51.79250000      49.24730000      56.12160000
C       49.25160000      56.12130000      51.79530000
C       56.12230000      51.79160000      49.25100000
C       48.20460000      50.75050000      56.12100000
C       51.79610000      50.75110000      43.87930000
C       48.20680000      49.25120000      43.87810000
C       50.74750000      43.87800000      51.79340000
C       49.24680000      43.87940000      48.20440000
C       50.75400000      56.12130000      48.20700000
C       43.87800000      48.20860000      49.24750000
C       56.12030000      48.20270000      50.75190000
C       43.87930000      51.79700000      50.74960000
C       49.24860000      51.79360000      56.12150000
C       56.12050000      49.24610000      51.79570000
C       51.79730000      56.12060000      49.25080000
C       50.74850000      48.20420000      56.12120000
C       50.75310000      51.79510000      43.87920000
C       49.24990000      48.20710000      43.87820000
C       43.87860000      50.75330000      51.79300000
C       43.87880000      49.25240000      48.20410000
C       56.12210000      50.74830000      48.20720000
C       48.20300000      43.87970000      49.24770000
C       48.20830000      56.12200000      50.75150000
C       51.79130000      43.87770000      50.75010000
C       55.03040000      51.07420000      52.98160000
C       51.07720000      52.97880000      55.03140000
C       52.98230000      55.02900000      51.07870000
C       44.96820000      48.92470000      52.97880000
C       55.03080000      48.92120000      47.02080000
C       44.97060000      51.07990000      47.01880000
C       48.92040000      47.01940000      55.02980000
C       51.07690000      47.02020000      44.96910000
C       48.92550000      52.98160000      44.96970000
C       47.01720000      44.97060000      51.07540000
C       52.97810000      44.96820000      48.92270000
C       47.02240000      55.03220000      48.92320000
C       51.07870000      55.02960000      52.98140000
C       52.97950000      51.07470000      55.03150000
C       55.03170000      52.97770000      51.07880000
C       48.91990000      44.96930000      52.97900000
C       48.92600000      55.03170000      47.02050000
C       51.07540000      44.96940000      47.01910000
C       47.01810000      48.92340000      55.02970000
C       47.02150000      51.07930000      44.96890000
C       52.98090000      48.92250000      44.96990000
C       44.96770000      47.02190000      51.07530000
C       44.97100000      52.98270000      48.92230000
C       55.02950000      47.01770000      48.92360000
C       45.69560000      50.44350000      56.27850000
C       50.44660000      56.28000000      45.69810000
C       56.27740000      45.69390000      50.44330000
C       54.30140000      49.55420000      56.28040000
C       45.69820000      49.56050000      43.71940000
C       54.30480000      50.44180000      43.72160000
C       49.55550000      43.72150000      45.69560000
C       50.43870000      43.71950000      54.30210000
C       49.55920000      56.27890000      54.30420000
C       43.72240000      54.30590000      50.44190000
C       56.28160000      54.30030000      49.55960000
C       43.71870000      45.69990000      49.55510000
C       50.43920000      45.69550000      56.27880000
C       56.28070000      50.44050000      45.69840000
C       45.69970000      56.28140000      50.44280000
C       49.55790000      54.30220000      56.28010000
C       49.55690000      45.69820000      43.71960000
C       50.44610000      54.30410000      43.72140000
C       43.72140000      49.56110000      45.69530000
C       43.71970000      50.44480000      54.30170000
C       56.27820000      49.55370000      54.30450000
C       54.30010000      43.71850000      50.44250000
C       54.30610000      56.27750000      49.55950000
C       45.69410000      43.72260000      49.55520000
C       55.27540000      49.46950000      45.75140000
C       49.46800000      45.74950000      55.27370000
C       45.75280000      55.27670000      49.47120000
C       44.72660000      50.53200000      45.74910000
C       55.27390000      50.52560000      54.25110000
C       44.72410000      49.47290000      54.24840000
C       50.52950000      54.24860000      55.27560000
C       49.47440000      54.25100000      44.72600000
C       50.52810000      45.75090000      44.72470000
C       54.24750000      44.72350000      49.47120000
C       45.74760000      44.72720000      50.52680000
C       54.25210000      55.27260000      50.53080000
C       49.47460000      55.27570000      45.75110000
C       45.74870000      49.47220000      55.27350000
C       55.27280000      45.74790000      49.47170000
C       50.52740000      44.72590000      45.74940000
C       50.53020000      55.27360000      54.25090000
C       49.46770000      44.72480000      54.24870000
C       54.24880000      50.52590000      55.27580000
C       54.25080000      49.47020000      44.72630000
C       45.75170000      50.53170000      44.72440000
C       44.72740000      54.25230000      49.47070000
C       44.72330000      45.75260000      50.52680000
C       55.27650000      54.24720000      50.53080000
C       52.01270000      53.97770000      52.98680000
C       53.98010000      52.98340000      52.01310000
C       52.98560000      52.00950000      53.98020000
C       47.98580000      46.02120000      52.98440000
C       52.01050000      46.02050000      47.01420000
C       47.99090000      53.98060000      47.01470000
C       46.01900000      47.01590000      52.01010000
C       53.97830000      47.01290000      47.98880000
C       46.02270000      52.98780000      47.98800000
C       47.01250000      47.98900000      53.97810000
C       52.98560000      47.98770000      46.02120000
C       47.01630000      52.01370000      46.02050000
C       53.97940000      52.00920000      52.98690000
C       52.98700000      53.97740000      52.01300000
C       52.01210000      52.98390000      53.98020000
C       46.01920000      47.98970000      52.98430000
C       46.02250000      52.01400000      47.01380000
C       53.97890000      47.98710000      47.01500000
C       47.01210000      46.02180000      52.01020000
C       47.01670000      53.98090000      47.98840000
C       52.98420000      46.01980000      47.98840000
C       47.98610000      47.01460000      53.97810000
C       47.99070000      52.98720000      46.02090000
C       52.01120000      47.01420000      46.02080000
C       55.67170000      48.26610000      49.32100000
C       48.26690000      49.31970000      55.67180000
C       49.32300000      55.67300000      48.26950000
C       44.32860000      51.73410000      49.31900000
C       55.67300000      51.72860000      50.68170000
C       44.32670000      48.27110000      50.67840000
C       51.73040000      50.67820000      55.67290000
C       48.27030000      50.68190000      44.32730000
C       51.73240000      49.32020000      44.32790000
C       50.67780000      44.32760000      48.26770000
C       49.31690000      44.32760000      51.73020000
C       50.68220000      55.67170000      51.73260000
C       48.27140000      55.67330000      49.32060000
C       49.31780000      48.26790000      55.67190000
C       55.67250000      49.31770000      48.26980000
C       51.72890000      44.32690000      49.31940000
C       51.73390000      55.67150000      50.68150000
C       48.26580000      44.32830000      50.67860000
C       50.67950000      51.73000000      55.67290000
C       50.68060000      48.26930000      44.32750000
C       49.32210000      51.73280000      44.32780000
C       44.32830000      50.68300000      48.26740000
C       44.32690000      49.32230000      51.72990000
C       55.67230000      50.67710000      51.73290000
C       56.24810000      53.60510000      47.37470000
C       53.60480000      47.36970000      56.24620000
C       47.37460000      56.24640000      53.60800000
C       43.75310000      46.39590000      47.37040000
C       56.24350000      46.38910000      52.62830000
C       43.75520000      53.60990000      52.62660000
C       46.39220000      52.62800000      56.24540000
C       53.61020000      52.62690000      43.75550000
C       46.39280000      47.37530000      43.75280000
C       52.62370000      43.75230000      53.60700000
C       47.37050000      43.75610000      46.39070000
C       52.63120000      56.24530000      46.39430000
C       53.61100000      56.24460000      47.37450000
C       47.37270000      53.60760000      56.24590000
C       56.24370000      47.36900000      53.60850000
C       46.39020000      43.75630000      47.37050000
C       46.39480000      56.24700000      52.62780000
C       53.60400000      43.75200000      52.62720000
C       52.62430000      46.39010000      56.24580000
C       52.63060000      53.60740000      43.75550000
C       47.37230000      46.39490000      43.75290000
C       43.75450000      52.62970000      53.60650000
C       43.75380000      47.37610000      46.39050000
C       56.24790000      52.62520000      46.39450000
C       44.95140000      47.37070000      43.90290000
C       47.36570000      43.90670000      44.94940000
C       43.90290000      44.95450000      47.36490000
C       55.05150000      52.63150000      43.90630000
C       44.95090000      52.63390000      56.09470000
C       55.04620000      47.36380000      56.09610000
C       52.63670000      56.09510000      44.95290000
C       47.36890000      56.09570000      55.04930000
C       52.62870000      43.90250000      55.04830000
C       56.09840000      55.04650000      47.36960000
C       43.90630000      55.05120000      52.63220000
C       56.09240000      44.94790000      52.63320000
C       47.36640000      44.95350000      43.90300000
C       43.90460000      47.37100000      44.94920000
C       44.94900000      43.90740000      47.36500000
C       52.63650000      55.04870000      43.90620000
C       52.62890000      44.94880000      56.09510000
C       47.36820000      55.04890000      56.09570000
C       56.09780000      52.63080000      44.95310000
C       56.09300000      47.36350000      55.04980000
C       43.90460000      52.63460000      55.04790000
C       55.05230000      56.09350000      47.36960000
C       55.04540000      43.90180000      52.63280000
C       44.95340000      56.09720000      52.63260000
C       53.13360000      56.33980000      48.75420000
C       56.33970000      48.74880000      53.13170000
C       48.75230000      53.12980000      56.34130000
C       46.86700000      43.66060000      48.75040000
C       53.12720000      43.65730000      51.24730000
C       46.87230000      56.34220000      51.24810000
C       43.65880000      51.25000000      53.12910000
C       56.34230000      51.24530000      46.87130000
C       43.65910000      48.75580000      46.86790000
C       51.24470000      46.86790000      56.34070000
C       48.75240000      46.87140000      43.65810000
C       51.25060000      53.13100000      43.65980000
C       56.34280000      53.12770000      48.75440000
C       48.75450000      56.34100000      53.13130000
C       53.12830000      48.74970000      56.34150000
C       43.65780000      46.87280000      48.75020000
C       43.66010000      53.13310000      51.24680000
C       56.33930000      46.86640000      51.24860000
C       51.24400000      43.65780000      53.12950000
C       51.25140000      56.34100000      46.87110000
C       48.75010000      43.66010000      46.86810000
C       46.86870000      51.24800000      56.34050000
C       46.87050000      48.75490000      43.65800000
C       53.13250000      51.24740000      43.65990000
C       51.26120000      56.44540000      44.54490000
C       56.44220000      44.54020000      51.25750000
C       44.54250000      51.25830000      56.44390000
C       48.74140000      43.55660000      44.54190000
C       51.25270000      43.55340000      55.45570000
C       48.74480000      56.44460000      55.45750000
C       43.55720000      55.45930000      51.25640000
C       56.44780000      55.45380000      48.74560000
C       43.55280000      44.54660000      48.74050000
C       55.45450000      48.73940000      56.44610000
C       44.54440000      48.74680000      43.55350000
C       55.45870000      51.25560000      43.55650000
C       56.44690000      51.25500000      44.54520000
C       44.54610000      56.44730000      51.25680000
C       51.25290000      44.54160000      56.44430000
C       43.55570000      48.74700000      44.54170000
C       43.55430000      51.25890000      55.45530000
C       56.44310000      48.73910000      55.45790000
C       55.45330000      43.55230000      51.25700000
C       55.45990000      56.44270000      48.74550000
C       44.54070000      43.55780000      48.74060000
C       48.74410000      55.45600000      56.44570000
C       48.74210000      44.54520000      43.55370000
C       51.26100000      55.45720000      43.55630000
