240
Lattice="100.0 0.0 0.0 0.0 100.0 0.0 0.0 0.0 100.0" Properties=species:S:1:pos:R:3 name=C-97510-5923-314 pressure=-25.7083199109629 spacegroup=Th times_found=1 energy=-1663.38622632143 pbc="T T T"
C       45.65590000      51.98920000      54.30650000
C       51.98830000      54.30590000      45.65490000
C       54.30650000      45.65580000      51.98880000
C       54.34510000      48.01150000      54.30580000
C       45.65500000      48.01060000      45.69450000
C       54.34390000      51.98870000      45.69320000
C       48.01060000      45.69350000      45.65600000
C       51.98960000      45.69420000      54.34460000
C       48.01150000      54.30640000      54.34440000
C       45.69400000      54.34450000      51.98920000
C       54.30580000      54.34450000      48.01020000
C       45.69370000      45.65520000      48.01190000
C       45.65490000      51.98850000      45.69420000
C       51.98940000      54.30650000      54.34400000
C       54.30600000      45.65550000      48.01080000
C       54.34400000      48.01080000      45.69350000
C       45.65610000      48.01120000      54.30680000
C       54.34500000      51.98940000      54.30550000
C       48.01170000      45.69410000      54.34510000
C       51.98850000      45.69360000      45.65560000
C       48.01040000      54.30580000      45.65540000
C       45.69350000      54.34430000      48.01120000
C       54.30630000      54.34480000      51.98810000
C       45.69420000      45.65550000      51.98980000
C       52.95290000      44.98190000      52.04490000
C       44.98200000      52.04500000      52.95300000
C       52.04420000      52.95230000      44.98120000
C       47.04750000      55.01840000      52.04480000
C       52.95220000      55.01830000      47.95440000
C       47.04730000      44.98140000      47.95590000
C       55.01870000      47.95550000      52.95210000
C       44.98140000      47.95480000      47.04820000
C       55.01790000      52.04480000      47.04670000
C       47.95460000      47.04700000      44.98210000
C       52.04550000      47.04790000      55.01830000
C       47.95570000      52.95290000      55.01840000
C       52.95240000      44.98160000      47.95520000
C       44.98120000      52.04450000      47.04790000
C       52.04540000      52.95300000      55.01790000
C       47.04710000      55.01810000      47.95510000
C       52.95270000      55.01860000      52.04410000
C       47.04780000      44.98170000      52.04560000
C       55.01800000      47.95500000      47.04700000
C       44.98210000      47.95520000      52.95330000
C       55.01860000      52.04520000      52.95180000
C       47.95580000      47.04780000      55.01880000
C       52.04430000      47.04710000      44.98160000
C       47.95450000      52.95210000      44.98170000
C       50.70240000      45.74710000      56.41200000
C       45.74660000      56.41170000      50.70160000
C       56.41130000      50.70140000      45.74580000
C       49.29910000      54.25380000      56.41160000
C       50.70060000      54.25290000      43.58780000
C       49.29780000      45.74610000      43.58860000
C       54.25360000      43.58840000      50.70150000
C       45.74670000      43.58810000      49.29950000
C       54.25310000      56.41180000      49.29750000
C       43.58770000      49.29800000      45.74750000
C       56.41230000      49.29900000      54.25260000
C       43.58870000      50.70170000      54.25410000
C       50.70090000      45.74620000      43.58840000
C       45.74640000      56.41160000      49.29850000
C       56.41230000      50.70200000      54.25250000
C       49.29760000      54.25290000      43.58800000
C       50.70220000      54.25390000      56.41140000
C       49.29940000      45.74710000      56.41220000
C       54.25340000      43.58830000      49.29840000
C       45.74690000      43.58820000      50.70250000
C       54.25330000      56.41190000      50.70050000
C       43.58870000      49.29860000      54.25420000
C       56.41130000      49.29830000      45.74590000
C       43.58770000      50.70110000      45.74740000
C       46.36800000      54.57980000      54.64040000
C       54.57900000      54.64020000      46.36670000
C       54.64100000      46.36800000      54.57920000
C       53.63310000      45.42090000      54.64020000
C       46.36710000      45.42010000      45.36050000
C       53.63180000      54.57930000      45.35890000
C       45.42020000      45.35930000      46.36850000
C       54.58010000      45.36010000      53.63220000
C       45.42080000      54.64050000      53.63260000
C       45.36010000      53.63270000      54.57980000
C       54.63970000      53.63220000      45.41960000
C       45.35920000      46.36710000      45.42130000
C       46.36690000      54.57910000      45.35980000
C       54.57980000      54.64070000      53.63150000
C       54.63990000      46.36740000      45.42020000
C       53.63200000      45.42020000      45.35960000
C       46.36830000      45.42070000      54.64110000
C       53.63290000      54.58000000      54.63950000
C       45.42100000      45.35980000      53.63330000
C       54.57920000      45.35950000      46.36740000
C       45.41990000      54.63990000      46.36780000
C       45.35900000      53.63200000      45.42080000
C       54.64080000      53.63290000      54.57870000
C       45.36030000      46.36780000      54.58030000
C       50.73940000      45.07510000      44.87490000
C       45.07570000      44.87460000      50.74090000
C       44.87410000      50.73940000      45.07600000
C       49.25930000      54.92420000      44.87440000
C       50.74040000      54.92500000      55.12490000
C       49.26080000      45.07580000      55.12580000
C       54.92450000      55.12550000      50.73900000
C       45.07520000      55.12520000      49.26030000
C       54.92460000      44.87470000      49.25990000
C       55.12480000      49.25980000      45.07490000
C       44.87530000      49.26030000      54.92520000
C       55.12590000      50.74040000      54.92390000
C       50.74070000      45.07580000      55.12560000
C       45.07550000      44.87450000      49.26100000
C       44.87520000      50.74020000      54.92510000
C       49.26060000      54.92490000      55.12510000
C       50.73920000      54.92420000      44.87420000
C       49.25960000      45.07500000      44.87510000
C       54.92430000      55.12540000      49.25910000
C       45.07540000      55.12530000      50.74010000
C       54.92480000      44.87490000      50.73970000
C       55.12590000      49.26060000      54.92400000
C       44.87410000      49.25960000      45.07610000
C       55.12470000      50.73970000      45.07480000
C       48.65630000      53.00000000      56.23780000
C       52.99930000      56.23780000      48.65480000
C       56.23820000      48.65610000      52.99900000
C       51.34520000      47.00090000      56.23790000
C       48.65500000      46.99990000      43.76250000
C       51.34350000      52.99920000      43.76180000
C       47.00040000      43.76200000      48.65650000
C       52.99990000      43.76230000      51.34440000
C       47.00040000      56.23790000      51.34420000
C       43.76250000      51.34440000      53.00030000
C       56.23750000      51.34430000      46.99950000
C       43.76180000      48.65530000      47.00120000
C       48.65480000      52.99910000      43.76210000
C       52.99960000      56.23800000      51.34350000
C       56.23750000      48.65560000      46.99970000
C       51.34370000      47.00000000      43.76220000
C       48.65650000      47.00080000      56.23820000
C       51.34500000      53.00010000      56.23750000
C       47.00070000      43.76220000      51.34510000
C       52.99960000      43.76210000      48.65580000
C       47.00010000      56.23770000      48.65560000
C       43.76180000      51.34390000      47.00100000
C       56.23820000      51.34470000      52.99880000
C       43.76250000      48.65570000      53.00050000
C       49.27040000      48.16670000      43.22130000
C       48.16730000      43.22090000      49.27190000
C       43.22090000      49.27090000      48.16800000
C       50.72800000      51.83230000      43.22080000
C       49.27190000      51.83330000      56.77890000
C       50.72970000      48.16770000      56.77900000
C       51.83260000      56.77890000      49.27040000
C       48.16710000      56.77890000      50.72860000
C       51.83310000      43.22120000      50.72910000
C       56.77870000      50.72890000      48.16630000
C       43.22130000      50.72880000      51.83360000
C       56.77920000      49.27150000      51.83210000
C       49.27200000      48.16770000      56.77920000
C       48.16740000      43.22110000      50.72960000
C       43.22130000      49.27110000      51.83370000
C       50.72960000      51.83330000      56.77870000
C       49.27030000      51.83230000      43.22100000
C       50.72810000      48.16670000      43.22110000
C       51.83270000      56.77900000      50.72810000
C       48.16690000      56.77880000      49.27090000
C       51.83290000      43.22100000      49.27140000
C       56.77910000      50.72910000      51.83200000
C       43.22080000      50.72850000      48.16790000
C       56.77870000      49.27120000      48.16640000
C       51.87930000      54.81590000      52.96370000
C       54.81580000      52.96460000      51.87830000
C       52.96480000      51.87950000      54.81510000
C       48.12140000      45.18450000      52.96490000
C       51.87890000      45.18420000      47.03580000
C       48.12040000      54.81540000      47.03560000
C       45.18470000      47.03570000      51.87990000
C       54.81550000      47.03570000      48.12050000
C       45.18410000      52.96400000      48.12130000
C       47.03630000      48.12120000      54.81610000
C       52.96380000      48.12060000      45.18410000
C       47.03510000      51.87870000      45.18460000
C       51.87860000      54.81550000      47.03510000
C       54.81530000      52.96430000      48.12010000
C       52.96370000      51.87880000      45.18390000
C       48.12070000      45.18410000      47.03630000
C       51.87960000      45.18460000      52.96440000
C       48.12110000      54.81580000      52.96420000
C       45.18420000      47.03540000      48.12170000
C       54.81590000      47.03600000      51.87870000
C       45.18450000      52.96430000      51.87950000
C       47.03520000      48.12050000      45.18490000
C       52.96490000      48.12130000      54.81540000
C       47.03620000      51.87940000      54.81580000
C       48.54030000      49.28680000      43.53190000
C       49.28730000      43.53150000      48.54160000
C       43.53170000      48.54080000      49.28820000
C       51.45820000      50.71230000      43.53150000
C       48.54180000      50.71320000      56.46840000
C       51.45980000      49.28780000      56.46820000
C       50.71240000      56.46820000      48.54050000
C       49.28730000      56.46840000      51.45860000
C       50.71310000      43.53180000      51.45940000
C       56.46820000      51.45910000      49.28640000
C       43.53170000      51.45880000      50.71340000
C       56.46840000      48.54130000      50.71200000
C       48.54180000      49.28770000      56.46850000
C       49.28760000      43.53180000      51.45950000
C       43.53180000      48.54090000      50.71360000
C       51.45970000      50.71320000      56.46810000
C       48.54030000      50.71220000      43.53180000
C       51.45820000      49.28680000      43.53160000
C       50.71270000      56.46840000      51.45840000
C       49.28690000      56.46820000      48.54060000
C       50.71270000      43.53160000      48.54140000
C       56.46830000      51.45920000      50.71180000
C       43.53160000      51.45870000      49.28800000
C       56.46830000      48.54120000      49.28660000
C       55.48200000      47.45950000      49.27590000
C       47.46010000      49.27670000      55.48240000
C       49.27590000      55.48180000      47.45910000
C       44.51780000      52.54040000      49.27680000
C       55.48200000      52.54080000      50.72280000
C       44.51810000      47.45930000      50.72450000
C       52.54120000      50.72420000      55.48170000
C       47.45870000      50.72320000      44.51820000
C       52.54000000      49.27600000      44.51770000
C       50.72350000      44.51780000      47.45970000
C       49.27680000      44.51810000      52.54110000
C       50.72380000      55.48220000      52.54010000
C       55.48220000      47.45960000      50.72320000
C       47.45880000      49.27590000      44.51830000
C       49.27650000      55.48220000      52.54030000
C       44.51800000      52.54050000      50.72410000
C       55.48190000      52.54070000      49.27550000
C       44.51800000      47.45920000      49.27720000
C       52.53990000      50.72330000      44.51760000
C       47.46000000      50.72400000      55.48230000
C       52.54130000      49.27680000      55.48180000
C       50.72410000      44.51820000      52.54090000
C       49.27620000      44.51770000      47.45990000
C       50.72320000      55.48190000      47.45890000
