240
Lattice="100.0 0.0 0.0 0.0 100.0 0.0 0.0 0.0 100.0" Properties=species:S:1:pos:R:3 name=C-97510-5923-377 pressure=-94.1131573787092 energy=-1865.40731348342 spacegroup=Oh times_found=1 pbc="T T T"
C       56.39090000      52.96710000      48.65280000
C       48.65400000      56.39060000      52.96840000
C       52.96810000      48.65220000      56.39030000
C       43.60990000      52.96860000      51.34760000
C       56.39030000      47.03120000      51.34640000
C       43.60890000      47.03300000      48.65320000
C       51.34760000      56.39060000      47.03250000
C       48.65200000      43.60980000      47.03180000
C       51.34630000      43.60900000      52.96730000
C       47.03160000      48.65380000      43.60950000
C       52.96770000      51.34710000      43.60930000
C       47.03270000      51.34690000      56.39090000
C       56.39010000      47.03140000      48.65240000
C       48.65240000      43.60940000      52.96750000
C       52.96840000      51.34620000      56.39050000
C       43.60910000      47.03290000      51.34720000
C       56.39110000      52.96700000      51.34680000
C       43.60970000      52.96880000      48.65360000
C       51.34600000      43.60940000      47.03160000
C       48.65370000      56.39100000      47.03270000
C       51.34800000      56.39020000      52.96820000
C       47.03190000      51.34780000      43.60970000
C       52.96730000      48.65310000      43.60910000
C       47.03230000      48.65290000      56.39070000
C       50.70000000      48.25200000      56.82420000
C       56.82440000      50.69910000      48.25220000
C       48.25350000      56.82460000      50.70040000
C       49.29950000      48.25310000      43.17550000
C       50.69960000      51.74780000      43.17570000
C       49.30080000      51.74710000      56.82460000
C       43.17580000      50.70060000      51.74790000
C       56.82440000      49.29920000      51.74700000
C       43.17540000      49.30120000      48.25290000
C       51.74830000      56.82420000      49.30060000
C       48.25160000      43.17590000      49.29980000
C       51.74660000      43.17530000      50.69920000
C       50.70050000      51.74690000      56.82450000
C       56.82420000      49.29940000      48.25210000
C       48.25170000      43.17580000      50.69940000
C       49.30000000      51.74800000      43.17580000
C       50.69920000      48.25290000      43.17540000
C       49.30040000      48.25220000      56.82430000
C       43.17560000      49.30090000      51.74780000
C       56.82460000      50.69880000      51.74710000
C       43.17560000      50.70080000      48.25300000
C       51.74650000      43.17540000      49.29960000
C       48.25340000      56.82470000      49.30080000
C       51.74840000      56.82410000      50.70020000
C       45.39330000      54.60790000      47.16280000
C       47.16190000      45.39290000      54.60700000
C       54.60650000      47.16190000      45.39240000
C       54.60790000      54.60630000      52.83780000
C       45.39250000      45.39330000      52.83770000
C       54.60630000      45.39250000      47.16160000
C       52.83690000      45.39280000      45.39240000
C       47.16250000      54.60780000      45.39340000
C       52.83870000      54.60640000      54.60730000
C       45.39280000      47.16250000      54.60720000
C       54.60770000      52.83690000      54.60700000
C       45.39300000      52.83870000      45.39340000
C       45.39210000      45.39370000      47.16220000
C       47.16310000      54.60720000      54.60760000
C       54.60720000      52.83750000      45.39280000
C       54.60670000      45.39210000      52.83720000
C       45.39360000      54.60750000      52.83840000
C       54.60750000      54.60670000      47.16230000
C       52.83810000      54.60710000      45.39300000
C       47.16130000      45.39360000      45.39270000
C       52.83750000      45.39220000      54.60660000
C       45.39350000      52.83810000      54.60760000
C       54.60700000      47.16130000      54.60660000
C       45.39220000      47.16310000      45.39300000
C       54.91630000      54.91480000      51.46500000
C       51.46590000      54.91500000      54.91580000
C       54.91600000      51.46390000      54.91540000
C       45.08500000      54.91630000      48.53570000
C       54.91480000      45.08390000      48.53440000
C       45.08390000      45.08500000      51.46490000
C       48.53540000      54.91610000      45.08490000
C       51.46400000      45.08460000      45.08400000
C       48.53470000      45.08430000      54.91530000
C       45.08430000      51.46590000      45.08480000
C       54.91510000      48.53480000      45.08400000
C       45.08450000      48.53540000      54.91580000
C       54.91500000      45.08370000      51.46430000
C       51.46460000      45.08390000      54.91510000
C       54.91570000      48.53410000      54.91520000
C       45.08370000      45.08520000      48.53500000
C       54.91610000      54.91500000      48.53510000
C       45.08510000      54.91610000      51.46560000
C       48.53410000      45.08500000      45.08420000
C       51.46530000      54.91570000      45.08470000
C       48.53600000      54.91540000      54.91600000
C       45.08400000      48.53600000      45.08460000
C       54.91550000      51.46460000      45.08420000
C       45.08490000      51.46520000      54.91600000
C       55.20040000      53.45700000      53.45790000
C       53.45880000      55.19910000      53.45810000
C       53.45870000      53.45710000      55.19980000
C       44.80050000      53.45880000      46.54260000
C       55.19910000      46.54170000      46.54150000
C       44.80000000      46.54250000      53.45800000
C       46.54250000      55.20050000      46.54270000
C       53.45700000      44.80000000      46.54150000
C       46.54160000      44.80040000      53.45780000
C       46.54220000      53.45870000      44.80070000
C       53.45720000      46.54200000      44.79980000
C       46.54190000      46.54220000      55.19970000
C       55.19950000      46.54120000      53.45740000
C       53.45750000      44.79950000      53.45730000
C       53.45780000      46.54130000      55.19930000
C       44.79960000      46.54300000      46.54210000
C       55.20000000      53.45750000      46.54200000
C       44.80090000      53.45840000      53.45850000
C       46.54120000      44.80090000      46.54190000
C       53.45840000      55.19960000      46.54220000
C       46.54300000      55.20000000      53.45850000
C       46.54130000      46.54290000      44.80020000
C       53.45810000      53.45780000      44.80030000
C       46.54280000      53.45800000      55.20020000
C       49.28620000      55.80450000      54.07850000
C       54.07830000      49.28430000      55.80440000
C       55.80520000      54.07730000      49.28510000
C       50.71530000      55.80490000      45.92230000
C       49.28420000      44.19570000      45.92160000
C       50.71430000      44.19490000      54.07760000
C       45.92150000      49.28610000      44.19550000
C       54.07780000      50.71470000      44.19510000
C       45.92240000      50.71490000      55.80500000
C       44.19580000      54.07870000      50.71540000
C       55.80420000      45.92120000      50.71420000
C       44.19470000      45.92280000      49.28520000
C       49.28470000      44.19510000      54.07770000
C       54.07850000      50.71390000      55.80450000
C       55.80410000      45.92130000      49.28460000
C       50.71380000      44.19550000      45.92150000
C       49.28570000      55.80510000      45.92240000
C       50.71580000      55.80430000      54.07840000
C       45.92170000      50.71570000      44.19560000
C       54.07760000      49.28510000      44.19500000
C       45.92220000      49.28530000      55.80490000
C       44.19480000      45.92270000      50.71490000
C       55.80530000      54.07720000      50.71470000
C       44.19580000      54.07880000      49.28580000
C       54.07720000      44.19480000      49.28450000
C       49.28540000      54.07850000      44.19560000
C       44.19540000      49.28570000      54.07830000
C       45.92130000      44.19580000      50.71460000
C       54.07880000      55.80410000      50.71500000
C       45.92270000      55.80530000      49.28590000
C       50.71570000      54.07750000      55.80500000
C       49.28500000      45.92170000      55.80450000
C       50.71390000      45.92230000      44.19490000
C       55.80440000      49.28470000      45.92160000
C       44.19510000      50.71580000      45.92240000
C       55.80510000      50.71380000      54.07770000
C       54.07870000      55.80430000      49.28540000
C       49.28430000      45.92250000      44.19500000
C       44.19560000      50.71530000      54.07840000
C       45.92280000      55.80520000      50.71550000
C       54.07730000      44.19470000      50.71420000
C       45.92120000      44.19590000      49.28500000
C       50.71460000      45.92150000      55.80440000
C       49.28610000      54.07770000      55.80510000
C       50.71500000      54.07830000      44.19550000
C       55.80460000      50.71430000      45.92170000
C       44.19490000      49.28620000      45.92230000
C       55.80490000      49.28420000      54.07760000
C       56.82420000      48.25160000      50.69930000
C       50.70060000      56.82440000      48.25300000
C       48.25300000      50.69960000      56.82460000
C       43.17530000      48.25350000      49.30050000
C       56.82460000      51.74660000      49.29990000
C       43.17590000      51.74830000      50.70040000
C       49.30120000      56.82440000      51.74800000
C       50.69900000      43.17540000      51.74690000
C       49.29920000      43.17580000      48.25210000
C       51.74710000      50.70010000      43.17550000
C       48.25210000      49.30090000      43.17570000
C       51.74780000      49.29950000      56.82420000
C       56.82470000      51.74650000      50.69950000
C       50.69880000      43.17560000      48.25200000
C       48.25290000      49.29990000      56.82450000
C       43.17580000      51.74840000      49.30070000
C       56.82410000      48.25170000      49.29960000
C       43.17540000      48.25340000      50.70010000
C       49.29940000      43.17560000      51.74700000
C       50.70080000      56.82420000      51.74790000
C       49.30100000      56.82460000      48.25310000
C       51.74700000      49.30040000      43.17540000
C       48.25220000      50.70050000      43.17580000
C       51.74790000      50.69910000      56.82430000
C       52.96700000      43.60910000      48.65240000
C       48.65300000      52.96850000      43.60970000
C       43.60940000      48.65360000      52.96820000
C       47.03140000      43.60970000      51.34670000
C       52.96880000      56.39010000      51.34730000
C       47.03290000      56.39110000      48.65360000
C       51.34780000      52.96720000      56.39070000
C       48.65300000      47.03180000      56.39050000
C       51.34620000      47.03240000      43.60910000
C       56.39020000      48.65240000      47.03160000
C       43.60940000      51.34800000      47.03260000
C       56.39090000      51.34600000      52.96760000
C       52.96860000      56.39030000      48.65330000
C       48.65220000      47.03270000      43.60930000
C       43.60980000      51.34760000      52.96840000
C       47.03300000      56.39090000      51.34760000
C       52.96710000      43.60890000      51.34640000
C       47.03120000      43.60990000      48.65270000
C       51.34700000      47.03150000      56.39030000
C       48.65380000      52.96760000      56.39090000
C       51.34700000      52.96820000      43.60950000
C       56.39060000      51.34640000      47.03180000
C       43.60900000      48.65400000      47.03240000
C       56.39060000      48.65200000      52.96740000
C       47.28940000      47.28930000      56.12130000
C       56.12080000      47.28880000      47.28880000
C       47.29000000      56.12190000      47.29000000
C       52.70990000      47.28950000      43.87830000
C       47.28940000      52.71140000      43.87900000
C       52.71130000      52.70980000      56.12140000
C       43.87850000      47.29000000      52.71080000
C       56.12190000      52.70960000      52.71040000
C       43.87880000      52.71160000      47.28990000
C       52.71160000      56.12080000      52.71090000
C       47.28870000      43.87880000      52.71040000
C       52.70970000      43.87850000      47.28880000
C       47.29010000      52.71050000      56.12170000
C       56.12150000      52.71000000      47.28920000
C       47.28840000      43.87920000      47.28910000
C       52.71060000      52.71070000      43.87870000
C       47.28870000      47.29020000      43.87860000
C       52.71060000      47.28860000      56.12100000
C       43.87920000      52.71120000      52.71120000
C       56.12120000      47.28840000      52.71010000
C       43.87810000      47.29040000      47.28960000
C       52.71000000      43.87810000      52.71000000
C       47.29030000      56.12150000      52.71120000
C       52.71130000      56.12120000      47.28960000
