240
Lattice="100.0 0.0 0.0 0.0 100.0 0.0 0.0 0.0 100.0" Properties=species:S:1:pos:R:3 name=C-97510-5923-305 pressure=-0.0277977848767291 spacegroup=Td times_found=1 energy=-1700.04378361056 pbc="T T T"
C       55.03480000      51.38420000      53.91750000
C       51.38340000      53.91750000      55.03510000
C       53.91690000      55.03530000      51.38400000
C       44.96430000      48.61630000      53.91660000
C       55.03570000      48.61580000      46.08360000
C       44.96520000      51.38370000      46.08220000
C       48.61550000      46.08330000      55.03540000
C       51.38450000      46.08250000      44.96520000
C       48.61660000      53.91670000      44.96430000
C       46.08280000      44.96490000      51.38390000
C       53.91720000      44.96470000      48.61690000
C       46.08310000      55.03510000      48.61520000
C       51.38350000      55.03550000      53.91690000
C       53.91650000      51.38430000      55.03560000
C       55.03510000      53.91720000      51.38420000
C       48.61560000      44.96510000      53.91730000
C       48.61650000      55.03490000      46.08240000
C       51.38440000      44.96450000      46.08350000
C       46.08240000      48.61640000      55.03490000
C       46.08350000      51.38360000      44.96420000
C       53.91760000      48.61570000      44.96530000
C       44.96460000      46.08300000      51.38370000
C       44.96490000      53.91700000      48.61520000
C       55.03540000      46.08280000      48.61690000
C       56.46980000      50.34840000      52.28670000
C       50.34750000      52.28650000      56.46990000
C       52.28600000      56.47010000      50.34800000
C       43.52970000      49.65190000      52.28530000
C       56.47030000      49.65160000      47.71480000
C       43.53020000      50.34810000      47.71330000
C       49.65100000      47.71450000      56.47020000
C       50.34900000      47.71350000      43.53010000
C       49.65250000      52.28550000      43.52970000
C       47.71400000      43.53000000      50.34850000
C       52.28600000      43.52990000      49.65250000
C       47.71400000      56.47000000      49.65100000
C       50.34800000      56.47020000      52.28550000
C       52.28530000      50.34870000      56.47030000
C       56.47000000      52.28600000      50.34880000
C       49.65150000      43.53010000      52.28640000
C       49.65200000      56.46990000      47.71350000
C       50.34850000      43.52980000      47.71450000
C       47.71330000      49.65220000      56.46980000
C       47.71470000      50.34780000      43.52960000
C       52.28670000      49.65130000      43.53020000
C       43.52990000      47.71400000      50.34770000
C       43.53000000      52.28600000      49.65080000
C       56.47010000      47.71400000      49.65260000
C       49.26140000      54.45330000      56.42590000
C       54.45290000      56.42620000      49.26210000
C       56.42580000      49.26240000      54.45360000
C       50.73720000      45.54770000      56.42670000
C       49.26280000      45.54670000      43.57400000
C       50.73860000      54.45230000      43.57350000
C       45.54730000      43.57370000      49.26210000
C       54.45270000      43.57380000      50.73890000
C       45.54710000      56.42630000      50.73690000
C       43.57320000      50.73820000      54.45200000
C       56.42680000      50.73760000      45.54790000
C       43.57420000      49.26180000      45.54650000
C       54.45210000      49.26260000      56.42680000
C       56.42640000      54.45270000      49.26250000
C       49.26160000      56.42660000      54.45220000
C       45.54650000      50.73840000      56.42570000
C       45.54790000      49.26160000      43.57330000
C       54.45350000      50.73740000      43.57420000
C       43.57380000      45.54710000      49.26170000
C       43.57360000      54.45290000      50.73680000
C       56.42620000      45.54730000      50.73900000
C       50.73740000      43.57410000      54.45340000
C       50.73840000      56.42590000      45.54680000
C       49.26260000      43.57340000      45.54760000
C       48.45250000      47.39990000      55.57780000
C       47.39970000      55.57770000      48.45240000
C       55.57810000      48.45290000      47.40030000
C       51.54620000      52.60090000      55.57780000
C       48.45380000      52.60010000      44.42180000
C       51.54750000      47.39910000      44.42260000
C       52.60070000      44.42210000      48.45380000
C       47.39930000      44.42230000      51.54700000
C       52.60030000      55.57790000      51.54670000
C       44.42250000      51.54670000      47.39880000
C       55.57750000      51.54710000      52.60100000
C       44.42190000      48.45330000      52.60000000
C       47.39890000      48.45350000      55.57760000
C       55.57800000      47.39940000      48.45400000
C       48.45340000      55.57760000      47.39890000
C       52.59990000      51.54730000      55.57800000
C       52.60110000      48.45270000      44.42260000
C       47.40010000      51.54650000      44.42180000
C       44.42240000      52.60040000      48.45230000
C       44.42200000      47.39960000      51.54640000
C       55.57760000      52.60060000      51.54730000
C       51.54720000      44.42200000      47.40010000
C       51.54660000      55.57800000      52.60020000
C       48.45280000      44.42240000      52.60070000
C       51.00750000      43.17640000      49.99120000
C       43.17630000      49.99060000      51.00670000
C       49.99130000      51.00700000      43.17630000
C       48.99250000      56.82360000      49.98990000
C       51.00750000      56.82360000      50.00900000
C       48.99250000      43.17640000      50.00980000
C       56.82350000      50.00950000      51.00830000
C       43.17650000      50.00940000      48.99170000
C       56.82370000      49.99050000      48.99330000
C       50.01020000      48.99200000      43.17650000
C       49.98980000      48.99300000      56.82370000
C       50.00870000      51.00800000      56.82350000
C       43.17640000      51.00750000      49.98970000
C       49.99040000      43.17650000      51.00800000
C       51.00830000      49.99000000      43.17650000
C       56.82360000      48.99250000      49.99140000
C       56.82360000      51.00750000      50.01010000
C       43.17640000      48.99250000      50.00880000
C       50.00930000      56.82370000      51.00700000
C       50.00960000      43.17630000      48.99300000
C       49.99070000      56.82350000      48.99200000
C       48.99330000      50.00890000      43.17630000
C       48.99170000      49.99110000      56.82350000
C       51.00670000      50.01000000      56.82370000
C       44.23350000      50.42470000      45.21330000
C       50.42570000      45.21350000      44.23340000
C       45.21390000      44.23300000      50.42490000
C       55.76750000      49.57460000      45.21470000
C       44.23250000      49.57530000      54.78540000
C       55.76650000      50.42540000      54.78660000
C       49.57560000      54.78560000      44.23260000
C       50.42440000      54.78650000      55.76670000
C       49.57430000      45.21440000      55.76730000
C       54.78600000      55.76700000      50.42510000
C       45.21400000      55.76700000      49.57400000
C       54.78610000      44.23300000      49.57590000
C       50.42560000      44.23260000      45.21450000
C       45.21460000      50.42460000      44.23240000
C       44.23300000      45.21400000      50.42480000
C       49.57550000      55.76660000      45.21350000
C       49.57440000      44.23340000      54.78640000
C       50.42450000      55.76740000      54.78560000
C       54.78670000      49.57450000      44.23360000
C       54.78540000      50.42550000      55.76750000
C       45.21330000      49.57540000      55.76650000
C       55.76700000      54.78610000      50.42530000
C       55.76700000      45.21390000      49.57600000
C       44.23300000      54.78600000      49.57390000
C       44.64130000      46.69260000      45.65370000
C       46.69350000      45.65360000      44.64070000
C       45.65440000      44.64050000      46.69280000
C       55.35970000      53.30680000      45.65440000
C       44.64030000      53.30740000      54.34510000
C       55.35870000      46.69320000      54.34680000
C       53.30770000      54.34550000      44.64080000
C       46.69230000      54.34640000      55.35850000
C       53.30650000      45.65450000      55.35990000
C       54.34630000      55.35900000      46.69300000
C       45.65370000      55.35950000      53.30620000
C       54.34560000      44.64100000      53.30800000
C       46.69340000      44.64050000      45.65410000
C       45.65470000      46.69250000      44.64050000
C       44.64120000      45.65380000      46.69260000
C       53.30760000      55.35890000      45.65400000
C       53.30660000      44.64110000      54.34670000
C       46.69240000      55.35950000      54.34520000
C       54.34660000      53.30670000      44.64100000
C       54.34530000      46.69330000      55.36000000
C       45.65340000      53.30750000      55.35850000
C       55.35960000      54.34570000      46.69320000
C       55.35880000      45.65430000      53.30800000
C       44.64040000      54.34620000      53.30620000
C       56.95720000      50.62680000      46.86090000
C       50.62630000      46.86070000      56.95710000
C       46.86010000      56.95690000      50.62620000
C       43.04350000      49.37270000      46.85940000
C       56.95650000      49.37320000      53.14070000
C       43.04280000      50.62730000      53.13900000
C       49.37220000      53.14040000      56.95650000
C       50.62780000      53.13930000      43.04300000
C       49.37370000      46.85960000      43.04340000
C       53.13980000      43.04320000      50.62790000
C       46.86020000      43.04310000      49.37310000
C       53.13990000      56.95680000      49.37280000
C       50.62740000      56.95660000      46.85970000
C       46.85940000      50.62760000      56.95640000
C       56.95670000      46.86020000      50.62810000
C       49.37330000      43.04290000      46.86060000
C       49.37260000      56.95710000      53.13930000
C       50.62670000      43.04340000      53.14040000
C       53.13910000      49.37350000      56.95720000
C       53.14060000      50.62650000      43.04350000
C       46.86090000      49.37240000      43.04290000
C       43.04310000      53.13990000      50.62600000
C       43.04330000      46.86010000      49.37240000
C       56.95690000      53.13980000      49.37350000
C       52.23740000      43.70460000      54.24460000
C       43.70400000      54.24410000      52.23690000
C       54.24460000      52.23740000      43.70460000
C       47.76160000      56.29600000      54.24320000
C       52.23840000      56.29540000      45.75590000
C       47.76260000      43.70400000      45.75630000
C       56.29550000      45.75620000      52.23890000
C       43.70450000      45.75590000      47.76170000
C       56.29600000      54.24380000      47.76250000
C       45.75680000      47.76160000      43.70400000
C       54.24320000      47.76260000      56.29640000
C       45.75540000      52.23840000      56.29510000
C       43.70380000      52.23820000      54.24300000
C       54.24370000      43.70440000      52.23890000
C       52.23860000      54.24340000      43.70420000
C       56.29520000      47.76240000      54.24480000
C       56.29620000      52.23760000      45.75660000
C       43.70480000      47.76180000      45.75550000
C       45.75580000      56.29590000      52.23700000
C       45.75630000      43.70410000      47.76210000
C       54.24420000      56.29560000      47.76210000
C       47.76280000      45.75560000      43.70430000
C       47.76140000      54.24440000      56.29520000
C       52.23720000      45.75660000      56.29630000
C       57.05930000      47.92490000      53.03330000
C       47.92390000      53.03290000      57.05920000
C       53.03260000      57.05950000      47.92450000
C       42.94000000      52.07550000      53.03140000
C       57.06000000      52.07510000      46.96830000
C       42.94070000      47.92450000      46.96700000
C       52.07450000      46.96820000      57.06010000
C       47.92550000      46.96710000      42.94040000
C       52.07610000      53.03180000      42.94040000
C       46.96790000      42.94020000      47.92490000
C       53.03210000      42.94050000      52.07620000
C       46.96740000      57.05980000      52.07440000
C       47.92430000      57.05990000      53.03160000
C       53.03150000      47.92520000      57.06010000
C       57.05990000      53.03220000      47.92530000
C       52.07500000      42.94060000      53.03310000
C       52.07570000      57.05940000      46.96740000
C       47.92500000      42.94010000      46.96800000
C       46.96690000      52.07580000      57.05910000
C       46.96850000      47.92420000      42.94020000
C       53.03310000      52.07480000      42.94060000
C       42.94060000      46.96750000      47.92410000
C       42.94010000      53.03250000      52.07430000
C       57.05940000      46.96780000      52.07630000
