240
Lattice="100.0 0.0 0.0 0.0 100.0 0.0 0.0 0.0 100.0" Properties=species:S:1:pos:R:3 name=C-97510-5923-1213 pressure=-6.29265256138849 energy=-1766.72048362903 spacegroup=C1 times_found=1 pbc="T T T"
C       50.46290000      42.90090000      45.99590000
C       43.68380000      46.39170000      50.64900000
C       45.85370000      50.12760000      44.09130000
C       49.53700000      43.49550000      54.06620000
C       50.13490000      55.53860000      46.40440000
C       50.80620000      55.73930000      54.35120000
C       56.04730000      46.41380000      49.14620000
C       56.28830000      54.40080000      50.67810000
C       43.87180000      54.42600000      49.18600000
C       53.75900000      51.00130000      56.65470000
C       53.51140000      49.03700000      44.32400000
C       45.70830000      48.82450000      55.83930000
C       51.47390000      55.85960000      46.44460000
C       43.53220000      54.55350000      50.49660000
C       45.92380000      48.76690000      44.22780000
C       49.44300000      55.57810000      54.23940000
C       49.10500000      42.85780000      46.02650000
C       50.91520000      43.33470000      54.11850000
C       56.30090000      54.38990000      49.31060000
C       55.82890000      46.54700000      50.47400000
C       43.57490000      46.37430000      49.30740000
C       53.82140000      49.65610000      56.59940000
C       53.64870000      50.38770000      44.23130000
C       45.55350000      50.17560000      56.02340000
C       54.29390000      48.13980000      45.14160000
C       49.04600000      44.61120000      54.75660000
C       45.10200000      54.92460000      48.57720000
C       45.33960000      48.12240000      54.65150000
C       44.92340000      50.97590000      44.70390000
C       54.60960000      51.70990000      55.79840000
C       51.01930000      43.66520000      44.96550000
C       51.79170000      54.99330000      55.11550000
C       49.22870000      54.72030000      45.63400000
C       55.64910000      55.37790000      51.43560000
C       55.24610000      45.50750000      48.49130000
C       44.65900000      45.53150000      51.20420000
C       54.54430000      51.22270000      44.89750000
C       48.51160000      54.67390000      54.90850000
C       44.36260000      45.44050000      48.63820000
C       44.91410000      51.10460000      55.15530000
C       45.18910000      47.93660000      45.14710000
C       54.82820000      49.16870000      55.74420000
C       52.49400000      55.41020000      45.55340000
C       51.65480000      44.35210000      54.73490000
C       48.46460000      43.54390000      45.00680000
C       54.86070000      45.75170000      51.19300000
C       55.54050000      55.25370000      48.43750000
C       44.37700000      55.37430000      51.21900000
C       44.17900000      52.62030000      53.54300000
C       51.66370000      53.44790000      44.13750000
C       52.99840000      43.96480000      51.24130000
C       55.78700000      52.48560000      46.29090000
C       55.59820000      48.51290000      53.63830000
C       44.34500000      48.33140000      46.30160000
C       48.02460000      52.61920000      56.31140000
C       47.65620000      45.47080000      44.06850000
C       52.42280000      46.43130000      55.37610000
C       46.05880000      44.21110000      47.67140000
C       46.34550000      55.82140000      52.23210000
C       54.32300000      55.99490000      48.70990000
C       44.54680000      48.54710000      53.48900000
C       51.67720000      45.73390000      44.10590000
C       53.99910000      56.36330000      52.67440000
C       55.28630000      48.44750000      46.19300000
C       55.63210000      52.77450000      53.99130000
C       44.03930000      52.34190000      46.27050000
C       48.76580000      46.87540000      55.36780000
C       47.66630000      53.30650000      44.58460000
C       51.55770000      53.78190000      55.87530000
C       47.47000000      55.90780000      48.82720000
C       46.89190000      44.90270000      51.70840000
C       53.52060000      44.32410000      47.56680000
C       52.39650000      47.02370000      44.05390000
C       47.86270000      44.32050000      52.62580000
C       43.97380000      53.25660000      47.32560000
C       47.24920000      47.02680000      55.72540000
C       46.82780000      52.27540000      44.03700000
C       52.68840000      52.98570000      56.25310000
C       52.50200000      43.58440000      46.89490000
C       52.84010000      56.35330000      53.50050000
C       48.04590000      55.62540000      47.52430000
C       56.18480000      53.50220000      52.87510000
C       55.67370000      47.34150000      47.03740000
C       44.32880000      47.52360000      52.52710000
C       52.78310000      52.54960000      44.08110000
C       47.48140000      55.75190000      53.08550000
C       43.99870000      47.31580000      47.25010000
C       46.66530000      52.21000000      56.26440000
C       46.92590000      46.70850000      43.97730000
C       52.99740000      47.57980000      55.97530000
C       53.47170000      56.10250000      47.57230000
C       52.76450000      43.83530000      52.69230000
C       47.04180000      43.43830000      46.97480000
C       55.71940000      47.75310000      52.38980000
C       56.32020000      53.32210000      47.29860000
C       43.65340000      53.52780000      52.58530000
C       47.93730000      50.33460000      56.87700000
C       51.37660000      56.60040000      48.85510000
C       56.87800000      48.75930000      50.26530000
C       51.38750000      50.69750000      43.28850000
C       51.38930000      49.50060000      56.70450000
C       48.00110000      48.74700000      42.90040000
C       49.43940000      56.80340000      52.02840000
C       49.05830000      42.53880000      48.38300000
C       50.98580000      42.64910000      51.74700000
C       43.32350000      48.84130000      49.16240000
C       42.70760000      52.22430000      50.65320000
C       57.02430000      52.04470000      49.38250000
C       48.08920000      48.95340000      56.62810000
C       50.54580000      42.73210000      48.39890000
C       57.11870000      52.12670000      50.86450000
C       51.36010000      49.25320000      43.10160000
C       51.31640000      50.98480000      56.84790000
C       48.05920000      50.20350000      43.05480000
C       49.54330000      42.56280000      51.79710000
C       49.91310000      56.49120000      48.74620000
C       50.86740000      56.98360000      52.15400000
C       42.78470000      52.18270000      49.19150000
C       43.35370000      48.87850000      50.67960000
C       56.69560000      48.73950000      48.81150000
C       45.89760000      54.45370000      54.18250000
C       54.82450000      54.67620000      46.11870000
C       54.94340000      47.48860000      54.41520000
C       52.08430000      54.66350000      44.54400000
C       53.31470000      45.78830000      54.36730000
C       46.66210000      44.65390000      44.78190000
C       45.37560000      55.22900000      53.13650000
C       45.31410000      45.08650000      46.71640000
C       54.39360000      46.40360000      53.74460000
C       45.66460000      45.38550000      45.40750000
C       45.15720000      53.27420000      54.46330000
C       54.88910000      53.35630000      45.51980000
C       48.37570000      46.53930000      53.86920000
C       54.20840000      45.22010000      46.58540000
C       54.76970000      53.67370000      54.82370000
C       52.71940000      44.92040000      44.74590000
C       54.36390000      54.98470000      54.56580000
C       47.00170000      54.17860000      45.57540000
C       46.41140000      46.09790000      52.41890000
C       45.66940000      54.07340000      46.01550000
C       54.95340000      55.64090000      53.49220000
C       44.89250000      53.08040000      45.37880000
C       47.06330000      46.76650000      53.45130000
C       53.75690000      45.61350000      45.33210000
C       52.58280000      51.20670000      43.72730000
C       51.61880000      42.98540000      52.92270000
C       43.05280000      53.43070000      51.28080000
C       46.62350000      50.85030000      56.68180000
C       46.99980000      48.06360000      43.56260000
C       52.64140000      48.83680000      56.62590000
C       48.34940000      42.82480000      47.23820000
C       48.80630000      56.18990000      53.11390000
C       52.06080000      56.32200000      47.65830000
C       56.72770000      53.22110000      48.64670000
C       56.26340000      47.76480000      51.08120000
C       43.46820000      47.58990000      48.56310000
C       52.35090000      48.42100000      43.71410000
C       51.46130000      56.53710000      53.35350000
C       43.59650000      47.65750000      51.31500000
C       46.91350000      48.21330000      56.39450000
C       46.96600000      50.89250000      43.60480000
C       52.52590000      51.67850000      56.79450000
C       49.42200000      55.99190000      47.54400000
C       48.86070000      43.28080000      52.80200000
C       51.23940000      42.92120000      47.18940000
C       56.32810000      47.53280000      48.28690000
C       56.65080000      53.25190000      51.50100000
C       43.31810000      53.31500000      48.53870000
C       54.38950000      47.84760000      55.59680000
C       47.25810000      54.88750000      54.23700000
C       55.72460000      54.63450000      47.18320000
C       45.74490000      46.66210000      44.85410000
C       45.54050000      52.35730000      55.41980000
C       54.07040000      52.57300000      44.72280000
C       53.73600000      55.53090000      46.28520000
C       52.78970000      44.59520000      53.91540000
C       47.15200000      43.61440000      45.50340000
C       44.21690000      54.86700000      52.53080000
C       44.44040000      45.94540000      47.34250000
C       54.91620000      46.45790000      52.45250000
C       54.03150000      52.98340000      55.74880000
C       48.18650000      45.15700000      53.80330000
C       55.14810000      46.01210000      47.18040000
C       45.44460000      52.27140000      44.43520000
C       46.31560000      47.08620000      54.61010000
C       53.64770000      46.91090000      44.84690000
C       52.33050000      43.81500000      45.43370000
C       53.03580000      55.47210000      54.63370000
C       47.95520000      54.91550000      46.27170000
C       45.04980000      46.28930000      52.33340000
C       45.02900000      54.27530000      47.28050000
C       55.85840000      54.93010000      52.75640000
C       54.19310000      44.68770000      48.95460000
C       44.01930000      49.87030000      53.11500000
C       49.15320000      53.64100000      44.63000000
C       45.74400000      44.78450000      50.53870000
C       46.14420000      55.59100000      49.41080000
C       54.44830000      56.18580000      51.26700000
C       55.79380000      49.79220000      46.61400000
C       55.38710000      51.31700000      54.64660000
C       44.14640000      50.89670000      45.91320000
C       50.27580000      53.18330000      56.13880000
C       50.42190000      44.83900000      44.27990000
C       49.75610000      45.67760000      55.43890000
C       53.75300000      56.35310000      50.00090000
C       44.22270000      51.10390000      53.89700000
C       48.96020000      44.73530000      44.27030000
C       45.71750000      55.76970000      50.85300000
C       45.49710000      44.64060000      49.07190000
C       53.98190000      44.73860000      50.47650000
C       55.50170000      51.05850000      45.94400000
C       55.43470000      49.80760000      54.54930000
C       43.93940000      49.69030000      46.70340000
C       51.17830000      45.56180000      55.39870000
C       50.28800000      52.93660000      44.01750000
C       48.90780000      53.64110000      55.81010000
C       57.49040000      50.93000000      51.49430000
C       50.17430000      51.81180000      56.65670000
C       51.76270000      57.12160000      51.16290000
C       42.91890000      51.07800000      48.44700000
C       43.39560000      49.97220000      51.74250000
C       56.52460000      49.89680000      47.93120000
C       49.16730000      50.93170000      42.92720000
C       49.22700000      48.16960000      56.04070000
C       50.28720000      48.63360000      42.54550000
C       48.63220000      56.49320000      49.59630000
C       48.79870000      42.21510000      50.72540000
C       51.32940000      43.00310000      49.45940000
C       57.37200000      49.82570000      50.93790000
C       50.41490000      48.66320000      56.27510000
C       51.84060000      43.17490000      50.65220000
C       43.37230000      49.89470000      48.08030000
C       42.86100000      51.12930000      51.40670000
C       56.95590000      50.96170000      48.60290000
C       49.16450000      48.11760000      42.42950000
C       48.80020000      51.49040000      56.74780000
C       50.22570000      51.60180000      43.34790000
C       48.40450000      42.23670000      49.56430000
C       48.70140000      56.80420000      50.87500000
C       52.32320000      56.76550000      50.01850000
